<VTKFile type="UnstructuredGrid" version="0.1" byte_order="LittleEndian">
<UnstructuredGrid>
<Piece NumberOfPoints="1187" NumberOfCells="1187">
<Points>
 <DataArray type="Float64" NumberOfComponents="3" format="ascii"> -2.332000e-02 1.736043e-04 0.000000e+00 -2.232320e-02 1.539420e-04 0.000000e+00 -2.136317e-02 1.603477e-04 0.000000e+00 -2.040513e-02 1.642530e-04 0.000000e+00 -1.944433e-02 1.655560e-04 0.000000e+00 -1.848023e-02 1.652967e-04 0.000000e+00 -1.751903e-02 1.563843e-04 0.000000e+00 -1.656200e-02 1.559450e-04 0.000000e+00 -1.560550e-02 1.591977e-04 0.000000e+00 -1.464463e-02 1.630360e-04 0.000000e+00 -1.368757e-02 1.657183e-04 0.000000e+00 -1.272113e-02 1.614177e-04 0.000000e+00 -1.176670e-02 1.655930e-04 0.000000e+00 -1.080180e-02 1.615147e-04 0.000000e+00 -9.848193e-03 1.588433e-04 0.000000e+00 -8.875250e-03 1.613557e-04 0.000000e+00 -7.915243e-03 1.670577e-04 0.000000e+00 -6.956947e-03 1.640973e-04 0.000000e+00 -6.006427e-03 1.415340e-04 0.000000e+00 -5.035117e-03 1.576240e-04 0.000000e+00 -4.075140e-03 1.611887e-04 0.000000e+00 -3.122987e-03 1.483890e-04 0.000000e+00 -2.163810e-03 1.587610e-04 0.000000e+00 -1.195820e-03 1.744137e-04 0.000000e+00 -1.989733e-04 2.049480e-04 0.000000e+00 5.899183e-03 6.880700e-04 0.000000e+00 9.634380e-03 8.314163e-04 0.000000e+00 1.288147e-02 8.811043e-04 0.000000e+00 1.556457e-02 8.507557e-04 0.000000e+00 1.625697e-02 1.110600e-03 0.000000e+00 1.714523e-02 1.943163e-03 0.000000e+00 1.858460e-02 2.346393e-03 0.000000e+00 2.161180e-02 2.502910e-03 0.000000e+00 2.617350e-02 2.524113e-03 0.000000e+00 3.137873e-02 2.639627e-03 0.000000e+00 3.752137e-02 3.008683e-03 0.000000e+00 3.776597e-02 6.166347e-03 0.000000e+00 3.784643e-02 1.101230e-02 0.000000e+00 3.786090e-02 1.518913e-02 0.000000e+00 3.783230e-02 1.955867e-02 0.000000e+00 3.754713e-02 2.470217e-02 0.000000e+00 3.723927e-02 2.790707e-02 0.000000e+00 3.628640e-02 2.608390e-02 0.000000e+00 3.611833e-02 2.912723e-02 0.000000e+00 3.408643e-02 2.912723e-02 0.000000e+00 3.087660e-02 2.921273e-02 0.000000e+00 2.501827e-02 2.926087e-02 0.000000e+00 1.904280e-02 2.911593e-02 0.000000e+00 1.198477e-02 2.896897e-02 0.000000e+00 3.632203e-03 2.877927e-02 0.000000e+00 -6.986700e-03 2.871053e-02 0.000000e+00 -1.324537e-02 2.870067e-02 0.000000e+00 -1.980157e-02 2.827160e-02 0.000000e+00 -1.603787e-02 2.697227e-02 0.000000e+00 -2.214197e-02 2.605700e-02 0.000000e+00 -2.292793e-02 2.020170e-02 0.000000e+00 3.262367e-02 1.308173e-02 0.000000e+00 3.230910e-02 1.158190e-02 0.000000e+00 3.163363e-02 1.021931e-02 0.000000e+00 3.067930e-02 9.118857e-03 0.000000e+00 2.954320e-02 8.202103e-03 0.000000e+00 2.821697e-02 7.534673e-03 0.000000e+00 2.677307e-02 7.219233e-03 0.000000e+00 2.535023e-02 7.229130e-03 0.000000e+00 2.386283e-02 7.541663e-03 0.000000e+00 2.245127e-02 8.173457e-03 0.000000e+00 2.127943e-02 9.111423e-03 0.000000e+00 2.036480e-02 1.024937e-02 0.000000e+00 1.971930e-02 1.160353e-02 0.000000e+00 1.938457e-02 1.303760e-02 0.000000e+00 1.937697e-02 1.447027e-02 0.000000e+00 1.966720e-02 1.588373e-02 0.000000e+00 2.030720e-02 1.725297e-02 0.000000e+00 2.126137e-02 1.847507e-02 0.000000e+00 2.246777e-02 1.943387e-02 0.000000e+00 2.380200e-02 2.006090e-02 0.000000e+00 2.519913e-02 2.038260e-02 0.000000e+00 2.659083e-02 2.039017e-02 0.000000e+00 2.803923e-02 2.009040e-02 0.000000e+00 2.941547e-02 1.950650e-02 0.000000e+00 3.063903e-02 1.857997e-02 0.000000e+00 3.163043e-02 1.731373e-02 0.000000e+00 3.228907e-02 1.595550e-02 0.000000e+00 3.260633e-02 1.455787e-02 0.000000e+00 3.678733e-02 4.307610e-03 0.000000e+00 -2.364000e-02 1.736043e-04 0.000000e+00 -2.281467e-02 1.631223e-04 0.000000e+00 -2.309467e-02 3.367267e-04 0.000000e+00 -2.257787e-02 3.170643e-04 0.000000e+00 -2.184373e-02 1.550423e-04 0.000000e+00 -2.160690e-02 3.153900e-04 0.000000e+00 -2.087983e-02 1.651600e-04 0.000000e+00 -1.992243e-02 1.635233e-04 0.000000e+00 -1.896147e-02 1.715653e-04 0.000000e+00 -1.920580e-02 3.371213e-04 0.000000e+00 -1.872170e-02 3.368620e-04 0.000000e+00 -1.799830e-02 1.583367e-04 0.000000e+00 -1.704340e-02 1.550750e-04 0.000000e+00 -1.607933e-02 1.567140e-04 0.000000e+00 -1.512317e-02 1.617350e-04 0.000000e+00 -1.536867e-02 3.209327e-04 0.000000e+00 -1.488780e-02 3.247710e-04 0.000000e+00 -1.417147e-02 1.657430e-04 0.000000e+00 -1.320137e-02 1.615120e-04 0.000000e+00 -1.224380e-02 1.628883e-04 0.000000e+00 -1.248493e-02 3.243060e-04 0.000000e+00 -1.201050e-02 3.284813e-04 0.000000e+00 -1.128930e-02 1.641377e-04 0.000000e+00 -1.032373e-02 1.591453e-04 0.000000e+00 -9.361707e-03 1.591803e-04 0.000000e+00 -9.609900e-03 3.180237e-04 0.000000e+00 -9.116957e-03 3.205360e-04 0.000000e+00 -8.396620e-03 1.641813e-04 0.000000e+00 -8.151863e-03 3.312390e-04 0.000000e+00 -7.440907e-03 1.688460e-04 0.000000e+00 -6.475497e-03 1.541883e-04 0.000000e+00 -5.522450e-03 1.401560e-04 0.000000e+00 -5.768877e-03 2.816900e-04 0.000000e+00 -5.277567e-03 2.977800e-04 0.000000e+00 -4.557890e-03 1.618643e-04 0.000000e+00 -3.599783e-03 1.586310e-04 0.000000e+00 -2.639110e-03 1.465977e-04 0.000000e+00 -1.678670e-03 1.661163e-04 0.000000e+00 -1.922480e-03 3.248773e-04 0.000000e+00 -1.434490e-03 3.405300e-04 0.000000e+00 -7.058257e-04 1.853213e-04 0.000000e+00 4.950083e-03 1.130889e-03 0.000000e+00 3.849230e-03 5.918352e-04 0.000000e+00 7.838260e-03 7.557517e-04 0.000000e+00 1.133543e-02 8.656797e-04 0.000000e+00 1.427630e-02 8.817397e-04 0.000000e+00 1.640513e-02 1.806197e-03 0.000000e+00 1.733643e-02 2.723213e-03 0.000000e+00 1.805710e-02 2.874010e-03 0.000000e+00 1.993840e-02 2.425463e-03 0.000000e+00 2.375830e-02 2.577830e-03 0.000000e+00 2.505957e-02 3.101943e-03 0.000000e+00 3.005377e-02 3.205280e-03 0.000000e+00 2.871977e-02 2.565653e-03 0.000000e+00 3.409720e-02 2.803037e-03 0.000000e+00 3.707943e-02 7.335193e-03 0.000000e+00 3.781347e-02 8.701033e-03 0.000000e+00 3.715990e-02 9.769497e-03 0.000000e+00 3.788740e-02 1.314723e-02 0.000000e+00 3.774823e-02 1.729790e-02 0.000000e+00 3.770757e-02 2.198053e-02 0.000000e+00 1.732697e-02 2.813503e-02 0.000000e+00 1.557927e-02 2.901910e-02 0.000000e+00 3.269900e-02 2.833997e-02 0.000000e+00 2.935370e-02 2.845227e-02 0.000000e+00 2.781170e-02 2.923953e-02 0.000000e+00 2.639500e-02 2.850040e-02 0.000000e+00 2.223157e-02 2.922417e-02 0.000000e+00 1.381527e-02 2.798807e-02 0.000000e+00 8.031137e-03 2.889270e-02 0.000000e+00 -4.123090e-03 2.728437e-02 0.000000e+00 -1.198417e-03 2.857383e-02 0.000000e+00 -1.002719e-02 2.741120e-02 0.000000e+00 3.294570e-02 1.223310e-02 0.000000e+00 3.308240e-02 1.382250e-02 0.000000e+00 3.240927e-02 1.066846e-02 0.000000e+00 3.151247e-02 9.382083e-03 0.000000e+00 3.036437e-02 8.311407e-03 0.000000e+00 2.906530e-02 7.459887e-03 0.000000e+00 2.756433e-02 6.933003e-03 0.000000e+00 2.604700e-02 6.802027e-03 0.000000e+00 2.451277e-02 6.968320e-03 0.000000e+00 2.295897e-02 7.446843e-03 0.000000e+00 2.158077e-02 8.277360e-03 0.000000e+00 2.046297e-02 9.380470e-03 0.000000e+00 1.962013e-02 1.072123e-02 0.000000e+00 1.909593e-02 1.221973e-02 0.000000e+00 1.891300e-02 1.375080e-02 0.000000e+00 1.906483e-02 1.527593e-02 0.000000e+00 1.955993e-02 1.677317e-02 0.000000e+00 2.042313e-02 1.817600e-02 0.000000e+00 2.157573e-02 1.932917e-02 0.000000e+00 2.294480e-02 2.016120e-02 0.000000e+00 2.440160e-02 2.064950e-02 0.000000e+00 2.589963e-02 2.081680e-02 0.000000e+00 2.739473e-02 2.065897e-02 0.000000e+00 2.894647e-02 2.018490e-02 0.000000e+00 3.032357e-02 1.941143e-02 0.000000e+00 3.151980e-02 1.822977e-02 0.000000e+00 3.238047e-02 1.681127e-02 0.000000e+00 3.289473e-02 1.536320e-02 0.000000e+00 -1.138429e-03 8.096280e-03 0.000000e+00 -2.208693e-02 3.089843e-04 0.000000e+00 -2.112300e-02 3.255077e-04 0.000000e+00 -2.016757e-02 3.277763e-04 0.000000e+00 -1.775733e-02 3.147210e-04 0.000000e+00 -1.823853e-02 3.236333e-04 0.000000e+00 -1.728243e-02 3.114593e-04 0.000000e+00 -1.632133e-02 3.126590e-04 0.000000e+00 -1.393903e-02 3.314613e-04 0.000000e+00 -1.441610e-02 3.287790e-04 0.000000e+00 -1.344893e-02 3.272303e-04 0.000000e+00 -1.105110e-02 3.256523e-04 0.000000e+00 -1.153600e-02 3.297307e-04 0.000000e+00 -1.056553e-02 3.206600e-04 0.000000e+00 -8.631870e-03 3.255370e-04 0.000000e+00 -7.676150e-03 3.359037e-04 0.000000e+00 -6.712443e-03 3.182857e-04 0.000000e+00 -4.313030e-03 3.230530e-04 0.000000e+00 -4.793007e-03 3.194883e-04 0.000000e+00 -3.834923e-03 3.198197e-04 0.000000e+00 -2.882097e-03 2.949867e-04 0.000000e+00 -4.247990e-04 3.902693e-04 0.000000e+00 -9.416457e-04 3.597350e-04 0.000000e+00 6.837617e-03 1.229541e-03 0.000000e+00 1.043452e-02 1.369913e-03 0.000000e+00 1.359147e-02 1.341531e-03 0.000000e+00 1.928013e-02 2.771857e-03 0.000000e+00 2.269583e-02 3.080740e-03 0.000000e+00 2.752970e-02 3.089767e-03 0.000000e+00 3.266823e-02 3.442663e-03 0.000000e+00 3.723383e-02 1.202530e-02 0.000000e+00 3.710913e-02 1.624160e-02 0.000000e+00 3.703987e-02 2.079103e-02 0.000000e+00 2.364283e-02 2.848503e-02 0.000000e+00 1.001834e-02 2.786167e-02 0.000000e+00 1.148280e-03 2.735310e-02 0.000000e+00 -2.187153e-02 1.781887e-02 0.000000e+00 -1.584483e-02 3.159117e-04 0.000000e+00 -2.402920e-03 3.053587e-04 0.000000e+00 1.209650e-02 1.370374e-03 0.000000e+00 1.496447e-02 1.270496e-03 0.000000e+00 3.675470e-02 2.326907e-02 0.000000e+00 -1.968677e-02 3.290793e-04 0.000000e+00 -2.064497e-02 3.294130e-04 0.000000e+00 -1.680540e-02 3.110200e-04 0.000000e+00 -1.296250e-02 3.229297e-04 0.000000e+00 -1.009193e-02 3.179887e-04 0.000000e+00 -6.241923e-03 2.957223e-04 0.000000e+00 -7.197853e-03 3.329433e-04 0.000000e+00 -3.362770e-03 3.070200e-04 0.000000e+00 8.672683e-03 1.313877e-03 0.000000e+00 2.076100e-02 2.928373e-03 0.000000e+00 3.708053e-02 1.843863e-02 0.000000e+00 3.724830e-02 1.411830e-02 0.000000e+00 2.070107e-02 2.834010e-02 0.000000e+00 5.806120e-03 2.767197e-02 0.000000e+00 -2.113147e-02 6.741743e-04 0.000000e+00 -2.017700e-02 6.675697e-04 0.000000e+00 -1.681017e-02 6.413607e-04 0.000000e+00 -1.776050e-02 6.320880e-04 0.000000e+00 -2.065687e-02 6.803663e-04 0.000000e+00 -2.042647e-02 8.549997e-04 0.000000e+00 -1.728120e-02 6.240420e-04 0.000000e+00 -1.752097e-02 7.863340e-04 0.000000e+00 -1.704693e-02 7.979983e-04 0.000000e+00 -1.823567e-02 6.679367e-04 0.000000e+00 -1.799860e-02 8.200070e-04 0.000000e+00 -1.297003e-02 6.521550e-04 0.000000e+00 -1.395507e-02 6.872580e-04 0.000000e+00 -2.422197e-03 6.212563e-04 0.000000e+00 -1.345897e-02 6.659070e-04 0.000000e+00 -1.371363e-02 8.601917e-04 0.000000e+00 -1.321893e-02 8.294140e-04 0.000000e+00 -1.443523e-02 6.776690e-04 0.000000e+00 -1.420663e-02 8.704297e-04 0.000000e+00 -1.106217e-02 6.789157e-04 0.000000e+00 -1.010423e-02 6.359690e-04 0.000000e+00 -1.056813e-02 6.585800e-04 0.000000e+00 -1.081547e-02 8.526980e-04 0.000000e+00 -1.033863e-02 8.150457e-04 0.000000e+00 -1.155370e-02 6.818440e-04 0.000000e+00 -1.131807e-02 8.695143e-04 0.000000e+00 -8.626533e-03 6.718603e-04 0.000000e+00 -6.225067e-03 6.136127e-04 0.000000e+00 -7.670987e-03 6.826937e-04 0.000000e+00 -6.692707e-03 6.670623e-04 0.000000e+00 -6.438903e-03 8.208553e-04 0.000000e+00 -3.352210e-03 6.298753e-04 0.000000e+00 -4.315503e-03 6.706063e-04 0.000000e+00 -7.183523e-03 6.831767e-04 0.000000e+00 -7.421413e-03 8.658693e-04 0.000000e+00 -6.922880e-03 8.631073e-04 0.000000e+00 -3.822647e-03 6.598830e-04 0.000000e+00 -4.065337e-03 8.488053e-04 0.000000e+00 -3.576947e-03 8.215497e-04 0.000000e+00 -4.803527e-03 6.599717e-04 0.000000e+00 -4.570883e-03 8.499010e-04 0.000000e+00 -2.886033e-03 5.791333e-04 0.000000e+00 -3.116363e-03 7.553910e-04 0.000000e+00 -2.662323e-03 7.466420e-04 0.000000e+00 8.547863e-03 2.366473e-03 0.000000e+00 -3.893530e-04 7.865993e-04 0.000000e+00 1.206793e-02 2.382087e-03 0.000000e+00 6.754843e-03 2.251067e-03 0.000000e+00 7.630667e-03 2.829873e-03 0.000000e+00 4.990537e-03 2.142250e-03 0.000000e+00 5.856863e-03 2.720957e-03 0.000000e+00 -9.266963e-04 7.301950e-04 0.000000e+00 -6.554303e-04 9.521113e-04 0.000000e+00 1.034436e-02 2.423680e-03 0.000000e+00 1.121670e-02 2.931160e-03 0.000000e+00 3.125810e-03 1.048723e-03 0.000000e+00 2.066553e-02 3.906283e-03 0.000000e+00 1.505923e-02 2.117567e-03 0.000000e+00 1.917840e-02 3.580290e-03 0.000000e+00 1.974120e-02 4.211807e-03 0.000000e+00 3.511567e-02 2.311397e-02 0.000000e+00 1.580750e-02 2.393423e-03 0.000000e+00 2.260070e-02 4.251100e-03 0.000000e+00 3.586613e-02 1.862647e-02 0.000000e+00 3.603747e-02 1.191807e-02 0.000000e+00 3.005147e-02 4.419667e-03 0.000000e+00 3.250367e-02 4.738617e-03 0.000000e+00 3.524783e-02 4.101963e-03 0.000000e+00 -2.209340e-02 6.150420e-04 0.000000e+00 3.573183e-02 7.171230e-03 0.000000e+00 3.579240e-02 9.645447e-03 0.000000e+00 3.509837e-02 8.413020e-03 0.000000e+00 3.528257e-02 1.078102e-02 0.000000e+00 2.079387e-02 2.676097e-02 0.000000e+00 3.563480e-02 2.079390e-02 0.000000e+00 3.521283e-02 1.974937e-02 0.000000e+00 3.466347e-02 2.182830e-02 0.000000e+00 3.609167e-02 1.403767e-02 0.000000e+00 2.365937e-02 2.705360e-02 0.000000e+00 1.749990e-02 2.625723e-02 0.000000e+00 3.429497e-02 2.573990e-02 0.000000e+00 3.391667e-02 2.420307e-02 0.000000e+00 3.273947e-02 2.677580e-02 0.000000e+00 9.975903e-03 2.575977e-02 0.000000e+00 -4.668067e-03 2.470700e-02 0.000000e+00 2.635837e-02 2.710997e-02 0.000000e+00 2.499817e-02 2.643900e-02 0.000000e+00 1.376610e-02 2.603250e-02 0.000000e+00 1.570303e-02 2.518573e-02 0.000000e+00 1.189317e-02 2.491150e-02 0.000000e+00 -9.891197e-03 2.493080e-02 0.000000e+00 -1.994560e-02 1.818683e-02 0.000000e+00 -1.508767e-02 2.441360e-02 0.000000e+00 -2.106990e-02 2.280297e-02 0.000000e+00 -2.161170e-02 6.396367e-04 0.000000e+00 -2.185500e-02 7.853467e-04 0.000000e+00 -2.137643e-02 8.332610e-04 0.000000e+00 -8.140893e-03 6.772690e-04 0.000000e+00 -8.380313e-03 8.565347e-04 0.000000e+00 -7.899110e-03 8.598777e-04 0.000000e+00 1.605870e-04 4.904367e-04 0.000000e+00 2.933663e-02 2.694580e-02 0.000000e+00 3.090000e-02 2.614210e-02 0.000000e+00 2.775800e-02 2.634263e-02 0.000000e+00 -2.234150e-02 1.564757e-02 0.000000e+00 3.388193e-02 1.206330e-02 0.000000e+00 -1.584783e-02 6.313860e-04 0.000000e+00 3.214200e-02 8.751980e-03 0.000000e+00 3.083187e-02 7.693727e-03 0.000000e+00 2.947333e-02 6.606507e-03 0.000000e+00 2.767550e-02 6.075050e-03 0.000000e+00 2.432400e-02 6.221340e-03 0.000000e+00 2.261970e-02 6.558173e-03 0.000000e+00 2.106680e-02 7.550473e-03 0.000000e+00 1.881357e-02 1.035269e-02 0.000000e+00 1.799233e-02 1.375013e-02 0.000000e+00 1.869060e-02 1.718847e-02 0.000000e+00 1.968563e-02 1.877930e-02 0.000000e+00 2.102133e-02 2.008083e-02 0.000000e+00 2.255063e-02 2.098120e-02 0.000000e+00 2.590557e-02 2.166383e-02 0.000000e+00 2.757607e-02 2.145653e-02 0.000000e+00 2.930520e-02 2.098250e-02 0.000000e+00 3.226413e-02 1.873693e-02 0.000000e+00 3.320063e-02 1.716293e-02 0.000000e+00 2.277147e-03 8.143718e-04 0.000000e+00 3.355163e-03 2.058880e-03 0.000000e+00 4.119037e-03 2.613353e-03 0.000000e+00 3.487887e-02 5.796737e-03 0.000000e+00 -2.104710e-02 1.444430e-02 0.000000e+00 2.066997e-03 1.553265e-03 0.000000e+00 -2.309697e-02 6.830367e-04 0.000000e+00 2.142120e-02 4.651180e-03 0.000000e+00 -2.090020e-02 8.647800e-04 0.000000e+00 -1.920997e-02 6.935513e-04 0.000000e+00 -1.274020e-02 8.278563e-04 0.000000e+00 -1.249647e-02 6.615193e-04 0.000000e+00 -1.632307e-02 6.368347e-04 0.000000e+00 3.356367e-02 5.793763e-03 0.000000e+00 -9.863427e-03 8.021573e-04 0.000000e+00 -9.612833e-03 6.433573e-04 0.000000e+00 -1.656850e-02 8.104613e-04 0.000000e+00 -5.994700e-03 7.347690e-04 0.000000e+00 -5.774007e-03 5.570347e-04 0.000000e+00 2.255800e-04 9.051833e-04 0.000000e+00 9.419393e-03 2.937780e-03 0.000000e+00 -9.853433e-05 1.016025e-03 0.000000e+00 1.286917e-02 2.836703e-03 0.000000e+00 1.360773e-02 2.285417e-03 0.000000e+00 2.624673e-03 2.309320e-03 0.000000e+00 -2.194553e-03 8.079053e-04 0.000000e+00 -1.933947e-03 6.581240e-04 0.000000e+00 1.438733e-02 2.672697e-03 0.000000e+00 1.837113e-02 3.682443e-03 0.000000e+00 7.976040e-03 2.452527e-02 0.000000e+00 5.793457e-03 2.540643e-02 0.000000e+00 1.595987e-02 3.243063e-03 0.000000e+00 1.674870e-02 3.435887e-03 0.000000e+00 2.345150e-02 4.894410e-03 0.000000e+00 2.234090e-02 2.621360e-02 0.000000e+00 2.768227e-02 4.134707e-03 0.000000e+00 2.887003e-02 4.824980e-03 0.000000e+00 3.121187e-02 5.149967e-03 0.000000e+00 -2.130067e-02 1.282827e-02 0.000000e+00 -1.985610e-02 1.497737e-02 0.000000e+00 1.930853e-02 2.565900e-02 0.000000e+00 -1.969310e-02 6.670293e-04 0.000000e+00 -2.703100e-03 2.327877e-02 0.000000e+00 1.463047e-03 1.631935e-03 0.000000e+00 -1.993820e-02 8.412667e-04 0.000000e+00 -1.922457e-02 1.654860e-02 0.000000e+00 -1.945483e-02 8.599360e-04 0.000000e+00 -1.215918e-02 2.366160e-02 0.000000e+00 -1.886943e-02 2.203520e-02 0.000000e+00 -2.339790e-02 1.381913e-02 0.000000e+00 3.400910e-02 1.385767e-02 0.000000e+00 -1.561703e-02 7.924050e-04 0.000000e+00 -1.537720e-02 6.386657e-04 0.000000e+00 3.400423e-02 1.651773e-02 0.000000e+00 3.378973e-02 1.557377e-02 0.000000e+00 3.319493e-02 1.817257e-02 0.000000e+00 3.048700e-02 2.104420e-02 0.000000e+00 3.103637e-02 2.015153e-02 0.000000e+00 2.857930e-02 2.168557e-02 0.000000e+00 2.677810e-02 2.203477e-02 0.000000e+00 2.322713e-02 2.174373e-02 0.000000e+00 2.422090e-02 2.151233e-02 0.000000e+00 2.151920e-02 2.100553e-02 0.000000e+00 2.099827e-02 2.193663e-02 0.000000e+00 1.996947e-02 1.983003e-02 0.000000e+00 1.870037e-02 1.827157e-02 0.000000e+00 1.753440e-02 1.466473e-02 0.000000e+00 1.814293e-02 1.547107e-02 0.000000e+00 1.800960e-02 1.104843e-02 0.000000e+00 1.819280e-02 1.203317e-02 0.000000e+00 2.003213e-02 7.793663e-03 0.000000e+00 1.972963e-02 8.789597e-03 0.000000e+00 2.159803e-02 6.557900e-03 0.000000e+00 2.333480e-02 5.906013e-03 0.000000e+00 2.678890e-02 5.522403e-03 0.000000e+00 2.666180e-02 4.580420e-03 0.000000e+00 2.595167e-02 5.963150e-03 0.000000e+00 2.873617e-02 5.823340e-03 0.000000e+00 3.177633e-02 7.871073e-03 0.000000e+00 -1.665090e-02 2.273057e-02 0.000000e+00 3.417483e-02 1.093852e-02 0.000000e+00 -1.608407e-02 7.963640e-04 0.000000e+00 2.506613e-02 5.643273e-03 0.000000e+00 1.882490e-02 9.289963e-03 0.000000e+00 1.756077e-02 1.285037e-02 0.000000e+00 1.787597e-02 1.649417e-02 0.000000e+00 2.502437e-02 2.209247e-02 0.000000e+00 3.209617e-02 1.982723e-02 0.000000e+00 3.333877e-02 1.019487e-02 0.000000e+00 -2.258683e-02 6.357107e-04 0.000000e+00 -2.282593e-02 8.280787e-04 0.000000e+00 -2.233863e-02 7.786460e-04 0.000000e+00 -1.872067e-02 6.936587e-04 0.000000e+00 -1.896460e-02 8.847920e-04 0.000000e+00 -1.847633e-02 8.663967e-04 0.000000e+00 -1.489527e-02 6.508127e-04 0.000000e+00 -1.513917e-02 8.055097e-04 0.000000e+00 -1.467123e-02 8.379677e-04 0.000000e+00 -1.202210e-02 6.773313e-04 0.000000e+00 -1.226693e-02 8.489517e-04 0.000000e+00 -1.179600e-02 8.665563e-04 0.000000e+00 -9.124930e-03 6.613460e-04 0.000000e+00 -9.372613e-03 8.253240e-04 0.000000e+00 -8.877887e-03 8.484890e-04 0.000000e+00 -5.293817e-03 6.175843e-04 0.000000e+00 -5.543830e-03 7.353050e-04 0.000000e+00 -5.061887e-03 8.179117e-04 0.000000e+00 -1.435627e-03 6.882900e-04 0.000000e+00 -1.691273e-03 8.471230e-04 0.000000e+00 -1.182007e-03 8.926337e-04 0.000000e+00 2.539530e-02 4.113310e-03 0.000000e+00 3.586767e-02 1.610443e-02 0.000000e+00 1.321520e-03 2.492930e-02 0.000000e+00 -2.259507e-02 1.193533e-02 0.000000e+00 -2.258303e-02 1.040013e-02 0.000000e+00 -2.062893e-02 1.077192e-02 0.000000e+00 5.624867e-04 1.286269e-03 0.000000e+00 3.792780e-03 2.408993e-02 0.000000e+00 3.442803e-02 1.480360e-02 0.000000e+00 -1.880153e-02 1.980190e-02 0.000000e+00 -2.148737e-02 1.008898e-02 0.000000e+00 3.319267e-02 9.115627e-03 0.000000e+00 -2.043020e-02 1.197600e-02 0.000000e+00 -1.990343e-02 1.000308e-02 0.000000e+00 -2.029727e-02 8.987387e-03 0.000000e+00 -2.121147e-02 9.009147e-03 0.000000e+00 2.105560e-02 5.737430e-03 0.000000e+00 -2.091647e-02 1.256287e-03 0.000000e+00 -1.421800e-02 1.270137e-03 0.000000e+00 3.319577e-02 6.996180e-03 0.000000e+00 -4.605877e-03 1.223703e-03 0.000000e+00 -1.132327e-02 1.269920e-03 0.000000e+00 4.062860e-03 2.192527e-02 0.000000e+00 -6.372183e-03 1.203270e-03 0.000000e+00 9.379530e-03 4.036273e-03 0.000000e+00 -1.655530e-02 1.218693e-03 0.000000e+00 7.580757e-03 3.932737e-03 0.000000e+00 8.458090e-03 4.567830e-03 0.000000e+00 1.796320e-02 4.402587e-03 0.000000e+00 1.293797e-02 3.861143e-03 0.000000e+00 -5.262590e-05 1.424830e-03 0.000000e+00 1.452027e-02 3.629000e-03 0.000000e+00 1.380947e-02 4.266160e-03 0.000000e+00 1.534453e-02 3.923510e-03 0.000000e+00 5.835037e-03 3.779433e-03 0.000000e+00 6.683107e-03 4.412407e-03 0.000000e+00 -6.442880e-04 1.361610e-03 0.000000e+00 -3.323022e-04 1.604903e-03 0.000000e+00 1.122253e-02 4.017227e-03 0.000000e+00 1.214257e-02 4.492593e-03 0.000000e+00 1.375263e-03 3.070085e-04 0.000000e+00 1.301493e-03 2.336470e-03 0.000000e+00 -3.277010e-03 2.101097e-02 0.000000e+00 2.251423e-02 2.490727e-02 0.000000e+00 8.089197e-03 2.242460e-02 0.000000e+00 -1.876427e-02 1.390437e-02 0.000000e+00 3.698614e-04 1.614533e-03 0.000000e+00 -1.947213e-02 1.251523e-03 0.000000e+00 1.974917e-02 2.420257e-02 0.000000e+00 3.387750e-02 8.240943e-03 0.000000e+00 -1.799170e-02 1.179814e-03 0.000000e+00 -1.176068e-02 2.144077e-02 0.000000e+00 3.238230e-02 2.381337e-02 0.000000e+00 -7.395687e-03 2.365277e-02 0.000000e+00 1.993857e-02 5.931157e-03 0.000000e+00 1.937983e-02 5.150430e-03 0.000000e+00 1.944633e-02 6.994817e-03 0.000000e+00 3.448660e-02 1.294710e-02 0.000000e+00 4.141643e-03 3.723167e-03 0.000000e+00 4.991317e-03 4.310540e-03 0.000000e+00 -6.312497e-03 6.714737e-03 0.000000e+00 2.496660e-02 2.305317e-02 0.000000e+00 1.683837e-02 1.681310e-02 0.000000e+00 1.652663e-02 1.277687e-02 0.000000e+00 3.041873e-02 6.731043e-03 0.000000e+00 -1.768927e-02 1.650597e-02 0.000000e+00 -1.908480e-02 1.251903e-02 0.000000e+00 -1.555473e-02 2.079750e-02 0.000000e+00 -1.359300e-02 2.025970e-02 0.000000e+00 -1.691940e-02 1.939447e-02 0.000000e+00 1.798517e-02 8.923917e-03 0.000000e+00 1.696250e-02 1.067353e-02 0.000000e+00 1.650410e-02 1.479313e-02 0.000000e+00 1.592790e-02 1.380503e-02 0.000000e+00 1.607503e-02 1.591840e-02 0.000000e+00 1.770087e-02 1.881257e-02 0.000000e+00 1.916480e-02 2.062803e-02 0.000000e+00 1.788147e-02 2.011830e-02 0.000000e+00 1.969573e-02 2.180993e-02 0.000000e+00 2.297093e-02 2.271157e-02 0.000000e+00 2.690143e-02 2.298603e-02 0.000000e+00 2.879597e-02 2.255727e-02 0.000000e+00 -6.512660e-03 7.574000e-03 0.000000e+00 -1.995007e-02 8.117607e-03 0.000000e+00 3.504740e-02 1.688067e-02 0.000000e+00 -1.894403e-02 1.014177e-02 0.000000e+00 -7.349987e-03 2.114787e-02 0.000000e+00 -5.196277e-03 1.993430e-02 0.000000e+00 -9.446997e-03 2.020507e-02 0.000000e+00 -2.067583e-02 1.447960e-03 0.000000e+00 -2.042917e-02 1.231087e-03 0.000000e+00 -8.886500e-03 1.250753e-03 0.000000e+00 -1.469827e-02 1.216292e-03 0.000000e+00 -1.447363e-02 1.455700e-03 0.000000e+00 -1.705957e-02 1.154897e-03 0.000000e+00 -1.680960e-02 1.406491e-03 0.000000e+00 -1.276757e-02 1.177555e-03 0.000000e+00 -6.878477e-03 1.251793e-03 0.000000e+00 -6.581583e-03 1.438163e-03 0.000000e+00 -5.121853e-03 1.180634e-03 0.000000e+00 -4.898487e-03 1.396497e-03 0.000000e+00 6.176693e-03 2.114110e-02 0.000000e+00 -1.181397e-03 1.277357e-03 0.000000e+00 -9.149440e-04 1.524417e-03 0.000000e+00 1.706143e-02 4.306827e-03 0.000000e+00 -3.548013e-03 1.192055e-03 0.000000e+00 -1.033743e-02 1.176084e-03 0.000000e+00 -7.393873e-03 1.229387e-03 0.000000e+00 -7.111580e-03 1.435380e-03 0.000000e+00 1.840910e-02 5.239057e-03 0.000000e+00 -1.323273e-02 1.157485e-03 0.000000e+00 -1.301120e-02 1.329925e-03 0.000000e+00 -2.752223e-03 1.078088e-03 0.000000e+00 1.031033e-02 4.608240e-03 0.000000e+00 -3.058167e-04 2.343233e-02 0.000000e+00 2.463687e-02 4.735417e-03 0.000000e+00 -2.019217e-02 1.386713e-03 0.000000e+00 -1.995067e-02 1.184323e-03 0.000000e+00 2.366580e-03 3.065250e-03 0.000000e+00 -4.355273e-03 1.423023e-03 0.000000e+00 -4.070113e-03 1.227420e-03 0.000000e+00 1.009526e-02 2.170593e-02 0.000000e+00 -1.746697e-02 1.479723e-02 0.000000e+00 3.507447e-02 1.790477e-02 0.000000e+00 -1.923220e-02 1.499817e-03 0.000000e+00 -1.896953e-02 1.299470e-03 0.000000e+00 -7.892657e-03 1.218833e-03 0.000000e+00 -7.636993e-03 1.405167e-03 0.000000e+00 3.216070e-02 2.239113e-02 0.000000e+00 1.692673e-02 9.611747e-03 0.000000e+00 -5.908683e-03 1.051952e-03 0.000000e+00 -6.072330e-03 1.313210e-03 0.000000e+00 -5.621790e-03 1.053866e-03 0.000000e+00 3.324287e-02 2.149517e-02 0.000000e+00 1.838910e-02 7.061943e-03 0.000000e+00 1.791060e-02 6.086910e-03 0.000000e+00 1.778547e-02 7.916903e-03 0.000000e+00 1.647350e-03 3.013730e-03 0.000000e+00 1.189937e-02 2.295833e-02 0.000000e+00 -1.181543e-02 1.253783e-03 0.000000e+00 -1.157833e-02 1.469477e-03 0.000000e+00 -8.375413e-03 1.240317e-03 0.000000e+00 -8.630247e-03 1.457907e-03 0.000000e+00 -8.129540e-03 1.420007e-03 0.000000e+00 1.665350e-02 1.804840e-02 0.000000e+00 1.541827e-02 1.847280e-02 0.000000e+00 -1.776230e-02 1.294650e-03 0.000000e+00 -1.752967e-02 1.089090e-03 0.000000e+00 -2.140577e-02 1.217903e-03 0.000000e+00 -1.561423e-02 1.132254e-03 0.000000e+00 -1.846850e-02 1.276543e-03 0.000000e+00 -1.822093e-02 1.437890e-03 0.000000e+00 -2.330020e-02 1.083144e-03 0.000000e+00 2.390693e-02 2.344087e-02 0.000000e+00 2.177350e-02 2.288013e-02 0.000000e+00 1.611157e-02 1.158477e-02 0.000000e+00 3.092113e-02 2.471650e-02 0.000000e+00 3.546280e-02 1.497133e-02 0.000000e+00 3.606617e-04 2.127843e-02 0.000000e+00 2.258078e-03 2.061073e-02 0.000000e+00 -1.355598e-03 2.000827e-02 0.000000e+00 -1.972287e-02 1.401673e-03 0.000000e+00 -1.010707e-02 1.326747e-03 0.000000e+00 -9.867473e-03 1.131897e-03 0.000000e+00 -2.556247e-03 1.304888e-03 0.000000e+00 -2.238703e-03 1.160091e-03 0.000000e+00 2.643367e-03 4.001433e-03 0.000000e+00 3.394317e-03 4.362860e-03 0.000000e+00 -2.117707e-02 1.450323e-03 0.000000e+00 -2.310203e-02 1.450570e-03 0.000000e+00 -2.281310e-02 1.205986e-03 0.000000e+00 3.402560e-02 1.855147e-02 0.000000e+00 2.498137e-02 2.521023e-02 0.000000e+00 -1.607943e-02 1.115453e-03 0.000000e+00 1.881230e-02 2.295780e-02 0.000000e+00 -1.652817e-02 1.773677e-02 0.000000e+00 -2.186673e-02 1.100641e-03 0.000000e+00 -2.165277e-02 1.339573e-03 0.000000e+00 2.791607e-02 2.327950e-02 0.000000e+00 3.086020e-02 2.209207e-02 0.000000e+00 -2.045917e-02 7.224357e-03 0.000000e+00 -2.233617e-02 1.093514e-03 0.000000e+00 -2.257153e-02 1.328486e-03 0.000000e+00 -2.210267e-02 1.245204e-03 0.000000e+00 -1.630523e-02 1.364156e-03 0.000000e+00 -1.106987e-02 1.462387e-03 0.000000e+00 -1.081797e-02 1.235763e-03 0.000000e+00 -1.396703e-02 1.472770e-03 0.000000e+00 -1.371423e-02 1.245997e-03 0.000000e+00 -1.584040e-02 1.290324e-03 0.000000e+00 2.381590e-02 2.451850e-02 0.000000e+00 1.709490e-02 2.249103e-02 0.000000e+00 1.669500e-02 2.083343e-02 0.000000e+00 1.559117e-02 2.335937e-02 0.000000e+00 -2.119297e-02 7.251023e-03 0.000000e+00 3.407990e-02 1.960833e-02 0.000000e+00 -1.846783e-02 9.088497e-03 0.000000e+00 -1.908003e-02 8.080033e-03 0.000000e+00 -2.159807e-02 8.166033e-03 0.000000e+00 3.308127e-02 2.031973e-02 0.000000e+00 -2.174757e-02 6.357997e-03 0.000000e+00 -2.243517e-02 6.670187e-03 0.000000e+00 -2.149623e-02 5.561960e-03 0.000000e+00 -2.313723e-02 4.654507e-03 0.000000e+00 -2.184190e-02 4.821557e-03 0.000000e+00 -2.142183e-02 4.208163e-03 0.000000e+00 -2.172737e-02 3.609793e-03 0.000000e+00 -2.084030e-02 4.205837e-03 0.000000e+00 -2.149360e-02 3.043390e-03 0.000000e+00 -2.233293e-02 3.631170e-03 0.000000e+00 -2.246367e-02 4.419383e-03 0.000000e+00 -2.257330e-02 3.067217e-03 0.000000e+00 -2.068393e-02 5.585367e-03 0.000000e+00 -2.020147e-02 6.354737e-03 0.000000e+00 -2.044807e-02 4.842637e-03 0.000000e+00 -2.226810e-02 2.529950e-03 0.000000e+00 -2.179397e-02 2.527500e-03 0.000000e+00 -1.515540e-02 1.123848e-03 0.000000e+00 -1.539063e-02 1.296853e-03 0.000000e+00 -1.493853e-02 1.347475e-03 0.000000e+00 -1.228723e-02 1.218807e-03 0.000000e+00 -1.254413e-02 1.381073e-03 0.000000e+00 -1.206183e-02 1.434413e-03 0.000000e+00 3.214527e-02 6.989957e-03 0.000000e+00 6.389880e-03 1.902650e-02 0.000000e+00 -1.586587e-02 1.658010e-03 0.000000e+00 -1.832413e-02 1.145363e-02 0.000000e+00 -9.392020e-03 1.205290e-03 0.000000e+00 -9.636287e-03 1.353064e-03 0.000000e+00 -9.152950e-03 1.443577e-03 0.000000e+00 -3.249300e-03 1.330035e-03 0.000000e+00 -1.719170e-03 1.210353e-03 0.000000e+00 -2.005993e-03 1.373540e-03 0.000000e+00 -1.462913e-03 1.436243e-03 0.000000e+00 1.648870e-02 5.063407e-03 0.000000e+00 1.689197e-02 6.007020e-03 0.000000e+00 -1.704230e-02 1.148207e-02 0.000000e+00 3.122137e-02 6.198890e-03 0.000000e+00 -1.056943e-02 1.402683e-03 0.000000e+00 -2.252480e-02 2.045517e-03 0.000000e+00 1.030179e-02 5.799427e-03 0.000000e+00 2.140783e-02 2.399820e-02 0.000000e+00 -3.239919e-04 2.043840e-03 0.000000e+00 1.366043e-02 2.225297e-02 0.000000e+00 1.032663e-02 1.971087e-02 0.000000e+00 -3.798490e-03 1.409003e-03 0.000000e+00 -1.617587e-02 1.434620e-02 0.000000e+00 -3.204307e-03 1.748133e-03 0.000000e+00 4.320971e-04 2.018573e-03 0.000000e+00 1.613933e-02 8.912403e-03 0.000000e+00 -2.065897e-02 1.835063e-03 0.000000e+00 1.020964e-03 1.152077e-03 0.000000e+00 -2.234517e-02 7.895970e-03 0.000000e+00 -2.305423e-02 9.050233e-03 0.000000e+00 -2.304607e-02 2.604983e-03 0.000000e+00 4.973437e-03 5.352780e-03 0.000000e+00 1.262162e-03 3.638083e-03 0.000000e+00 2.749337e-02 2.511667e-02 0.000000e+00 -2.096830e-02 3.020557e-03 0.000000e+00 2.989507e-02 2.290207e-02 0.000000e+00 -2.062053e-02 3.584633e-03 0.000000e+00 -1.617197e-02 1.723140e-03 0.000000e+00 -1.328490e-02 1.839800e-02 0.000000e+00 -1.485540e-02 1.727810e-02 0.000000e+00 -2.298653e-02 1.924353e-03 0.000000e+00 2.607693e-02 2.465523e-02 0.000000e+00 -2.078753e-02 2.558330e-03 0.000000e+00 7.870787e-04 2.389910e-03 0.000000e+00 1.792010e-05 2.267807e-03 0.000000e+00 2.597113e-02 2.357580e-02 0.000000e+00 1.491887e-02 1.151110e-02 0.000000e+00 -2.007123e-02 3.467573e-03 0.000000e+00 8.393337e-03 5.827850e-03 0.000000e+00 9.306243e-03 6.487480e-03 0.000000e+00 -2.314423e-02 5.869487e-03 0.000000e+00 1.527917e-02 1.995210e-02 0.000000e+00 -1.259567e-02 1.740287e-03 0.000000e+00 -2.094380e-02 2.112367e-03 0.000000e+00 -1.730253e-02 1.283696e-03 0.000000e+00 1.403352e-03 4.364327e-03 0.000000e+00 2.065327e-03 4.676157e-03 0.000000e+00 -1.560227e-02 1.880023e-03 0.000000e+00 -1.535320e-02 1.676937e-03 0.000000e+00 4.497693e-03 1.769773e-02 0.000000e+00 -4.969913e-03 1.795367e-03 0.000000e+00 -3.042387e-03 1.085045e-03 0.000000e+00 5.235677e-04 2.906910e-03 0.000000e+00 4.540733e-05 2.757087e-03 0.000000e+00 6.527940e-04 3.477823e-03 0.000000e+00 -7.080913e-03 1.845693e-03 0.000000e+00 -8.635597e-03 1.886973e-03 0.000000e+00 -9.423800e-04 1.962860e-03 0.000000e+00 -6.634137e-04 2.238990e-03 0.000000e+00 -1.395223e-02 1.915293e-03 0.000000e+00 -5.431743e-03 1.298868e-03 0.000000e+00 5.720470e-03 6.006920e-03 0.000000e+00 6.586420e-03 5.597653e-03 0.000000e+00 1.500233e-02 9.008217e-03 0.000000e+00 1.434810e-02 1.025143e-02 0.000000e+00 -1.310030e-02 1.721963e-03 0.000000e+00 -1.290820e-02 1.928807e-03 0.000000e+00 7.230303e-04 5.660440e-04 0.000000e+00 3.466220e-03 5.564160e-03 0.000000e+00 4.195667e-03 5.966707e-03 0.000000e+00 1.399070e-02 5.334313e-03 0.000000e+00 -1.472540e-02 1.559627e-02 0.000000e+00 -2.914127e-03 1.897733e-03 0.000000e+00 -2.617640e-03 1.667727e-03 0.000000e+00 1.374833e-02 2.050330e-02 0.000000e+00 1.223713e-02 5.621407e-03 0.000000e+00 3.553440e-02 1.295937e-02 0.000000e+00 8.533750e-03 1.831493e-02 0.000000e+00 -1.982320e-02 1.812960e-03 0.000000e+00 1.221863e-02 1.921360e-02 0.000000e+00 -3.810183e-03 1.837467e-03 0.000000e+00 -3.514713e-03 2.038617e-03 0.000000e+00 -1.601317e-02 1.273710e-02 0.000000e+00 -2.012940e-02 1.796157e-03 0.000000e+00 -1.871777e-02 1.518483e-03 0.000000e+00 -1.054170e-02 1.787013e-03 0.000000e+00 1.667390e-02 7.839290e-03 0.000000e+00 -7.617220e-03 1.751590e-03 0.000000e+00 -7.343433e-03 1.986123e-03 0.000000e+00 -2.034953e-02 2.027633e-03 0.000000e+00 -1.451710e-02 1.883743e-03 0.000000e+00 -1.424667e-02 2.140703e-03 0.000000e+00 -1.999300e-02 2.835090e-03 0.000000e+00 -1.817387e-02 1.847387e-03 0.000000e+00 -1.158917e-02 1.908830e-03 0.000000e+00 -1.347337e-02 1.379783e-03 0.000000e+00 -7.987167e-03 6.701330e-03 0.000000e+00 1.321377e-02 6.058110e-03 0.000000e+00 -1.980787e-02 4.769940e-03 0.000000e+00 -1.628837e-02 2.102513e-03 0.000000e+00 2.973440e-02 2.410427e-02 0.000000e+00 -1.769260e-02 1.627513e-03 0.000000e+00 -1.787493e-02 1.922173e-03 0.000000e+00 -1.739723e-02 1.621343e-03 0.000000e+00 1.130857e-02 6.337227e-03 0.000000e+00 -1.209114e-03 1.815727e-02 0.000000e+00 -1.105033e-02 1.894543e-03 0.000000e+00 -1.131457e-02 2.141430e-03 0.000000e+00 -1.077070e-02 2.052250e-03 0.000000e+00 -2.122127e-02 1.919300e-03 0.000000e+00 1.556063e-02 4.872913e-03 0.000000e+00 1.478577e-02 1.385910e-02 0.000000e+00 -2.160133e-02 2.047027e-03 0.000000e+00 -1.965080e-02 4.016080e-03 0.000000e+00 7.419317e-03 6.378003e-03 0.000000e+00 -2.036153e-02 2.489923e-03 0.000000e+00 -4.711743e-03 1.994110e-03 0.000000e+00 -4.389713e-03 1.794560e-03 0.000000e+00 2.479725e-03 1.849780e-02 0.000000e+00 -1.961513e-02 2.090693e-03 0.000000e+00 -1.962000e-02 2.616773e-03 0.000000e+00 -1.927487e-02 1.927700e-03 0.000000e+00 -1.024073e-02 1.970717e-03 0.000000e+00 -1.003810e-02 1.737050e-03 0.000000e+00 2.840220e-02 2.433070e-02 0.000000e+00 -2.839806e-03 1.707190e-02 0.000000e+00 1.419180e-02 1.275727e-02 0.000000e+00 -8.766773e-03 6.468413e-03 0.000000e+00 -1.944673e-02 6.297737e-03 0.000000e+00 -1.883440e-02 7.129783e-03 0.000000e+00 -2.347927e-02 3.404060e-03 0.000000e+00 -4.905557e-03 1.784623e-02 0.000000e+00 -1.239120e-02 1.986960e-03 0.000000e+00 -1.211427e-02 1.843353e-03 0.000000e+00 -2.507346e-03 1.531240e-02 0.000000e+00 1.491760e-02 5.646557e-03 0.000000e+00 -1.687710e-02 1.822007e-03 0.000000e+00 -1.722177e-02 1.908060e-03 0.000000e+00 -1.665217e-02 2.165210e-03 0.000000e+00 -1.156863e-02 1.759353e-02 0.000000e+00 -8.929953e-03 2.113863e-03 0.000000e+00 -9.191053e-03 1.877620e-03 0.000000e+00 -5.565400e-03 1.658247e-03 0.000000e+00 -5.326937e-03 1.938883e-03 0.000000e+00 1.625890e-02 6.904440e-03 0.000000e+00 -1.668350e-02 1.015628e-02 0.000000e+00 -1.928900e-02 5.455670e-03 0.000000e+00 7.287923e-04 1.731450e-02 0.000000e+00 -1.602497e-02 2.461033e-03 0.000000e+00 -1.454623e-02 1.242220e-02 0.000000e+00 -1.871353e-02 2.036793e-03 0.000000e+00 -1.900797e-02 2.245663e-03 0.000000e+00 -1.841720e-02 2.204350e-03 0.000000e+00 9.272310e-03 7.908027e-03 0.000000e+00 5.406847e-03 7.079490e-03 0.000000e+00 -1.748913e-02 9.074580e-03 0.000000e+00 -1.187870e-02 2.102077e-03 0.000000e+00 -1.339997e-02 1.762370e-03 0.000000e+00 -8.119757e-03 1.819140e-03 0.000000e+00 -8.370980e-03 2.068517e-03 0.000000e+00 -7.863100e-03 1.964390e-03 0.000000e+00 -6.282423e-03 1.662493e-02 0.000000e+00 1.341867e-02 7.401017e-03 0.000000e+00 7.169850e-03 7.685097e-03 0.000000e+00 6.023330e-03 7.977317e-03 0.000000e+00 8.109937e-03 8.555490e-03 0.000000e+00 -1.907997e-02 3.900743e-03 0.000000e+00 1.442253e-02 1.745567e-02 0.000000e+00 1.521260e-02 6.734470e-03 0.000000e+00 -8.936043e-03 2.560963e-03 0.000000e+00 -9.530517e-03 2.042283e-03 0.000000e+00 -1.858753e-02 5.335500e-03 0.000000e+00 -1.721137e-02 7.948403e-03 0.000000e+00 1.489443e-02 1.613657e-02 0.000000e+00 1.449060e-02 7.765133e-03 0.000000e+00 -1.506217e-02 1.719250e-03 0.000000e+00 -5.722840e-03 6.350240e-03 0.000000e+00 -1.486537e-02 2.016110e-03 0.000000e+00 1.290363e-02 1.283903e-02 0.000000e+00 -6.481560e-03 1.889177e-03 0.000000e+00 4.597220e-03 1.556333e-02 0.000000e+00 -2.180413e-02 1.699720e-03 0.000000e+00 -5.919093e-03 1.674503e-03 0.000000e+00 1.418137e-02 1.506537e-02 0.000000e+00 8.679277e-03 1.630933e-02 0.000000e+00 6.634933e-03 1.488650e-02 0.000000e+00 -6.118923e-03 2.015577e-03 0.000000e+00 -2.209237e-02 1.623540e-03 0.000000e+00 1.290100e-02 1.513930e-02 0.000000e+00 -5.440393e-03 2.361677e-03 0.000000e+00 -6.747787e-03 2.113120e-03 0.000000e+00 -6.884593e-03 6.191627e-03 0.000000e+00 -3.612637e-03 6.436050e-03 0.000000e+00 8.712427e-04 1.544710e-02 0.000000e+00 2.721702e-03 1.449600e-02 0.000000e+00 -7.342040e-04 1.453037e-02 0.000000e+00 -1.794443e-02 7.012070e-03 0.000000e+00 -2.361790e-02 7.368343e-04 0.000000e+00 -3.923863e-03 1.428817e-02 0.000000e+00 -8.584053e-03 2.775157e-03 0.000000e+00 -8.313347e-03 2.509600e-03 0.000000e+00 -1.684213e-02 2.630087e-03 0.000000e+00 1.991533e-03 5.710110e-03 0.000000e+00 2.641477e-03 6.236687e-03 0.000000e+00 1.221723e-02 1.401480e-02 0.000000e+00 -7.292483e-04 2.734400e-03 0.000000e+00 -1.785530e-02 6.059853e-03 0.000000e+00 -6.783110e-03 2.573143e-03 0.000000e+00 -1.362603e-02 2.071107e-03 0.000000e+00 -1.496333e-03 1.819270e-03 0.000000e+00 -1.242253e-03 2.098827e-03 0.000000e+00 -1.195750e-02 2.566263e-03 0.000000e+00 -2.054667e-03 1.779927e-03 0.000000e+00 -1.801263e-03 1.999767e-03 0.000000e+00 1.296877e-02 1.042496e-02 0.000000e+00 1.225137e-02 1.176640e-02 0.000000e+00 -3.623393e-04 3.028530e-03 0.000000e+00 -1.627190e-02 7.904603e-03 0.000000e+00 1.439277e-04 3.924113e-03 0.000000e+00 -1.326063e-02 1.503653e-02 0.000000e+00 -2.348770e-03 1.929317e-03 0.000000e+00 -1.433060e-02 1.096297e-02 0.000000e+00 -1.564497e-02 2.303673e-03 0.000000e+00 -3.510617e-03 2.524937e-03 0.000000e+00 -1.324417e-02 1.347157e-02 0.000000e+00 -1.543873e-02 9.952083e-03 0.000000e+00 -1.065270e-02 2.497867e-03 0.000000e+00 4.418123e-03 7.038540e-03 0.000000e+00 1.135227e-02 7.508490e-03 0.000000e+00 1.033455e-02 1.573907e-02 0.000000e+00 1.031156e-02 8.391237e-03 0.000000e+00 -1.429883e-02 2.682617e-03 0.000000e+00 -9.614553e-03 2.512657e-03 0.000000e+00 -9.281180e-03 2.795093e-03 0.000000e+00 -5.633190e-03 1.482637e-02 0.000000e+00 -4.672330e-03 2.446987e-03 0.000000e+00 -1.853557e-02 4.534433e-03 0.000000e+00 -4.116247e-03 2.027420e-03 0.000000e+00 -9.563047e-03 1.821953e-02 0.000000e+00 -1.167436e-02 1.591390e-02 0.000000e+00 -1.130407e-02 2.620610e-03 0.000000e+00 -1.092183e-02 2.819340e-03 0.000000e+00 -5.878687e-03 2.422113e-03 0.000000e+00 -1.774403e-02 2.256007e-03 0.000000e+00 -1.738623e-02 2.248063e-03 0.000000e+00 -1.043736e-02 1.510007e-02 0.000000e+00 -5.043957e-03 2.671037e-03 0.000000e+00 -1.661263e-02 3.032210e-03 0.000000e+00 -1.615927e-02 2.925853e-03 0.000000e+00 -1.530490e-02 8.826580e-03 0.000000e+00 -1.788193e-02 2.643970e-03 0.000000e+00 -1.355037e-02 2.552597e-03 0.000000e+00 -1.165747e-02 2.852197e-03 0.000000e+00 1.848327e-04 4.713570e-03 0.000000e+00 8.348890e-04 4.993523e-03 0.000000e+00 -3.111490e-03 2.688160e-03 0.000000e+00 -2.825407e-03 2.351440e-03 0.000000e+00 -9.488293e-03 7.056850e-03 0.000000e+00 -1.028449e-02 2.440730e-03 0.000000e+00 -1.392873e-02 2.938697e-03 0.000000e+00 -8.161880e-03 1.682443e-02 0.000000e+00 -1.825617e-02 2.667100e-03 0.000000e+00 -1.253403e-02 2.373363e-03 0.000000e+00 -1.288663e-02 2.336837e-03 0.000000e+00 -1.233590e-02 2.693943e-03 0.000000e+00 -1.315607e-02 2.673423e-03 0.000000e+00 -6.811970e-03 1.365983e-02 0.000000e+00 -1.711017e-02 5.774600e-03 0.000000e+00 -3.930453e-04 3.624643e-03 0.000000e+00 -1.173653e-02 3.380237e-03 0.000000e+00 -1.300040e-02 1.071463e-02 0.000000e+00 1.061252e-02 1.415900e-02 0.000000e+00 -1.582760e-02 7.009580e-03 0.000000e+00 -1.619673e-02 6.166447e-03 0.000000e+00 -6.036470e-03 2.818337e-03 0.000000e+00 -1.535920e-02 2.569007e-03 0.000000e+00 -2.865293e-03 6.514370e-03 0.000000e+00 -1.187350e-02 1.296927e-02 0.000000e+00 -1.065296e-02 1.372040e-02 0.000000e+00 -1.184537e-02 1.167157e-02 0.000000e+00 -1.891530e-02 3.224713e-03 0.000000e+00 -7.420233e-03 2.372283e-03 0.000000e+00 -7.764477e-03 2.356900e-03 0.000000e+00 -7.193037e-03 2.691877e-03 0.000000e+00 3.727220e-03 7.854223e-03 0.000000e+00 1.248573e-02 8.135577e-03 0.000000e+00 1.194527e-02 1.640010e-02 0.000000e+00 -4.269800e-03 2.476160e-03 0.000000e+00 -1.788833e-02 4.352280e-03 0.000000e+00 -6.495797e-03 2.888003e-03 0.000000e+00 -9.475977e-04 3.883497e-03 0.000000e+00 -5.739203e-03 3.297240e-03 0.000000e+00 1.223147e-02 9.438670e-03 0.000000e+00 -6.610013e-03 3.399960e-03 0.000000e+00 -3.599217e-03 1.270117e-02 0.000000e+00 -1.723153e-02 2.626887e-03 0.000000e+00 -3.959640e-03 2.772527e-03 0.000000e+00 -9.736680e-03 1.756013e-03 0.000000e+00 -1.840017e-02 3.179683e-03 0.000000e+00 -5.184983e-03 3.210377e-03 0.000000e+00 6.821800e-03 1.312750e-02 0.000000e+00 -1.200188e-03 2.899803e-03 0.000000e+00 -1.387831e-03 3.452787e-03 0.000000e+00 -4.043500e-03 3.305787e-03 0.000000e+00 -1.438377e-02 8.331100e-03 0.000000e+00 -1.384543e-02 3.556480e-03 0.000000e+00 -1.755063e-02 2.919223e-03 0.000000e+00 -1.744230e-02 3.436230e-03 0.000000e+00 -8.493413e-03 3.288777e-03 0.000000e+00 -1.473227e-02 7.242393e-03 0.000000e+00 -1.468030e-02 2.832790e-03 0.000000e+00 -1.057470e-03 4.532543e-03 0.000000e+00 -6.125120e-03 3.665847e-03 0.000000e+00 -8.930457e-03 1.538460e-02 0.000000e+00 -4.699720e-03 3.569023e-03 0.000000e+00 -4.805580e-03 4.196547e-03 0.000000e+00 -1.134593e-02 3.706283e-03 0.000000e+00 -1.088463e-02 3.376973e-03 0.000000e+00 -1.791760e-02 3.673560e-03 0.000000e+00 -1.298827e-02 3.175387e-03 0.000000e+00 -1.252070e-02 3.159380e-03 0.000000e+00 1.148431e-03 5.901070e-03 0.000000e+00 -7.526313e-03 6.125930e-03 0.000000e+00 -6.348597e-03 1.218810e-02 0.000000e+00 9.944867e-03 1.307290e-02 0.000000e+00 1.089731e-02 1.185607e-02 0.000000e+00 -2.461100e-03 2.350120e-03 0.000000e+00 1.075313e-02 9.606397e-03 0.000000e+00 -1.222137e-02 3.559740e-03 0.000000e+00 -1.719517e-02 4.868093e-03 0.000000e+00 -4.620123e-04 5.063147e-03 0.000000e+00 -1.001478e-02 2.728000e-03 0.000000e+00 1.275373e-02 1.764527e-02 0.000000e+00 -7.362847e-03 3.119283e-03 0.000000e+00 -7.963500e-03 2.652733e-03 0.000000e+00 -4.845170e-03 1.176763e-02 0.000000e+00 -1.490040e-02 3.914223e-03 0.000000e+00 8.487523e-03 1.261080e-02 0.000000e+00 1.013637e-02 1.068235e-02 0.000000e+00 -8.229780e-03 1.401857e-02 0.000000e+00 8.653530e-03 1.097362e-02 0.000000e+00 2.589219e-03 1.276427e-02 0.000000e+00 -1.329927e-02 3.672343e-03 0.000000e+00 7.731677e-03 1.001202e-02 0.000000e+00 4.151930e-03 9.101213e-03 0.000000e+00 -9.338280e-03 1.308823e-02 0.000000e+00 -7.067137e-03 3.512507e-03 0.000000e+00 5.459317e-03 9.183357e-03 0.000000e+00 -2.366837e-02 7.629943e-03 0.000000e+00 -1.689370e-02 3.546017e-03 0.000000e+00 -1.918807e-02 2.742643e-03 0.000000e+00 3.843907e-03 1.169663e-02 0.000000e+00 -9.268630e-03 3.276373e-03 0.000000e+00 -8.832853e-03 3.555863e-03 0.000000e+00 -5.758563e-04 1.288380e-02 0.000000e+00 8.971070e-04 1.206880e-02 0.000000e+00 -2.024352e-03 1.207883e-02 0.000000e+00 -2.239873e-02 1.694233e-03 0.000000e+00 -1.432877e-02 4.114027e-03 0.000000e+00 -1.414667e-02 6.556673e-03 0.000000e+00 -1.801880e-03 2.471090e-03 0.000000e+00 -1.699353e-03 4.750107e-03 0.000000e+00 -6.133437e-03 4.232630e-03 0.000000e+00 -5.518310e-03 4.536950e-03 0.000000e+00 -1.044850e-02 3.660183e-03 0.000000e+00 -1.139543e-02 4.312073e-03 0.000000e+00 -1.434227e-03 2.540360e-03 0.000000e+00 -7.188567e-03 1.122603e-02 0.000000e+00 -7.302283e-03 4.046530e-03 0.000000e+00 -1.550540e-02 5.481517e-03 0.000000e+00 -2.167613e-03 2.672053e-03 0.000000e+00 -1.539767e-02 3.087490e-03 0.000000e+00 -1.581773e-02 3.286977e-03 0.000000e+00 -1.494727e-02 3.272157e-03 0.000000e+00 -1.067011e-02 1.124327e-02 0.000000e+00 -7.789067e-03 3.095523e-03 0.000000e+00 -8.048273e-03 3.466010e-03 0.000000e+00 -1.238680e-02 4.119857e-03 0.000000e+00 -1.299713e-02 4.216453e-03 0.000000e+00 2.680020e-03 7.454917e-03 0.000000e+00 -2.970020e-03 3.209820e-03 0.000000e+00 -7.857200e-03 4.023793e-03 0.000000e+00 -3.453007e-03 3.579857e-03 0.000000e+00 -3.493653e-03 4.179940e-03 0.000000e+00 -2.390450e-03 3.195033e-03 0.000000e+00 -4.606983e-03 1.039577e-02 0.000000e+00 -6.130560e-04 5.782130e-03 0.000000e+00 -1.266643e-02 9.575283e-03 0.000000e+00 -1.332287e-02 8.581087e-03 0.000000e+00 -1.268200e-02 7.725413e-03 0.000000e+00 -1.315730e-02 6.789707e-03 0.000000e+00 3.280390e-03 1.013619e-02 0.000000e+00 1.974900e-03 9.722170e-03 0.000000e+00 1.799240e-03 8.287883e-03 0.000000e+00 8.463053e-04 1.058714e-02 0.000000e+00 -9.626547e-03 3.592587e-03 0.000000e+00 -6.853477e-03 4.500767e-03 0.000000e+00 -5.055653e-03 6.331243e-03 0.000000e+00 -4.190007e-03 4.533393e-03 0.000000e+00 -1.195147e-02 4.546143e-03 0.000000e+00 -1.581953e-02 4.818047e-03 0.000000e+00 -1.003932e-02 3.326650e-03 0.000000e+00 -2.030290e-03 3.625170e-03 0.000000e+00 -3.204090e-03 9.853840e-03 0.000000e+00 -1.455067e-02 5.638930e-03 0.000000e+00 -1.039437e-02 4.353167e-03 0.000000e+00 -1.497640e-02 2.423243e-03 0.000000e+00 -1.088000e-02 4.675747e-03 0.000000e+00 -2.381790e-02 2.182400e-03 0.000000e+00 -9.383557e-03 1.190880e-02 0.000000e+00 -1.655773e-02 3.962253e-03 0.000000e+00 -5.784650e-03 9.531123e-03 0.000000e+00 -6.862807e-03 9.940920e-03 0.000000e+00 -8.335000e-03 4.442427e-03 0.000000e+00 -2.919210e-03 4.527097e-03 0.000000e+00 6.227577e-03 1.034767e-02 0.000000e+00 -1.867412e-03 1.060337e-02 0.000000e+00 -1.065447e-02 1.018453e-02 0.000000e+00 -1.149577e-02 9.473480e-03 0.000000e+00 -1.867620e-03 5.471200e-03 0.000000e+00 -1.376780e-03 5.972620e-03 0.000000e+00 -1.104653e-02 8.517377e-03 0.000000e+00 -1.157633e-02 7.763507e-03 0.000000e+00 -1.659587e-02 4.596470e-03 0.000000e+00 -7.007970e-03 5.068920e-03 0.000000e+00 -3.196677e-03 8.573187e-03 0.000000e+00 -9.762650e-03 4.616700e-03 0.000000e+00 -1.593513e-02 3.809570e-03 0.000000e+00 -1.327447e-02 4.932837e-03 0.000000e+00 -5.498397e-03 5.181830e-03 0.000000e+00 -9.607103e-03 5.344920e-03 0.000000e+00 -1.276360e-02 5.442600e-03 0.000000e+00 -1.263253e-02 6.207270e-03 0.000000e+00 -1.205093e-02 5.152503e-03 0.000000e+00 -8.290273e-03 5.111377e-03 0.000000e+00 -7.676610e-03 5.384690e-03 0.000000e+00 -3.055120e-03 5.228960e-03 0.000000e+00 -2.536117e-03 5.696400e-03 0.000000e+00 -2.506078e-04 6.572903e-03 0.000000e+00 -4.697180e-04 9.926680e-03 0.000000e+00 -4.262470e-03 5.236267e-03 0.000000e+00 -4.858130e-03 5.544300e-03 0.000000e+00 -3.702027e-03 5.584677e-03 0.000000e+00 -8.424880e-03 1.119940e-02 0.000000e+00 -1.090533e-02 5.383190e-03 0.000000e+00 -1.152023e-02 5.625877e-03 0.000000e+00 -1.026416e-02 5.788830e-03 0.000000e+00 6.173822e-04 6.719787e-03 0.000000e+00 -8.660552e-04 7.175573e-03 0.000000e+00 -8.764823e-03 1.001159e-02 0.000000e+00 -9.707867e-03 9.662257e-03 0.000000e+00 -1.029816e-02 6.652047e-03 0.000000e+00 -2.228497e-03 8.033143e-03 0.000000e+00 8.143252e-04 7.898173e-03 0.000000e+00 -1.405993e-02 4.946273e-03 0.000000e+00 5.483707e-03 1.182597e-02 0.000000e+00 -6.567883e-03 5.545747e-03 0.000000e+00 -5.981993e-03 5.589420e-03 0.000000e+00 -7.858340e-03 9.308147e-03 0.000000e+00 -1.526510e-03 6.728503e-03 0.000000e+00 -9.964460e-03 8.622287e-03 0.000000e+00 -8.919583e-03 5.619700e-03 0.000000e+00 -8.865513e-03 4.151730e-03 0.000000e+00 -2.231940e-03 4.273443e-03 0.000000e+00 -2.346527e-03 7.045053e-03 0.000000e+00 -4.443163e-03 7.905127e-03 0.000000e+00 -1.176603e-02 6.318157e-03 0.000000e+00 -9.404010e-03 4.189653e-03 0.000000e+00 -8.121687e-03 8.318447e-03 0.000000e+00 -5.628243e-03 8.321133e-03 0.000000e+00 -9.284763e-03 7.981923e-03 0.000000e+00 -4.370603e-03 6.874583e-03 0.000000e+00 -7.545610e-03 7.626290e-03 0.000000e+00 -1.546820e-02 4.252150e-03 0.000000e+00 -1.118513e-02 6.938687e-03 0.000000e+00 -3.260382e-04 8.671997e-03 0.000000e+00  </DataArray>
</Points>
<Cells>
 <DataArray type="Int32" Name="connectivity" format="ascii">0 1 2 3 4 5 6 7 8 9 10 11 12 13 14 15 16 17 18 19 20 21 22 23 24 25 26 27 28 29 30 31 32 33 34 35 36 37 38 39 40 41 42 43 44 45 46 47 48 49 50 51 52 53 54 55 56 57 58 59 60 61 62 63 64 65 66 67 68 69 70 71 72 73 74 75 76 77 78 79 80 81 82 83 84 85 86 87 88 89 90 91 92 93 94 95 96 97 98 99 100 101 102 103 104 105 106 107 108 109 110 111 112 113 114 115 116 117 118 119 120 121 122 123 124 125 126 127 128 129 130 131 132 133 134 135 136 137 138 139 140 141 142 143 144 145 146 147 148 149 150 151 152 153 154 155 156 157 158 159 160 161 162 163 164 165 166 167 168 169 170 171 172 173 174 175 176 177 178 179 180 181 182 183 184 185 186 187 188 189 190 191 192 193 194 195 196 197 198 199 200 201 202 203 204 205 206 207 208 209 210 211 212 213 214 215 216 217 218 219 220 221 222 223 224 225 226 227 228 229 230 231 232 233 234 235 236 237 238 239 240 241 242 243 244 245 246 247 248 249 250 251 252 253 254 255 256 257 258 259 260 261 262 263 264 265 266 267 268 269 270 271 272 273 274 275 276 277 278 279 280 281 282 283 284 285 286 287 288 289 290 291 292 293 294 295 296 297 298 299 300 301 302 303 304 305 306 307 308 309 310 311 312 313 314 315 316 317 318 319 320 321 322 323 324 325 326 327 328 329 330 331 332 333 334 335 336 337 338 339 340 341 342 343 344 345 346 347 348 349 350 351 352 353 354 355 356 357 358 359 360 361 362 363 364 365 366 367 368 369 370 371 372 373 374 375 376 377 378 379 380 381 382 383 384 385 386 387 388 389 390 391 392 393 394 395 396 397 398 399 400 401 402 403 404 405 406 407 408 409 410 411 412 413 414 415 416 417 418 419 420 421 422 423 424 425 426 427 428 429 430 431 432 433 434 435 436 437 438 439 440 441 442 443 444 445 446 447 448 449 450 451 452 453 454 455 456 457 458 459 460 461 462 463 464 465 466 467 468 469 470 471 472 473 474 475 476 477 478 479 480 481 482 483 484 485 486 487 488 489 490 491 492 493 494 495 496 497 498 499 500 501 502 503 504 505 506 507 508 509 510 511 512 513 514 515 516 517 518 519 520 521 522 523 524 525 526 527 528 529 530 531 532 533 534 535 536 537 538 539 540 541 542 543 544 545 546 547 548 549 550 551 552 553 554 555 556 557 558 559 560 561 562 563 564 565 566 567 568 569 570 571 572 573 574 575 576 577 578 579 580 581 582 583 584 585 586 587 588 589 590 591 592 593 594 595 596 597 598 599 600 601 602 603 604 605 606 607 608 609 610 611 612 613 614 615 616 617 618 619 620 621 622 623 624 625 626 627 628 629 630 631 632 633 634 635 636 637 638 639 640 641 642 643 644 645 646 647 648 649 650 651 652 653 654 655 656 657 658 659 660 661 662 663 664 665 666 667 668 669 670 671 672 673 674 675 676 677 678 679 680 681 682 683 684 685 686 687 688 689 690 691 692 693 694 695 696 697 698 699 700 701 702 703 704 705 706 707 708 709 710 711 712 713 714 715 716 717 718 719 720 721 722 723 724 725 726 727 728 729 730 731 732 733 734 735 736 737 738 739 740 741 742 743 744 745 746 747 748 749 750 751 752 753 754 755 756 757 758 759 760 761 762 763 764 765 766 767 768 769 770 771 772 773 774 775 776 777 778 779 780 781 782 783 784 785 786 787 788 789 790 791 792 793 794 795 796 797 798 799 800 801 802 803 804 805 806 807 808 809 810 811 812 813 814 815 816 817 818 819 820 821 822 823 824 825 826 827 828 829 830 831 832 833 834 835 836 837 838 839 840 841 842 843 844 845 846 847 848 849 850 851 852 853 854 855 856 857 858 859 860 861 862 863 864 865 866 867 868 869 870 871 872 873 874 875 876 877 878 879 880 881 882 883 884 885 886 887 888 889 890 891 892 893 894 895 896 897 898 899 900 901 902 903 904 905 906 907 908 909 910 911 912 913 914 915 916 917 918 919 920 921 922 923 924 925 926 927 928 929 930 931 932 933 934 935 936 937 938 939 940 941 942 943 944 945 946 947 948 949 950 951 952 953 954 955 956 957 958 959 960 961 962 963 964 965 966 967 968 969 970 971 972 973 974 975 976 977 978 979 980 981 982 983 984 985 986 987 988 989 990 991 992 993 994 995 996 997 998 999 1000 1001 1002 1003 1004 1005 1006 1007 1008 1009 1010 1011 1012 1013 1014 1015 1016 1017 1018 1019 1020 1021 1022 1023 1024 1025 1026 1027 1028 1029 1030 1031 1032 1033 1034 1035 1036 1037 1038 1039 1040 1041 1042 1043 1044 1045 1046 1047 1048 1049 1050 1051 1052 1053 1054 1055 1056 1057 1058 1059 1060 1061 1062 1063 1064 1065 1066 1067 1068 1069 1070 1071 1072 1073 1074 1075 1076 1077 1078 1079 1080 1081 1082 1083 1084 1085 1086 1087 1088 1089 1090 1091 1092 1093 1094 1095 1096 1097 1098 1099 1100 1101 1102 1103 1104 1105 1106 1107 1108 1109 1110 1111 1112 1113 1114 1115 1116 1117 1118 1119 1120 1121 1122 1123 1124 1125 1126 1127 1128 1129 1130 1131 1132 1133 1134 1135 1136 1137 1138 1139 1140 1141 1142 1143 1144 1145 1146 1147 1148 1149 1150 1151 1152 1153 1154 1155 1156 1157 1158 1159 1160 1161 1162 1163 1164 1165 1166 1167 1168 1169 1170 1171 1172 1173 1174 1175 1176 1177 1178 1179 1180 1181 1182 1183 1184 1185 1186  </DataArray>
 <DataArray type="Int32" Name="offsets" format="ascii">1 2 3 4 5 6 7 8 9 10 11 12 13 14 15 16 17 18 19 20 21 22 23 24 25 26 27 28 29 30 31 32 33 34 35 36 37 38 39 40 41 42 43 44 45 46 47 48 49 50 51 52 53 54 55 56 57 58 59 60 61 62 63 64 65 66 67 68 69 70 71 72 73 74 75 76 77 78 79 80 81 82 83 84 85 86 87 88 89 90 91 92 93 94 95 96 97 98 99 100 101 102 103 104 105 106 107 108 109 110 111 112 113 114 115 116 117 118 119 120 121 122 123 124 125 126 127 128 129 130 131 132 133 134 135 136 137 138 139 140 141 142 143 144 145 146 147 148 149 150 151 152 153 154 155 156 157 158 159 160 161 162 163 164 165 166 167 168 169 170 171 172 173 174 175 176 177 178 179 180 181 182 183 184 185 186 187 188 189 190 191 192 193 194 195 196 197 198 199 200 201 202 203 204 205 206 207 208 209 210 211 212 213 214 215 216 217 218 219 220 221 222 223 224 225 226 227 228 229 230 231 232 233 234 235 236 237 238 239 240 241 242 243 244 245 246 247 248 249 250 251 252 253 254 255 256 257 258 259 260 261 262 263 264 265 266 267 268 269 270 271 272 273 274 275 276 277 278 279 280 281 282 283 284 285 286 287 288 289 290 291 292 293 294 295 296 297 298 299 300 301 302 303 304 305 306 307 308 309 310 311 312 313 314 315 316 317 318 319 320 321 322 323 324 325 326 327 328 329 330 331 332 333 334 335 336 337 338 339 340 341 342 343 344 345 346 347 348 349 350 351 352 353 354 355 356 357 358 359 360 361 362 363 364 365 366 367 368 369 370 371 372 373 374 375 376 377 378 379 380 381 382 383 384 385 386 387 388 389 390 391 392 393 394 395 396 397 398 399 400 401 402 403 404 405 406 407 408 409 410 411 412 413 414 415 416 417 418 419 420 421 422 423 424 425 426 427 428 429 430 431 432 433 434 435 436 437 438 439 440 441 442 443 444 445 446 447 448 449 450 451 452 453 454 455 456 457 458 459 460 461 462 463 464 465 466 467 468 469 470 471 472 473 474 475 476 477 478 479 480 481 482 483 484 485 486 487 488 489 490 491 492 493 494 495 496 497 498 499 500 501 502 503 504 505 506 507 508 509 510 511 512 513 514 515 516 517 518 519 520 521 522 523 524 525 526 527 528 529 530 531 532 533 534 535 536 537 538 539 540 541 542 543 544 545 546 547 548 549 550 551 552 553 554 555 556 557 558 559 560 561 562 563 564 565 566 567 568 569 570 571 572 573 574 575 576 577 578 579 580 581 582 583 584 585 586 587 588 589 590 591 592 593 594 595 596 597 598 599 600 601 602 603 604 605 606 607 608 609 610 611 612 613 614 615 616 617 618 619 620 621 622 623 624 625 626 627 628 629 630 631 632 633 634 635 636 637 638 639 640 641 642 643 644 645 646 647 648 649 650 651 652 653 654 655 656 657 658 659 660 661 662 663 664 665 666 667 668 669 670 671 672 673 674 675 676 677 678 679 680 681 682 683 684 685 686 687 688 689 690 691 692 693 694 695 696 697 698 699 700 701 702 703 704 705 706 707 708 709 710 711 712 713 714 715 716 717 718 719 720 721 722 723 724 725 726 727 728 729 730 731 732 733 734 735 736 737 738 739 740 741 742 743 744 745 746 747 748 749 750 751 752 753 754 755 756 757 758 759 760 761 762 763 764 765 766 767 768 769 770 771 772 773 774 775 776 777 778 779 780 781 782 783 784 785 786 787 788 789 790 791 792 793 794 795 796 797 798 799 800 801 802 803 804 805 806 807 808 809 810 811 812 813 814 815 816 817 818 819 820 821 822 823 824 825 826 827 828 829 830 831 832 833 834 835 836 837 838 839 840 841 842 843 844 845 846 847 848 849 850 851 852 853 854 855 856 857 858 859 860 861 862 863 864 865 866 867 868 869 870 871 872 873 874 875 876 877 878 879 880 881 882 883 884 885 886 887 888 889 890 891 892 893 894 895 896 897 898 899 900 901 902 903 904 905 906 907 908 909 910 911 912 913 914 915 916 917 918 919 920 921 922 923 924 925 926 927 928 929 930 931 932 933 934 935 936 937 938 939 940 941 942 943 944 945 946 947 948 949 950 951 952 953 954 955 956 957 958 959 960 961 962 963 964 965 966 967 968 969 970 971 972 973 974 975 976 977 978 979 980 981 982 983 984 985 986 987 988 989 990 991 992 993 994 995 996 997 998 999 1000 1001 1002 1003 1004 1005 1006 1007 1008 1009 1010 1011 1012 1013 1014 1015 1016 1017 1018 1019 1020 1021 1022 1023 1024 1025 1026 1027 1028 1029 1030 1031 1032 1033 1034 1035 1036 1037 1038 1039 1040 1041 1042 1043 1044 1045 1046 1047 1048 1049 1050 1051 1052 1053 1054 1055 1056 1057 1058 1059 1060 1061 1062 1063 1064 1065 1066 1067 1068 1069 1070 1071 1072 1073 1074 1075 1076 1077 1078 1079 1080 1081 1082 1083 1084 1085 1086 1087 1088 1089 1090 1091 1092 1093 1094 1095 1096 1097 1098 1099 1100 1101 1102 1103 1104 1105 1106 1107 1108 1109 1110 1111 1112 1113 1114 1115 1116 1117 1118 1119 1120 1121 1122 1123 1124 1125 1126 1127 1128 1129 1130 1131 1132 1133 1134 1135 1136 1137 1138 1139 1140 1141 1142 1143 1144 1145 1146 1147 1148 1149 1150 1151 1152 1153 1154 1155 1156 1157 1158 1159 1160 1161 1162 1163 1164 1165 1166 1167 1168 1169 1170 1171 1172 1173 1174 1175 1176 1177 1178 1179 1180 1181 1182 1183 1184 1185 1186 1187  </DataArray>
 <DataArray type="UInt8" Name="types" format="ascii">1 1 1 1 1 1 1 1 1 1 1 1 1 1 1 1 1 1 1 1 1 1 1 1 1 1 1 1 1 1 1 1 1 1 1 1 1 1 1 1 1 1 1 1 1 1 1 1 1 1 1 1 1 1 1 1 1 1 1 1 1 1 1 1 1 1 1 1 1 1 1 1 1 1 1 1 1 1 1 1 1 1 1 1 1 1 1 1 1 1 1 1 1 1 1 1 1 1 1 1 1 1 1 1 1 1 1 1 1 1 1 1 1 1 1 1 1 1 1 1 1 1 1 1 1 1 1 1 1 1 1 1 1 1 1 1 1 1 1 1 1 1 1 1 1 1 1 1 1 1 1 1 1 1 1 1 1 1 1 1 1 1 1 1 1 1 1 1 1 1 1 1 1 1 1 1 1 1 1 1 1 1 1 1 1 1 1 1 1 1 1 1 1 1 1 1 1 1 1 1 1 1 1 1 1 1 1 1 1 1 1 1 1 1 1 1 1 1 1 1 1 1 1 1 1 1 1 1 1 1 1 1 1 1 1 1 1 1 1 1 1 1 1 1 1 1 1 1 1 1 1 1 1 1 1 1 1 1 1 1 1 1 1 1 1 1 1 1 1 1 1 1 1 1 1 1 1 1 1 1 1 1 1 1 1 1 1 1 1 1 1 1 1 1 1 1 1 1 1 1 1 1 1 1 1 1 1 1 1 1 1 1 1 1 1 1 1 1 1 1 1 1 1 1 1 1 1 1 1 1 1 1 1 1 1 1 1 1 1 1 1 1 1 1 1 1 1 1 1 1 1 1 1 1 1 1 1 1 1 1 1 1 1 1 1 1 1 1 1 1 1 1 1 1 1 1 1 1 1 1 1 1 1 1 1 1 1 1 1 1 1 1 1 1 1 1 1 1 1 1 1 1 1 1 1 1 1 1 1 1 1 1 1 1 1 1 1 1 1 1 1 1 1 1 1 1 1 1 1 1 1 1 1 1 1 1 1 1 1 1 1 1 1 1 1 1 1 1 1 1 1 1 1 1 1 1 1 1 1 1 1 1 1 1 1 1 1 1 1 1 1 1 1 1 1 1 1 1 1 1 1 1 1 1 1 1 1 1 1 1 1 1 1 1 1 1 1 1 1 1 1 1 1 1 1 1 1 1 1 1 1 1 1 1 1 1 1 1 1 1 1 1 1 1 1 1 1 1 1 1 1 1 1 1 1 1 1 1 1 1 1 1 1 1 1 1 1 1 1 1 1 1 1 1 1 1 1 1 1 1 1 1 1 1 1 1 1 1 1 1 1 1 1 1 1 1 1 1 1 1 1 1 1 1 1 1 1 1 1 1 1 1 1 1 1 1 1 1 1 1 1 1 1 1 1 1 1 1 1 1 1 1 1 1 1 1 1 1 1 1 1 1 1 1 1 1 1 1 1 1 1 1 1 1 1 1 1 1 1 1 1 1 1 1 1 1 1 1 1 1 1 1 1 1 1 1 1 1 1 1 1 1 1 1 1 1 1 1 1 1 1 1 1 1 1 1 1 1 1 1 1 1 1 1 1 1 1 1 1 1 1 1 1 1 1 1 1 1 1 1 1 1 1 1 1 1 1 1 1 1 1 1 1 1 1 1 1 1 1 1 1 1 1 1 1 1 1 1 1 1 1 1 1 1 1 1 1 1 1 1 1 1 1 1 1 1 1 1 1 1 1 1 1 1 1 1 1 1 1 1 1 1 1 1 1 1 1 1 1 1 1 1 1 1 1 1 1 1 1 1 1 1 1 1 1 1 1 1 1 1 1 1 1 1 1 1 1 1 1 1 1 1 1 1 1 1 1 1 1 1 1 1 1 1 1 1 1 1 1 1 1 1 1 1 1 1 1 1 1 1 1 1 1 1 1 1 1 1 1 1 1 1 1 1 1 1 1 1 1 1 1 1 1 1 1 1 1 1 1 1 1 1 1 1 1 1 1 1 1 1 1 1 1 1 1 1 1 1 1 1 1 1 1 1 1 1 1 1 1 1 1 1 1 1 1 1 1 1 1 1 1 1 1 1 1 1 1 1 1 1 1 1 1 1 1 1 1 1 1 1 1 1 1 1 1 1 1 1 1 1 1 1 1 1 1 1 1 1 1 1 1 1 1 1 1 1 1 1 1 1 1 1 1 1 1 1 1 1 1 1 1 1 1 1 1 1 1 1 1 1 1 1 1 1 1 1 1 1 1 1 1 1 1 1 1 1 1 1 1 1 1 1 1 1 1 1 1 1 1 1 1 1 1 1 1 1 1 1 1 1 1 1 1 1 1 1 1 1 1 1 1 1 1 1 1 1 1 1 1 1 1 1 1 1 1 1 1 1 1 1 1 1 1 1 1 1 1 1 1 1 1 1 1 1 1 1 1 1 1 1 1 1 1 1 1 1 1 1 1 1 1 1 1 1 1 1 1 1 1 1 1 1 1 1 1 1 1 1 1 1 1 1 1 1 1 1 1 1 1 1 1 1 1 1 1 1 1 1 1 1 1 1 1 1 1 1 1 1 1 1 1 1 1 1 1 1 1 1 1 1 1 1 1 1 1 1 1 1 1 1 1 1 1 1 1 1 1 1 1 1 1 1 1 1 1 1 1 1 1 1 1 1 1 1 1 1 1 1 1 1 1 1 1 1 1 1 1 1 1 1 1 1 1 1 1 1 1  </DataArray>
</Cells>
<PointData Scalars="" Vectors="IST_PrincipalStressTensor IST_PrincStressVector1 " Tensors="IST_StressTensor IST_StrainTensor " >
  <DataArray type="Float64" Name="IST_StressTensor" NumberOfComponents="9" format="ascii">-2.236208e+01 -8.876175e+00 0.000000e+00 -8.876175e+00 -1.776843e+02 0.000000e+00 0.000000e+00 0.000000e+00 0.000000e+00 -7.211994e+00 -4.027698e+00 0.000000e+00 -4.027698e+00 -1.587988e+02 0.000000e+00 0.000000e+00 0.000000e+00 0.000000e+00 6.953185e-01 -2.941035e+00 0.000000e+00 -2.941035e+00 -1.416041e+02 0.000000e+00 0.000000e+00 0.000000e+00 0.000000e+00 5.883267e+00 -2.621096e+00 0.000000e+00 -2.621096e+00 -1.253186e+02 0.000000e+00 0.000000e+00 0.000000e+00 0.000000e+00 1.076629e+01 -2.599826e+00 0.000000e+00 -2.599826e+00 -1.103874e+02 0.000000e+00 0.000000e+00 0.000000e+00 0.000000e+00 1.585457e+01 -2.656856e+00 0.000000e+00 -2.656856e+00 -9.582326e+01 0.000000e+00 0.000000e+00 0.000000e+00 0.000000e+00 2.153350e+01 -2.509330e+00 0.000000e+00 -2.509330e+00 -8.256414e+01 0.000000e+00 0.000000e+00 0.000000e+00 0.000000e+00 2.763402e+01 -2.605562e+00 0.000000e+00 -2.605562e+00 -6.992593e+01 0.000000e+00 0.000000e+00 0.000000e+00 0.000000e+00 3.436589e+01 -2.731706e+00 0.000000e+00 -2.731706e+00 -5.787368e+01 0.000000e+00 0.000000e+00 0.000000e+00 0.000000e+00 4.162728e+01 -2.906352e+00 0.000000e+00 -2.906352e+00 -4.628650e+01 0.000000e+00 0.000000e+00 0.000000e+00 0.000000e+00 4.934311e+01 -3.133700e+00 0.000000e+00 -3.133700e+00 -3.441193e+01 0.000000e+00 0.000000e+00 0.000000e+00 0.000000e+00 5.794021e+01 -3.183529e+00 0.000000e+00 -3.183529e+00 -2.326636e+01 0.000000e+00 0.000000e+00 0.000000e+00 0.000000e+00 6.721009e+01 -3.468651e+00 0.000000e+00 -3.468651e+00 -1.217159e+01 0.000000e+00 0.000000e+00 0.000000e+00 0.000000e+00 7.709075e+01 -3.679529e+00 0.000000e+00 -3.679529e+00 -8.918485e-02 0.000000e+00 0.000000e+00 0.000000e+00 0.000000e+00 8.811709e+01 -3.863743e+00 0.000000e+00 -3.863743e+00 1.184491e+01 0.000000e+00 0.000000e+00 0.000000e+00 0.000000e+00 9.990114e+01 -4.344586e+00 0.000000e+00 -4.344586e+00 2.545025e+01 0.000000e+00 0.000000e+00 0.000000e+00 0.000000e+00 1.130267e+02 -4.961330e+00 0.000000e+00 -4.961330e+00 4.009845e+01 0.000000e+00 0.000000e+00 0.000000e+00 0.000000e+00 1.282839e+02 -5.574372e+00 0.000000e+00 -5.574372e+00 5.514873e+01 0.000000e+00 0.000000e+00 0.000000e+00 0.000000e+00 1.454962e+02 -5.699577e+00 0.000000e+00 -5.699577e+00 7.398218e+01 0.000000e+00 0.000000e+00 0.000000e+00 0.000000e+00 1.659610e+02 -7.583547e+00 0.000000e+00 -7.583547e+00 9.499480e+01 0.000000e+00 0.000000e+00 0.000000e+00 0.000000e+00 1.917482e+02 -9.824703e+00 0.000000e+00 -9.824703e+00 1.204582e+02 0.000000e+00 0.000000e+00 0.000000e+00 0.000000e+00 2.270367e+02 -1.294464e+01 0.000000e+00 -1.294464e+01 1.547999e+02 0.000000e+00 0.000000e+00 0.000000e+00 0.000000e+00 2.808962e+02 -2.248968e+01 0.000000e+00 -2.248968e+01 2.036214e+02 0.000000e+00 0.000000e+00 0.000000e+00 0.000000e+00 3.837160e+02 -5.467109e+01 0.000000e+00 -5.467109e+01 2.970777e+02 0.000000e+00 0.000000e+00 0.000000e+00 0.000000e+00 5.829056e+02 -1.741506e+02 0.000000e+00 -1.741506e+02 5.984331e+02 0.000000e+00 0.000000e+00 0.000000e+00 0.000000e+00 6.470422e+01 3.340903e+00 0.000000e+00 3.340903e+00 2.203784e+00 0.000000e+00 0.000000e+00 0.000000e+00 0.000000e+00 5.671873e+01 3.829669e+00 0.000000e+00 3.829669e+00 -9.382192e-01 0.000000e+00 0.000000e+00 0.000000e+00 0.000000e+00 4.377998e+01 5.156793e+00 0.000000e+00 5.156793e+00 -5.822167e-01 0.000000e+00 0.000000e+00 0.000000e+00 0.000000e+00 2.258238e+01 6.901581e+00 0.000000e+00 6.901581e+00 1.122834e+00 0.000000e+00 0.000000e+00 0.000000e+00 0.000000e+00 2.761443e+01 8.064103e+00 0.000000e+00 8.064103e+00 3.139579e+00 0.000000e+00 0.000000e+00 0.000000e+00 0.000000e+00 4.830902e+01 1.797634e+01 0.000000e+00 1.797634e+01 8.741593e+00 0.000000e+00 0.000000e+00 0.000000e+00 0.000000e+00 5.657875e+01 1.255522e+01 0.000000e+00 1.255522e+01 6.429035e+00 0.000000e+00 0.000000e+00 0.000000e+00 0.000000e+00 1.382529e+01 6.689429e+00 0.000000e+00 6.689429e+00 1.149428e+00 0.000000e+00 0.000000e+00 0.000000e+00 0.000000e+00 -1.074038e+01 3.584403e+00 0.000000e+00 3.584403e+00 3.971401e+00 0.000000e+00 0.000000e+00 0.000000e+00 0.000000e+00 -9.649151e+00 -2.073159e+00 0.000000e+00 -2.073159e+00 1.273376e+00 0.000000e+00 0.000000e+00 0.000000e+00 0.000000e+00 -8.664408e-01 -8.930458e-01 0.000000e+00 -8.930458e-01 -9.204678e-01 0.000000e+00 0.000000e+00 0.000000e+00 0.000000e+00 -2.423500e-01 -9.760726e-01 0.000000e+00 -9.760726e-01 -3.635101e+00 0.000000e+00 0.000000e+00 0.000000e+00 0.000000e+00 9.507997e-01 8.784944e-01 0.000000e+00 8.784944e-01 -5.465923e+00 0.000000e+00 0.000000e+00 0.000000e+00 0.000000e+00 -6.985681e-02 1.710190e+00 0.000000e+00 1.710190e+00 6.072701e-01 0.000000e+00 0.000000e+00 0.000000e+00 0.000000e+00 -7.256382e-01 6.225026e-01 0.000000e+00 6.225026e-01 5.525492e+00 0.000000e+00 0.000000e+00 0.000000e+00 0.000000e+00 -3.765065e-01 -9.611356e-01 0.000000e+00 -9.611356e-01 3.210080e+00 0.000000e+00 0.000000e+00 0.000000e+00 0.000000e+00 3.279900e-01 -8.205942e-01 0.000000e+00 -8.205942e-01 8.658428e-01 0.000000e+00 0.000000e+00 0.000000e+00 0.000000e+00 8.179257e-02 -1.040421e+00 0.000000e+00 -1.040421e+00 4.949928e-01 0.000000e+00 0.000000e+00 0.000000e+00 0.000000e+00 8.987149e-01 -9.745234e-01 0.000000e+00 -9.745234e-01 -3.148002e-01 0.000000e+00 0.000000e+00 0.000000e+00 0.000000e+00 2.785583e+00 -5.422717e-01 0.000000e+00 -5.422717e-01 2.544735e-02 0.000000e+00 0.000000e+00 0.000000e+00 0.000000e+00 4.254927e+00 1.690288e-01 0.000000e+00 1.690288e-01 -1.660500e+00 0.000000e+00 0.000000e+00 0.000000e+00 0.000000e+00 -4.698183e+00 4.049900e+00 0.000000e+00 4.049900e+00 -2.006295e+00 0.000000e+00 0.000000e+00 0.000000e+00 0.000000e+00 -3.596149e+01 8.396272e+00 0.000000e+00 8.396272e+00 -9.837217e-01 0.000000e+00 0.000000e+00 0.000000e+00 0.000000e+00 -7.721096e+01 9.103687e+00 0.000000e+00 9.103687e+00 1.614813e+00 0.000000e+00 0.000000e+00 0.000000e+00 0.000000e+00 -1.065082e+02 4.543701e+00 0.000000e+00 4.543701e+00 6.041226e+00 0.000000e+00 0.000000e+00 0.000000e+00 0.000000e+00 -8.162084e+01 -1.021052e+01 0.000000e+00 -1.021052e+01 8.206779e+00 0.000000e+00 0.000000e+00 0.000000e+00 0.000000e+00 -3.800330e+01 -1.548309e+01 0.000000e+00 -1.548309e+01 1.774510e+00 0.000000e+00 0.000000e+00 0.000000e+00 0.000000e+00 -6.208719e+00 -5.828847e+00 0.000000e+00 -5.828847e+00 -5.096898e+00 0.000000e+00 0.000000e+00 0.000000e+00 0.000000e+00 -2.828470e+01 -1.376039e+01 0.000000e+00 -1.376039e+01 -4.224626e+00 0.000000e+00 0.000000e+00 0.000000e+00 0.000000e+00 -5.072584e+00 -5.589673e+00 0.000000e+00 -5.589673e+00 -5.561635e+00 0.000000e+00 0.000000e+00 0.000000e+00 0.000000e+00 -1.524497e+00 -1.503346e+01 0.000000e+00 -1.503346e+01 -3.378563e+01 0.000000e+00 0.000000e+00 0.000000e+00 0.000000e+00 2.652367e+00 4.526969e+00 0.000000e+00 4.526969e+00 -3.586784e+00 0.000000e+00 0.000000e+00 0.000000e+00 0.000000e+00 5.619803e+00 2.296572e+00 0.000000e+00 2.296572e+00 -3.577661e+00 0.000000e+00 0.000000e+00 0.000000e+00 0.000000e+00 7.005552e+00 -6.406952e-01 0.000000e+00 -6.406952e-01 -1.887849e+00 0.000000e+00 0.000000e+00 0.000000e+00 0.000000e+00 6.278357e+00 -2.582241e+00 0.000000e+00 -2.582241e+00 1.424087e+00 0.000000e+00 0.000000e+00 0.000000e+00 0.000000e+00 3.301135e+00 -2.312417e+00 0.000000e+00 -2.312417e+00 5.460877e+00 0.000000e+00 0.000000e+00 0.000000e+00 0.000000e+00 1.060595e-01 1.765825e+00 0.000000e+00 1.765825e+00 9.189843e+00 0.000000e+00 0.000000e+00 0.000000e+00 0.000000e+00 7.985219e-02 7.393682e+00 0.000000e+00 7.393682e+00 1.059179e+01 0.000000e+00 0.000000e+00 0.000000e+00 0.000000e+00 8.022449e-01 1.529593e+01 0.000000e+00 1.529593e+01 1.005762e+01 0.000000e+00 0.000000e+00 0.000000e+00 0.000000e+00 3.552778e+00 2.288609e+01 0.000000e+00 2.288609e+01 8.779131e+00 0.000000e+00 0.000000e+00 0.000000e+00 0.000000e+00 1.298143e+01 2.988190e+01 0.000000e+00 2.988190e+01 6.579707e+00 0.000000e+00 0.000000e+00 0.000000e+00 0.000000e+00 1.789408e+01 3.298671e+01 0.000000e+00 3.298671e+01 3.132525e+00 0.000000e+00 0.000000e+00 0.000000e+00 0.000000e+00 1.972477e+01 3.391970e+01 0.000000e+00 3.391970e+01 1.549304e-01 0.000000e+00 0.000000e+00 0.000000e+00 0.000000e+00 1.805885e+01 3.333937e+01 0.000000e+00 3.333937e+01 -1.245360e+00 0.000000e+00 0.000000e+00 0.000000e+00 0.000000e+00 1.229261e+01 3.241009e+01 0.000000e+00 3.241009e+01 -1.580755e+00 0.000000e+00 0.000000e+00 0.000000e+00 0.000000e+00 4.230705e+00 3.232351e+01 0.000000e+00 3.232351e+01 -1.385050e+00 0.000000e+00 0.000000e+00 0.000000e+00 0.000000e+00 -3.989852e+00 3.399882e+01 0.000000e+00 3.399882e+01 -9.919385e-01 0.000000e+00 0.000000e+00 0.000000e+00 0.000000e+00 -8.115344e+00 3.674559e+01 0.000000e+00 3.674559e+01 -3.050016e+00 0.000000e+00 0.000000e+00 0.000000e+00 0.000000e+00 -7.893011e+00 3.749230e+01 0.000000e+00 3.749230e+01 -7.756287e+00 0.000000e+00 0.000000e+00 0.000000e+00 0.000000e+00 -4.142744e+00 3.470443e+01 0.000000e+00 3.470443e+01 -1.302712e+01 0.000000e+00 0.000000e+00 0.000000e+00 0.000000e+00 7.367065e-02 2.892744e+01 0.000000e+00 2.892744e+01 -1.666572e+01 0.000000e+00 0.000000e+00 0.000000e+00 0.000000e+00 2.800091e+00 2.252430e+01 0.000000e+00 2.252430e+01 -1.881095e+01 0.000000e+00 0.000000e+00 0.000000e+00 0.000000e+00 4.141537e+00 1.483003e+01 0.000000e+00 1.483003e+01 -1.982677e+01 0.000000e+00 0.000000e+00 0.000000e+00 0.000000e+00 3.233742e+00 7.384439e+00 0.000000e+00 7.384439e+00 -1.802700e+01 0.000000e+00 0.000000e+00 0.000000e+00 0.000000e+00 4.719548e-01 2.029227e+00 0.000000e+00 2.029227e+00 -1.452370e+01 0.000000e+00 0.000000e+00 0.000000e+00 0.000000e+00 -3.235537e+00 9.553254e-01 0.000000e+00 9.553254e-01 -8.750882e+00 0.000000e+00 0.000000e+00 0.000000e+00 0.000000e+00 -4.126136e+00 2.415323e+00 0.000000e+00 2.415323e+00 -5.291756e+00 0.000000e+00 0.000000e+00 0.000000e+00 0.000000e+00 -2.745667e+00 4.097686e+00 0.000000e+00 4.097686e+00 -3.647912e+00 0.000000e+00 0.000000e+00 0.000000e+00 0.000000e+00 -3.995096e-01 4.982843e+00 0.000000e+00 4.982843e+00 -3.402560e+00 0.000000e+00 0.000000e+00 0.000000e+00 0.000000e+00 1.574052e-02 -1.114958e+00 0.000000e+00 -1.114958e+00 -9.287787e-01 0.000000e+00 0.000000e+00 0.000000e+00 0.000000e+00 -3.733247e+01 -7.668916e+00 0.000000e+00 -7.668916e+00 -1.821754e+02 0.000000e+00 0.000000e+00 0.000000e+00 0.000000e+00 -1.316966e+01 -5.667139e+00 0.000000e+00 -5.667139e+00 -1.685775e+02 0.000000e+00 0.000000e+00 0.000000e+00 0.000000e+00 -1.003421e+01 -3.977558e+00 0.000000e+00 -3.977558e+00 -1.699661e+02 0.000000e+00 0.000000e+00 0.000000e+00 0.000000e+00 -5.876573e+00 -1.625564e+00 0.000000e+00 -1.625564e+00 -1.620923e+02 0.000000e+00 0.000000e+00 0.000000e+00 0.000000e+00 -2.683345e+00 -3.283665e+00 0.000000e+00 -3.283665e+00 -1.500874e+02 0.000000e+00 0.000000e+00 0.000000e+00 0.000000e+00 1.265501e-02 -2.019557e-01 0.000000e+00 -2.019557e-01 -1.453206e+02 0.000000e+00 0.000000e+00 0.000000e+00 0.000000e+00 3.359549e+00 -2.782475e+00 0.000000e+00 -2.782475e+00 -1.331000e+02 0.000000e+00 0.000000e+00 0.000000e+00 0.000000e+00 8.250624e+00 -2.572639e+00 0.000000e+00 -2.572639e+00 -1.176016e+02 0.000000e+00 0.000000e+00 0.000000e+00 0.000000e+00 1.322020e+01 -2.730855e+00 0.000000e+00 -2.730855e+00 -1.029364e+02 0.000000e+00 0.000000e+00 0.000000e+00 0.000000e+00 1.165885e+01 2.180769e-02 0.000000e+00 2.180769e-02 -1.065829e+02 0.000000e+00 0.000000e+00 0.000000e+00 0.000000e+00 1.475202e+01 -1.080645e-01 0.000000e+00 -1.080645e-01 -9.934092e+01 0.000000e+00 0.000000e+00 0.000000e+00 0.000000e+00 1.857577e+01 -2.552693e+00 0.000000e+00 -2.552693e+00 -8.886980e+01 0.000000e+00 0.000000e+00 0.000000e+00 0.000000e+00 2.463912e+01 -2.540995e+00 0.000000e+00 -2.540995e+00 -7.653726e+01 0.000000e+00 0.000000e+00 0.000000e+00 0.000000e+00 3.086773e+01 -2.680513e+00 0.000000e+00 -2.680513e+00 -6.366434e+01 0.000000e+00 0.000000e+00 0.000000e+00 0.000000e+00 3.785839e+01 -2.848004e+00 0.000000e+00 -2.848004e+00 -5.186622e+01 0.000000e+00 0.000000e+00 0.000000e+00 0.000000e+00 3.577703e+01 -7.448098e-01 0.000000e+00 -7.448098e-01 -5.481855e+01 0.000000e+00 0.000000e+00 0.000000e+00 0.000000e+00 3.954989e+01 -9.302046e-01 0.000000e+00 -9.302046e-01 -4.901591e+01 0.000000e+00 0.000000e+00 0.000000e+00 0.000000e+00 4.546664e+01 -3.034647e+00 0.000000e+00 -3.034647e+00 -4.051546e+01 0.000000e+00 0.000000e+00 0.000000e+00 0.000000e+00 5.351746e+01 -3.138739e+00 0.000000e+00 -3.138739e+00 -2.869719e+01 0.000000e+00 0.000000e+00 0.000000e+00 0.000000e+00 6.248923e+01 -3.300530e+00 0.000000e+00 -3.300530e+00 -1.777482e+01 0.000000e+00 0.000000e+00 0.000000e+00 0.000000e+00 5.983745e+01 -1.338129e+00 0.000000e+00 -1.338129e+00 -2.055973e+01 0.000000e+00 0.000000e+00 0.000000e+00 0.000000e+00 6.427425e+01 -1.430180e+00 0.000000e+00 -1.430180e+00 -1.498875e+01 0.000000e+00 0.000000e+00 0.000000e+00 0.000000e+00 7.212905e+01 -3.568067e+00 0.000000e+00 -3.568067e+00 -6.418144e+00 0.000000e+00 0.000000e+00 0.000000e+00 0.000000e+00 8.240042e+01 -3.720558e+00 0.000000e+00 -3.720558e+00 6.066705e+00 0.000000e+00 0.000000e+00 0.000000e+00 0.000000e+00 9.394306e+01 -4.107981e+00 0.000000e+00 -4.107981e+00 1.827215e+01 0.000000e+00 0.000000e+00 0.000000e+00 0.000000e+00 9.028069e+01 -1.883387e+00 0.000000e+00 -1.883387e+00 1.497531e+01 0.000000e+00 0.000000e+00 0.000000e+00 0.000000e+00 9.628499e+01 -1.848634e+00 0.000000e+00 -1.848634e+00 2.163908e+01 0.000000e+00 0.000000e+00 0.000000e+00 0.000000e+00 1.062405e+02 -4.635822e+00 0.000000e+00 -4.635822e+00 3.276712e+01 0.000000e+00 0.000000e+00 0.000000e+00 0.000000e+00 1.087476e+02 -2.271921e+00 0.000000e+00 -2.271921e+00 3.605642e+01 0.000000e+00 0.000000e+00 0.000000e+00 0.000000e+00 1.204874e+02 -5.298170e+00 0.000000e+00 -5.298170e+00 4.717833e+01 0.000000e+00 0.000000e+00 0.000000e+00 0.000000e+00 1.364137e+02 -5.661919e+00 0.000000e+00 -5.661919e+00 6.447441e+01 0.000000e+00 0.000000e+00 0.000000e+00 0.000000e+00 1.555849e+02 -6.195051e+00 0.000000e+00 -6.195051e+00 8.358462e+01 0.000000e+00 0.000000e+00 0.000000e+00 0.000000e+00 1.491827e+02 -2.981859e+00 0.000000e+00 -2.981859e+00 7.853797e+01 0.000000e+00 0.000000e+00 0.000000e+00 0.000000e+00 1.571439e+02 -3.335903e+00 0.000000e+00 -3.335903e+00 8.838419e+01 0.000000e+00 0.000000e+00 0.000000e+00 0.000000e+00 1.780838e+02 -8.615980e+00 0.000000e+00 -8.615980e+00 1.069295e+02 0.000000e+00 0.000000e+00 0.000000e+00 0.000000e+00 2.079429e+02 -1.134929e+01 0.000000e+00 -1.134929e+01 1.355876e+02 0.000000e+00 0.000000e+00 0.000000e+00 0.000000e+00 2.508225e+02 -1.600360e+01 0.000000e+00 -1.600360e+01 1.767692e+02 0.000000e+00 0.000000e+00 0.000000e+00 0.000000e+00 3.223421e+02 -3.372527e+01 0.000000e+00 -3.372527e+01 2.415289e+02 0.000000e+00 0.000000e+00 0.000000e+00 0.000000e+00 2.696056e+02 -1.575170e+01 0.000000e+00 -1.575170e+01 2.134505e+02 0.000000e+00 0.000000e+00 0.000000e+00 0.000000e+00 2.906193e+02 -2.505139e+01 0.000000e+00 -2.505139e+01 2.504044e+02 0.000000e+00 0.000000e+00 0.000000e+00 0.000000e+00 4.745554e+02 -9.692016e+01 0.000000e+00 -9.692016e+01 3.954365e+02 0.000000e+00 0.000000e+00 0.000000e+00 0.000000e+00 1.015496e+02 2.415806e+00 0.000000e+00 2.415806e+00 -4.153964e-01 0.000000e+00 0.000000e+00 0.000000e+00 0.000000e+00 6.070255e+01 4.395122e-01 0.000000e+00 4.395122e-01 -3.618183e+00 0.000000e+00 0.000000e+00 0.000000e+00 0.000000e+00 6.102852e+01 3.037138e+00 0.000000e+00 3.037138e+00 -4.275084e-01 0.000000e+00 0.000000e+00 0.000000e+00 0.000000e+00 5.089644e+01 4.528508e+00 0.000000e+00 4.528508e+00 -5.815588e-01 0.000000e+00 0.000000e+00 0.000000e+00 0.000000e+00 3.483168e+01 6.039553e+00 0.000000e+00 6.039553e+00 -8.300410e-01 0.000000e+00 0.000000e+00 0.000000e+00 0.000000e+00 3.090145e+01 1.339049e+01 0.000000e+00 1.339049e+01 1.230536e+00 0.000000e+00 0.000000e+00 0.000000e+00 0.000000e+00 4.019202e+01 1.139317e+01 0.000000e+00 1.139317e+01 6.511426e+00 0.000000e+00 0.000000e+00 0.000000e+00 0.000000e+00 3.642876e+01 1.509665e+01 0.000000e+00 1.509665e+01 7.605076e+00 0.000000e+00 0.000000e+00 0.000000e+00 0.000000e+00 3.105310e+01 7.956665e+00 0.000000e+00 7.956665e+00 1.276683e+00 0.000000e+00 0.000000e+00 0.000000e+00 0.000000e+00 -1.436626e-01 5.662170e+00 0.000000e+00 5.662170e+00 3.120237e+00 0.000000e+00 0.000000e+00 0.000000e+00 0.000000e+00 -2.046676e+00 2.426609e+00 0.000000e+00 2.426609e+00 -1.541518e+00 0.000000e+00 0.000000e+00 0.000000e+00 0.000000e+00 -6.257805e+00 -1.159449e+00 0.000000e+00 -1.159449e+00 -1.048717e+00 0.000000e+00 0.000000e+00 0.000000e+00 0.000000e+00 -1.358877e+01 6.852028e-02 0.000000e+00 6.852028e-02 2.733731e+00 0.000000e+00 0.000000e+00 0.000000e+00 0.000000e+00 -4.096398e+00 -2.028159e+00 0.000000e+00 -2.028159e+00 -1.741562e-01 0.000000e+00 0.000000e+00 0.000000e+00 0.000000e+00 6.933360e-02 -1.160257e+00 0.000000e+00 -1.160257e+00 -3.251912e+00 0.000000e+00 0.000000e+00 0.000000e+00 0.000000e+00 9.130272e-01 -3.290752e-01 0.000000e+00 -3.290752e-01 -5.792670e+00 0.000000e+00 0.000000e+00 0.000000e+00 0.000000e+00 4.958059e-02 -9.005119e-02 0.000000e+00 -9.005119e-02 -4.359456e+00 0.000000e+00 0.000000e+00 0.000000e+00 0.000000e+00 5.453858e-01 1.519110e+00 0.000000e+00 1.519110e+00 -2.993644e+00 0.000000e+00 0.000000e+00 0.000000e+00 0.000000e+00 -5.831971e-01 1.245029e+00 0.000000e+00 1.245029e+00 3.531082e+00 0.000000e+00 0.000000e+00 0.000000e+00 0.000000e+00 -5.632376e-01 -2.264187e-01 0.000000e+00 -2.264187e-01 5.153102e+00 0.000000e+00 0.000000e+00 0.000000e+00 0.000000e+00 -3.564166e+01 8.890259e+00 0.000000e+00 8.890259e+00 4.318908e-03 0.000000e+00 0.000000e+00 0.000000e+00 0.000000e+00 -5.662008e+01 9.116208e+00 0.000000e+00 9.116208e+00 -2.083341e-01 0.000000e+00 0.000000e+00 0.000000e+00 0.000000e+00 9.701929e-01 -8.198659e-01 0.000000e+00 -8.198659e-01 3.323039e-01 0.000000e+00 0.000000e+00 0.000000e+00 0.000000e+00 7.674599e-02 6.036634e-01 0.000000e+00 6.036634e-01 4.804526e-01 0.000000e+00 0.000000e+00 0.000000e+00 0.000000e+00 2.201203e+00 1.940272e+00 0.000000e+00 1.940272e+00 -2.159566e+00 0.000000e+00 0.000000e+00 0.000000e+00 0.000000e+00 -4.485231e+00 2.728693e+00 0.000000e+00 2.728693e+00 3.265456e-01 0.000000e+00 0.000000e+00 0.000000e+00 0.000000e+00 -1.745056e+01 6.436736e+00 0.000000e+00 6.436736e+00 -1.935977e+00 0.000000e+00 0.000000e+00 0.000000e+00 0.000000e+00 -5.096904e+01 9.021799e+00 0.000000e+00 9.021799e+00 -7.065072e-01 0.000000e+00 0.000000e+00 0.000000e+00 0.000000e+00 -9.540410e+01 7.562195e+00 0.000000e+00 7.562195e+00 3.571596e+00 0.000000e+00 0.000000e+00 0.000000e+00 0.000000e+00 -6.681474e+01 -1.101456e+01 0.000000e+00 -1.101456e+01 -2.007303e+00 0.000000e+00 0.000000e+00 0.000000e+00 0.000000e+00 -1.033423e+02 -2.260990e+00 0.000000e+00 -2.260990e+00 8.173002e+00 0.000000e+00 0.000000e+00 0.000000e+00 0.000000e+00 -4.864937e+01 -1.203035e+01 0.000000e+00 -1.203035e+01 -3.295601e+00 0.000000e+00 0.000000e+00 0.000000e+00 0.000000e+00 5.003662e+00 2.432274e+00 0.000000e+00 2.432274e+00 -2.657896e+00 0.000000e+00 0.000000e+00 0.000000e+00 0.000000e+00 1.584417e+00 4.003978e+00 0.000000e+00 4.003978e+00 -2.811326e+00 0.000000e+00 0.000000e+00 0.000000e+00 0.000000e+00 7.130541e+00 -4.802051e-01 0.000000e+00 -4.802051e-01 -1.617729e+00 0.000000e+00 0.000000e+00 0.000000e+00 0.000000e+00 6.978916e+00 -3.234368e+00 0.000000e+00 -3.234368e+00 1.142364e+00 0.000000e+00 0.000000e+00 0.000000e+00 0.000000e+00 5.788954e+00 -4.550041e+00 0.000000e+00 -4.550041e+00 6.038206e+00 0.000000e+00 0.000000e+00 0.000000e+00 0.000000e+00 3.016040e+00 -2.129976e+00 0.000000e+00 -2.129976e+00 1.206986e+01 0.000000e+00 0.000000e+00 0.000000e+00 0.000000e+00 2.244587e+00 3.847391e+00 0.000000e+00 3.847391e+00 1.513466e+01 0.000000e+00 0.000000e+00 0.000000e+00 0.000000e+00 4.182834e+00 1.163689e+01 0.000000e+00 1.163689e+01 1.805048e+01 0.000000e+00 0.000000e+00 0.000000e+00 0.000000e+00 8.569232e+00 1.975156e+01 0.000000e+00 1.975156e+01 1.605785e+01 0.000000e+00 0.000000e+00 0.000000e+00 0.000000e+00 1.640653e+01 2.756180e+01 0.000000e+00 2.756180e+01 1.478501e+01 0.000000e+00 0.000000e+00 0.000000e+00 0.000000e+00 2.046588e+01 3.133104e+01 0.000000e+00 3.133104e+01 8.728752e+00 0.000000e+00 0.000000e+00 0.000000e+00 0.000000e+00 2.119507e+01 3.262972e+01 0.000000e+00 3.262972e+01 4.106278e+00 0.000000e+00 0.000000e+00 0.000000e+00 0.000000e+00 1.870394e+01 3.356840e+01 0.000000e+00 3.356840e+01 7.424481e-01 0.000000e+00 0.000000e+00 0.000000e+00 0.000000e+00 1.415618e+01 3.401346e+01 0.000000e+00 3.401346e+01 -3.867392e-01 0.000000e+00 0.000000e+00 0.000000e+00 0.000000e+00 8.059059e+00 3.448594e+01 0.000000e+00 3.448594e+01 -4.180074e-01 0.000000e+00 0.000000e+00 0.000000e+00 0.000000e+00 9.076166e-01 3.548934e+01 0.000000e+00 3.548934e+01 -2.989609e-01 0.000000e+00 0.000000e+00 0.000000e+00 0.000000e+00 -5.402871e+00 3.703651e+01 0.000000e+00 3.703651e+01 -2.541098e+00 0.000000e+00 0.000000e+00 0.000000e+00 0.000000e+00 -9.266786e+00 3.774453e+01 0.000000e+00 3.774453e+01 -7.895224e+00 0.000000e+00 0.000000e+00 0.000000e+00 0.000000e+00 -1.033005e+01 3.628379e+01 0.000000e+00 3.628379e+01 -1.464628e+01 0.000000e+00 0.000000e+00 0.000000e+00 0.000000e+00 -8.632836e+00 3.184119e+01 0.000000e+00 3.184119e+01 -2.015046e+01 0.000000e+00 0.000000e+00 0.000000e+00 0.000000e+00 -5.737105e+00 2.557142e+01 0.000000e+00 2.557142e+01 -2.343022e+01 0.000000e+00 0.000000e+00 0.000000e+00 0.000000e+00 -2.590274e+00 1.847784e+01 0.000000e+00 1.847784e+01 -2.602885e+01 0.000000e+00 0.000000e+00 0.000000e+00 0.000000e+00 -1.141414e+00 1.036115e+01 0.000000e+00 1.036115e+01 -2.566315e+01 0.000000e+00 0.000000e+00 0.000000e+00 0.000000e+00 -1.843391e+00 3.536485e+00 0.000000e+00 3.536485e+00 -2.147927e+01 0.000000e+00 0.000000e+00 0.000000e+00 0.000000e+00 -4.000391e+00 -3.017340e-01 0.000000e+00 -3.017340e-01 -1.492864e+01 0.000000e+00 0.000000e+00 0.000000e+00 0.000000e+00 -4.854306e+00 8.891241e-02 0.000000e+00 8.891241e-02 -8.353254e+00 0.000000e+00 0.000000e+00 0.000000e+00 0.000000e+00 -3.902289e+00 2.024302e+00 0.000000e+00 2.024302e+00 -4.696482e+00 0.000000e+00 0.000000e+00 0.000000e+00 0.000000e+00 -1.722551e+00 3.658241e+00 0.000000e+00 3.658241e+00 -3.047530e+00 0.000000e+00 0.000000e+00 0.000000e+00 0.000000e+00 1.655477e+01 7.518625e+00 0.000000e+00 7.518625e+00 1.184488e+02 0.000000e+00 0.000000e+00 0.000000e+00 0.000000e+00 -2.881009e+00 -7.091608e-01 0.000000e+00 -7.091608e-01 -1.536502e+02 0.000000e+00 0.000000e+00 0.000000e+00 0.000000e+00 2.518665e+00 1.031878e-01 0.000000e+00 1.031878e-01 -1.370770e+02 0.000000e+00 0.000000e+00 0.000000e+00 0.000000e+00 7.256295e+00 1.240556e-01 0.000000e+00 1.240556e-01 -1.212482e+02 0.000000e+00 0.000000e+00 0.000000e+00 0.000000e+00 2.016997e+01 -3.690612e-01 0.000000e+00 -3.690612e-01 -8.574452e+01 0.000000e+00 0.000000e+00 0.000000e+00 0.000000e+00 1.749212e+01 -1.880927e-01 0.000000e+00 -1.880927e-01 -9.235721e+01 0.000000e+00 0.000000e+00 0.000000e+00 0.000000e+00 2.299723e+01 -4.396839e-01 0.000000e+00 -4.396839e-01 -7.954830e+01 0.000000e+00 0.000000e+00 0.000000e+00 0.000000e+00 2.904643e+01 -5.520111e-01 0.000000e+00 -5.520111e-01 -6.682827e+01 0.000000e+00 0.000000e+00 0.000000e+00 0.000000e+00 4.708279e+01 -9.765734e-01 0.000000e+00 -9.765734e-01 -3.727363e+01 0.000000e+00 0.000000e+00 0.000000e+00 0.000000e+00 4.310897e+01 -8.861254e-01 0.000000e+00 -8.861254e-01 -4.327082e+01 0.000000e+00 0.000000e+00 0.000000e+00 0.000000e+00 5.139090e+01 -1.206065e+00 0.000000e+00 -1.206065e+00 -3.147507e+01 0.000000e+00 0.000000e+00 0.000000e+00 0.000000e+00 7.424863e+01 -1.514627e+00 0.000000e+00 -1.514627e+00 -3.221080e+00 0.000000e+00 0.000000e+00 0.000000e+00 0.000000e+00 6.926985e+01 -1.508918e+00 0.000000e+00 -1.508918e+00 -9.206707e+00 0.000000e+00 0.000000e+00 0.000000e+00 0.000000e+00 7.959488e+01 -1.592168e+00 0.000000e+00 -1.592168e+00 3.006572e+00 0.000000e+00 0.000000e+00 0.000000e+00 0.000000e+00 1.022757e+02 -1.958650e+00 0.000000e+00 -1.958650e+00 2.875483e+01 0.000000e+00 0.000000e+00 0.000000e+00 0.000000e+00 1.157515e+02 -2.628456e+00 0.000000e+00 -2.628456e+00 4.328922e+01 0.000000e+00 0.000000e+00 0.000000e+00 0.000000e+00 1.322425e+02 -2.491930e+00 0.000000e+00 -2.491930e+00 5.951171e+01 0.000000e+00 0.000000e+00 0.000000e+00 0.000000e+00 1.816560e+02 -4.665292e+00 0.000000e+00 -4.665292e+00 1.125041e+02 0.000000e+00 0.000000e+00 0.000000e+00 0.000000e+00 1.691280e+02 -4.032382e+00 0.000000e+00 -4.032382e+00 9.996428e+01 0.000000e+00 0.000000e+00 0.000000e+00 0.000000e+00 1.955550e+02 -5.403748e+00 0.000000e+00 -5.403748e+00 1.265269e+02 0.000000e+00 0.000000e+00 0.000000e+00 0.000000e+00 2.310160e+02 -7.512475e+00 0.000000e+00 -7.512475e+00 1.634604e+02 0.000000e+00 0.000000e+00 0.000000e+00 0.000000e+00 2.949022e+02 -5.254168e+01 0.000000e+00 -5.254168e+01 4.055744e+02 0.000000e+00 0.000000e+00 0.000000e+00 0.000000e+00 3.028237e+02 -3.961763e+01 0.000000e+00 -3.961763e+01 3.055937e+02 0.000000e+00 0.000000e+00 0.000000e+00 0.000000e+00 8.057046e+01 4.336446e+00 0.000000e+00 4.336446e+00 -3.907735e-01 0.000000e+00 0.000000e+00 0.000000e+00 0.000000e+00 5.849804e+01 4.569308e+00 0.000000e+00 4.569308e+00 2.425549e-01 0.000000e+00 0.000000e+00 0.000000e+00 0.000000e+00 4.331301e+01 5.624437e+00 0.000000e+00 5.624437e+00 1.166030e-01 0.000000e+00 0.000000e+00 0.000000e+00 0.000000e+00 3.311123e+01 8.874832e+00 0.000000e+00 8.874832e+00 -8.400952e-01 0.000000e+00 0.000000e+00 0.000000e+00 0.000000e+00 1.116615e+01 5.370226e+00 0.000000e+00 5.370226e+00 -9.924924e-01 0.000000e+00 0.000000e+00 0.000000e+00 0.000000e+00 -6.658144e+00 -2.534324e-01 0.000000e+00 -2.534324e-01 -1.708148e+00 0.000000e+00 0.000000e+00 0.000000e+00 0.000000e+00 -3.972279e+00 -1.751239e+00 0.000000e+00 -1.751239e+00 -4.866422e-01 0.000000e+00 0.000000e+00 0.000000e+00 0.000000e+00 -6.958844e-02 1.058826e+00 0.000000e+00 1.058826e+00 -3.637753e+00 0.000000e+00 0.000000e+00 0.000000e+00 0.000000e+00 -1.871961e-01 1.790145e+00 0.000000e+00 1.790145e+00 -1.878342e-01 0.000000e+00 0.000000e+00 0.000000e+00 0.000000e+00 -6.228443e-02 -6.012654e-03 0.000000e+00 -6.012654e-03 1.717610e+00 0.000000e+00 0.000000e+00 0.000000e+00 0.000000e+00 -1.208867e+01 5.052499e+00 0.000000e+00 5.052499e+00 2.840430e-02 0.000000e+00 0.000000e+00 0.000000e+00 0.000000e+00 -6.363494e+01 7.819620e+00 0.000000e+00 7.819620e+00 -1.337160e+00 0.000000e+00 0.000000e+00 0.000000e+00 0.000000e+00 -7.519858e+01 -1.998665e-01 0.000000e+00 -1.998665e-01 -1.338250e+00 0.000000e+00 0.000000e+00 0.000000e+00 0.000000e+00 1.836740e+00 -1.321715e+01 0.000000e+00 -1.321715e+01 -4.381058e+01 0.000000e+00 0.000000e+00 0.000000e+00 0.000000e+00 3.245937e+01 -6.705823e-01 0.000000e+00 -6.705823e-01 -6.072315e+01 0.000000e+00 0.000000e+00 0.000000e+00 0.000000e+00 2.471463e+02 -1.055932e+01 0.000000e+00 -1.055932e+01 1.851037e+02 0.000000e+00 0.000000e+00 0.000000e+00 0.000000e+00 5.034419e+01 4.964158e+00 0.000000e+00 4.964158e+00 2.202385e-01 0.000000e+00 0.000000e+00 0.000000e+00 0.000000e+00 3.619770e+01 6.348845e+00 0.000000e+00 6.348845e+00 -3.109823e-01 0.000000e+00 0.000000e+00 0.000000e+00 0.000000e+00 -1.789316e-01 -6.397726e-01 0.000000e+00 -6.397726e-01 1.182590e+00 0.000000e+00 0.000000e+00 0.000000e+00 0.000000e+00 9.470322e+00 3.035317e-02 0.000000e+00 3.035317e-02 -1.138478e+02 0.000000e+00 0.000000e+00 0.000000e+00 0.000000e+00 5.143292e+00 1.943008e-01 0.000000e+00 1.943008e-01 -1.289497e+02 0.000000e+00 0.000000e+00 0.000000e+00 0.000000e+00 2.597283e+01 -3.567709e-01 0.000000e+00 -3.567709e-01 -7.317717e+01 0.000000e+00 0.000000e+00 0.000000e+00 0.000000e+00 5.558674e+01 -1.304382e+00 0.000000e+00 -1.304382e+00 -2.599299e+01 0.000000e+00 0.000000e+00 0.000000e+00 0.000000e+00 8.472551e+01 -1.827476e+00 0.000000e+00 -1.827476e+00 8.949697e+00 0.000000e+00 0.000000e+00 0.000000e+00 0.000000e+00 1.409173e+02 -2.491614e+00 0.000000e+00 -2.491614e+00 6.911558e+01 0.000000e+00 0.000000e+00 0.000000e+00 0.000000e+00 1.236406e+02 -2.722507e+00 0.000000e+00 -2.722507e+00 5.086299e+01 0.000000e+00 0.000000e+00 0.000000e+00 0.000000e+00 2.131096e+02 -5.750053e+00 0.000000e+00 -5.750053e+00 1.437738e+02 0.000000e+00 0.000000e+00 0.000000e+00 0.000000e+00 6.862937e+01 4.501938e+00 0.000000e+00 4.501938e+00 3.506337e-01 0.000000e+00 0.000000e+00 0.000000e+00 0.000000e+00 2.343065e+01 6.977414e+00 0.000000e+00 6.977414e+00 -2.757624e-01 0.000000e+00 0.000000e+00 0.000000e+00 0.000000e+00 -2.217096e-02 6.645121e-01 0.000000e+00 6.645121e-01 1.605750e+00 0.000000e+00 0.000000e+00 0.000000e+00 0.000000e+00 -3.163203e-04 1.779379e+00 0.000000e+00 1.779379e+00 -1.877776e+00 0.000000e+00 0.000000e+00 0.000000e+00 0.000000e+00 -2.240258e+01 7.165084e+00 0.000000e+00 7.165084e+00 -8.176932e-02 0.000000e+00 0.000000e+00 0.000000e+00 0.000000e+00 -7.312299e+01 5.054709e+00 0.000000e+00 5.054709e+00 -2.124412e+00 0.000000e+00 0.000000e+00 0.000000e+00 0.000000e+00 2.731576e+00 -5.565784e+00 0.000000e+00 -5.565784e+00 -1.378172e+02 0.000000e+00 0.000000e+00 0.000000e+00 0.000000e+00 7.049692e+00 -5.237674e+00 0.000000e+00 -5.237674e+00 -1.217285e+02 0.000000e+00 0.000000e+00 0.000000e+00 0.000000e+00 2.604625e+01 -5.793727e+00 0.000000e+00 -5.793727e+00 -7.318644e+01 0.000000e+00 0.000000e+00 0.000000e+00 0.000000e+00 1.996778e+01 -5.540401e+00 0.000000e+00 -5.540401e+00 -8.586915e+01 0.000000e+00 0.000000e+00 0.000000e+00 0.000000e+00 4.768255e+00 -5.411981e+00 0.000000e+00 -5.411981e+00 -1.299150e+02 0.000000e+00 0.000000e+00 0.000000e+00 0.000000e+00 6.995865e+00 -2.110155e+00 0.000000e+00 -2.110155e+00 -1.254488e+02 0.000000e+00 0.000000e+00 0.000000e+00 0.000000e+00 2.298049e+01 -5.580517e+00 0.000000e+00 -5.580517e+00 -7.922917e+01 0.000000e+00 0.000000e+00 0.000000e+00 0.000000e+00 2.161112e+01 -3.329569e+00 0.000000e+00 -3.329569e+00 -8.254880e+01 0.000000e+00 0.000000e+00 0.000000e+00 0.000000e+00 2.341481e+01 -3.458740e+00 0.000000e+00 -3.458740e+00 -7.636168e+01 0.000000e+00 0.000000e+00 0.000000e+00 0.000000e+00 1.693593e+01 -5.661608e+00 0.000000e+00 -5.661608e+00 -9.217013e+01 0.000000e+00 0.000000e+00 0.000000e+00 0.000000e+00 1.973656e+01 -3.209288e+00 0.000000e+00 -3.209288e+00 -8.895713e+01 0.000000e+00 0.000000e+00 0.000000e+00 0.000000e+00 5.557525e+01 -7.705901e+00 0.000000e+00 -7.705901e+00 -2.599861e+01 0.000000e+00 0.000000e+00 0.000000e+00 0.000000e+00 4.700327e+01 -7.511450e+00 0.000000e+00 -7.511450e+00 -3.753018e+01 0.000000e+00 0.000000e+00 0.000000e+00 0.000000e+00 2.560164e+02 -4.076832e+01 0.000000e+00 -4.076832e+01 1.942988e+02 0.000000e+00 0.000000e+00 0.000000e+00 0.000000e+00 5.096378e+01 -7.595663e+00 0.000000e+00 -7.595663e+00 -3.149705e+01 0.000000e+00 0.000000e+00 0.000000e+00 0.000000e+00 4.938691e+01 -5.321702e+00 0.000000e+00 -5.321702e+00 -3.448363e+01 0.000000e+00 0.000000e+00 0.000000e+00 0.000000e+00 5.316026e+01 -5.698590e+00 0.000000e+00 -5.698590e+00 -2.871032e+01 0.000000e+00 0.000000e+00 0.000000e+00 0.000000e+00 4.337902e+01 -7.189107e+00 0.000000e+00 -7.189107e+00 -4.333622e+01 0.000000e+00 0.000000e+00 0.000000e+00 0.000000e+00 4.406785e+01 -5.136846e+00 0.000000e+00 -5.136846e+00 -4.054115e+01 0.000000e+00 0.000000e+00 0.000000e+00 0.000000e+00 7.398886e+01 -9.255421e+00 0.000000e+00 -9.255421e+00 -3.036182e+00 0.000000e+00 0.000000e+00 0.000000e+00 0.000000e+00 8.471735e+01 -9.415512e+00 0.000000e+00 -9.415512e+00 9.050166e+00 0.000000e+00 0.000000e+00 0.000000e+00 0.000000e+00 7.925025e+01 -9.358650e+00 0.000000e+00 -9.358650e+00 2.866734e+00 0.000000e+00 0.000000e+00 0.000000e+00 0.000000e+00 7.636867e+01 -7.181799e+00 0.000000e+00 -7.181799e+00 -1.397698e-01 0.000000e+00 0.000000e+00 0.000000e+00 0.000000e+00 8.236413e+01 -7.117729e+00 0.000000e+00 -7.117729e+00 5.944931e+00 0.000000e+00 0.000000e+00 0.000000e+00 0.000000e+00 6.905745e+01 -8.922914e+00 0.000000e+00 -8.922914e+00 -9.320620e+00 0.000000e+00 0.000000e+00 0.000000e+00 0.000000e+00 7.012314e+01 -6.756884e+00 0.000000e+00 -6.756884e+00 -6.393996e+00 0.000000e+00 0.000000e+00 0.000000e+00 0.000000e+00 1.030450e+02 -1.147716e+01 0.000000e+00 -1.147716e+01 2.985069e+01 0.000000e+00 0.000000e+00 0.000000e+00 0.000000e+00 1.386183e+02 -1.449166e+01 0.000000e+00 -1.449166e+01 7.032636e+01 0.000000e+00 0.000000e+00 0.000000e+00 0.000000e+00 1.165018e+02 -1.313565e+01 0.000000e+00 -1.313565e+01 4.473531e+01 0.000000e+00 0.000000e+00 0.000000e+00 0.000000e+00 1.308143e+02 -1.457429e+01 0.000000e+00 -1.457429e+01 6.120429e+01 0.000000e+00 0.000000e+00 0.000000e+00 0.000000e+00 1.354339e+02 -1.123024e+01 0.000000e+00 -1.123024e+01 6.510183e+01 0.000000e+00 0.000000e+00 0.000000e+00 0.000000e+00 2.104082e+02 -2.914932e+01 0.000000e+00 -2.914932e+01 1.480886e+02 0.000000e+00 0.000000e+00 0.000000e+00 0.000000e+00 1.826266e+02 -2.351187e+01 0.000000e+00 -2.351187e+01 1.164179e+02 0.000000e+00 0.000000e+00 0.000000e+00 0.000000e+00 1.233116e+02 -1.402996e+01 0.000000e+00 -1.402996e+01 5.260964e+01 0.000000e+00 0.000000e+00 0.000000e+00 0.000000e+00 1.168016e+02 -1.072624e+01 0.000000e+00 -1.072624e+01 4.752042e+01 0.000000e+00 0.000000e+00 0.000000e+00 0.000000e+00 1.242938e+02 -1.103656e+01 0.000000e+00 -1.103656e+01 5.577330e+01 0.000000e+00 0.000000e+00 0.000000e+00 0.000000e+00 1.962378e+02 -2.664195e+01 0.000000e+00 -2.664195e+01 1.318380e+02 0.000000e+00 0.000000e+00 0.000000e+00 0.000000e+00 1.787864e+02 -1.965233e+01 0.000000e+00 -1.965233e+01 1.211214e+02 0.000000e+00 0.000000e+00 0.000000e+00 0.000000e+00 1.929616e+02 -2.165908e+01 0.000000e+00 -2.165908e+01 1.363559e+02 0.000000e+00 0.000000e+00 0.000000e+00 0.000000e+00 1.710767e+02 -2.046165e+01 0.000000e+00 -2.046165e+01 1.026251e+02 0.000000e+00 0.000000e+00 0.000000e+00 0.000000e+00 1.660323e+02 -1.727389e+01 0.000000e+00 -1.727389e+01 1.071301e+02 0.000000e+00 0.000000e+00 0.000000e+00 0.000000e+00 2.322173e+02 -3.279396e+01 0.000000e+00 -3.279396e+01 1.698621e+02 0.000000e+00 0.000000e+00 0.000000e+00 0.000000e+00 2.118511e+02 -2.316471e+01 0.000000e+00 -2.316471e+01 1.545187e+02 0.000000e+00 0.000000e+00 0.000000e+00 0.000000e+00 2.151812e+02 -2.995415e+01 0.000000e+00 -2.995415e+01 1.765466e+02 0.000000e+00 0.000000e+00 0.000000e+00 0.000000e+00 6.743204e+01 1.342980e+01 0.000000e+00 1.342980e+01 1.381062e+00 0.000000e+00 0.000000e+00 0.000000e+00 0.000000e+00 3.094126e+02 -7.945725e+01 0.000000e+00 -7.945725e+01 4.301853e+02 0.000000e+00 0.000000e+00 0.000000e+00 0.000000e+00 5.067288e+01 1.189880e+01 0.000000e+00 1.189880e+01 -4.942423e-01 0.000000e+00 0.000000e+00 0.000000e+00 0.000000e+00 8.084154e+01 1.738864e+01 0.000000e+00 1.738864e+01 5.443025e+00 0.000000e+00 0.000000e+00 0.000000e+00 0.000000e+00 7.770967e+01 1.462939e+01 0.000000e+00 1.462939e+01 5.516092e-01 0.000000e+00 0.000000e+00 0.000000e+00 0.000000e+00 1.001882e+02 2.742783e+01 0.000000e+00 2.742783e+01 1.432463e+01 0.000000e+00 0.000000e+00 0.000000e+00 0.000000e+00 9.211719e+01 1.977534e+01 0.000000e+00 1.977534e+01 1.848844e+00 0.000000e+00 0.000000e+00 0.000000e+00 0.000000e+00 3.226014e+02 -8.538730e+01 0.000000e+00 -8.538730e+01 3.465477e+02 0.000000e+00 0.000000e+00 0.000000e+00 0.000000e+00 2.133943e+02 -4.650010e+01 0.000000e+00 -4.650010e+01 3.788222e+02 0.000000e+00 0.000000e+00 0.000000e+00 0.000000e+00 5.852505e+01 1.233954e+01 0.000000e+00 1.233954e+01 3.325773e-01 0.000000e+00 0.000000e+00 0.000000e+00 0.000000e+00 5.522848e+01 1.182795e+01 0.000000e+00 1.182795e+01 -3.486439e-01 0.000000e+00 0.000000e+00 0.000000e+00 0.000000e+00 1.252231e+02 -9.077724e+00 0.000000e+00 -9.077724e+00 -4.531768e+01 0.000000e+00 0.000000e+00 0.000000e+00 0.000000e+00 2.043157e+01 1.675332e+01 0.000000e+00 1.675332e+01 2.032742e+00 0.000000e+00 0.000000e+00 0.000000e+00 0.000000e+00 3.785809e+01 1.234463e+01 0.000000e+00 1.234463e+01 -1.255225e+00 0.000000e+00 0.000000e+00 0.000000e+00 0.000000e+00 3.034057e+01 1.762755e+01 0.000000e+00 1.762755e+01 4.711695e+00 0.000000e+00 0.000000e+00 0.000000e+00 0.000000e+00 2.813141e+01 1.680956e+01 0.000000e+00 1.680956e+01 3.872853e+00 0.000000e+00 0.000000e+00 0.000000e+00 0.000000e+00 -1.168097e+00 -9.632925e-01 0.000000e+00 -9.632925e-01 7.554331e-01 0.000000e+00 0.000000e+00 0.000000e+00 0.000000e+00 4.081112e+01 1.213307e+01 0.000000e+00 1.213307e+01 -8.852338e-01 0.000000e+00 0.000000e+00 0.000000e+00 0.000000e+00 1.003040e+01 1.461513e+01 0.000000e+00 1.461513e+01 3.129410e+00 0.000000e+00 0.000000e+00 0.000000e+00 0.000000e+00 -1.851421e+00 1.844757e+00 0.000000e+00 1.844757e+00 7.473911e-01 0.000000e+00 0.000000e+00 0.000000e+00 0.000000e+00 2.365251e+00 1.887936e+00 0.000000e+00 1.887936e+00 -3.031672e+00 0.000000e+00 0.000000e+00 0.000000e+00 0.000000e+00 -4.685238e+00 -2.042044e+00 0.000000e+00 -2.042044e+00 3.606294e+00 0.000000e+00 0.000000e+00 0.000000e+00 0.000000e+00 -2.742796e+00 -3.637723e+00 0.000000e+00 -3.637723e+00 6.213208e-01 0.000000e+00 0.000000e+00 0.000000e+00 0.000000e+00 -1.586956e+00 -2.096485e+00 0.000000e+00 -2.096485e+00 -8.715874e-01 0.000000e+00 0.000000e+00 0.000000e+00 0.000000e+00 -3.392319e+00 -6.960247e+00 0.000000e+00 -6.960247e+00 -1.557287e+02 0.000000e+00 0.000000e+00 0.000000e+00 0.000000e+00 1.742721e+00 -1.970426e+00 0.000000e+00 -1.970426e+00 -2.640370e+00 0.000000e+00 0.000000e+00 0.000000e+00 0.000000e+00 3.152025e+00 -1.339550e-01 0.000000e+00 -1.339550e-01 -3.429163e+00 0.000000e+00 0.000000e+00 0.000000e+00 0.000000e+00 9.661545e-01 -1.580370e+00 0.000000e+00 -1.580370e+00 -3.018754e+00 0.000000e+00 0.000000e+00 0.000000e+00 0.000000e+00 1.072661e+00 1.211795e+00 0.000000e+00 1.211795e+00 -3.777496e+00 0.000000e+00 0.000000e+00 0.000000e+00 0.000000e+00 -2.641676e+01 1.716555e+01 0.000000e+00 1.716555e+01 -4.527573e+00 0.000000e+00 0.000000e+00 0.000000e+00 0.000000e+00 -1.581237e+00 -1.640276e-02 0.000000e+00 -1.640276e-02 1.292284e+00 0.000000e+00 0.000000e+00 0.000000e+00 0.000000e+00 -7.099764e-01 8.465393e-01 0.000000e+00 8.465393e-01 -8.769799e-01 0.000000e+00 0.000000e+00 0.000000e+00 0.000000e+00 -9.246355e-01 1.126381e-01 0.000000e+00 1.126381e-01 -1.858926e+00 0.000000e+00 0.000000e+00 0.000000e+00 0.000000e+00 6.304036e-01 3.090328e+00 0.000000e+00 3.090328e+00 -1.562729e+00 0.000000e+00 0.000000e+00 0.000000e+00 0.000000e+00 -1.445049e+01 1.269361e+01 0.000000e+00 1.269361e+01 -5.243545e+00 0.000000e+00 0.000000e+00 0.000000e+00 0.000000e+00 -3.838999e+01 1.977472e+01 0.000000e+00 1.977472e+01 -1.327034e+00 0.000000e+00 0.000000e+00 0.000000e+00 0.000000e+00 -2.858025e-01 -1.064103e+00 0.000000e+00 -1.064103e+00 4.003628e-01 0.000000e+00 0.000000e+00 0.000000e+00 0.000000e+00 -6.177475e-01 -5.522396e-01 0.000000e+00 -5.522396e-01 -2.365058e+00 0.000000e+00 0.000000e+00 0.000000e+00 0.000000e+00 1.163608e-01 -4.084401e-01 0.000000e+00 -4.084401e-01 -2.803234e+00 0.000000e+00 0.000000e+00 0.000000e+00 0.000000e+00 -6.277071e+01 1.731713e+01 0.000000e+00 1.731713e+01 6.352076e+00 0.000000e+00 0.000000e+00 0.000000e+00 0.000000e+00 -6.241469e+01 -1.619692e+01 0.000000e+00 -1.619692e+01 1.607211e+01 0.000000e+00 0.000000e+00 0.000000e+00 0.000000e+00 -6.032970e+00 7.527311e+00 0.000000e+00 7.527311e+00 -5.780984e+00 0.000000e+00 0.000000e+00 0.000000e+00 0.000000e+00 -7.064812e+00 9.999603e+00 0.000000e+00 9.999603e+00 -1.028726e+00 0.000000e+00 0.000000e+00 0.000000e+00 0.000000e+00 -5.114662e+01 2.047623e+01 0.000000e+00 2.047623e+01 2.797120e+00 0.000000e+00 0.000000e+00 0.000000e+00 0.000000e+00 -3.290983e+01 2.094224e+01 0.000000e+00 2.094224e+01 -6.147639e-01 0.000000e+00 0.000000e+00 0.000000e+00 0.000000e+00 -4.170202e+01 1.976753e+01 0.000000e+00 1.976753e+01 3.189149e-01 0.000000e+00 0.000000e+00 0.000000e+00 0.000000e+00 -4.511122e+01 -2.843572e+01 0.000000e+00 -2.843572e+01 7.717642e+00 0.000000e+00 0.000000e+00 0.000000e+00 0.000000e+00 -3.999380e+00 -3.107132e+01 0.000000e+00 -3.107132e+01 -4.501932e+01 0.000000e+00 0.000000e+00 0.000000e+00 0.000000e+00 -1.937017e+01 -2.844751e+01 0.000000e+00 -2.844751e+01 -3.498025e+00 0.000000e+00 0.000000e+00 0.000000e+00 0.000000e+00 -4.267925e+00 -1.423402e+01 0.000000e+00 -1.423402e+01 -2.755949e+01 0.000000e+00 0.000000e+00 0.000000e+00 0.000000e+00 9.228189e-02 -5.957983e+00 0.000000e+00 -5.957983e+00 -1.467086e+02 0.000000e+00 0.000000e+00 0.000000e+00 0.000000e+00 1.004279e+00 -3.327049e+00 0.000000e+00 -3.327049e+00 -1.500421e+02 0.000000e+00 0.000000e+00 0.000000e+00 0.000000e+00 2.445377e+00 -2.274364e+00 0.000000e+00 -2.274364e+00 -1.414228e+02 0.000000e+00 0.000000e+00 0.000000e+00 0.000000e+00 1.096223e+02 -1.225079e+01 0.000000e+00 -1.225079e+01 3.743188e+01 0.000000e+00 0.000000e+00 0.000000e+00 0.000000e+00 1.041321e+02 -9.099048e+00 0.000000e+00 -9.099048e+00 3.278834e+01 0.000000e+00 0.000000e+00 0.000000e+00 0.000000e+00 1.103862e+02 -9.946563e+00 0.000000e+00 -9.946563e+00 4.013922e+01 0.000000e+00 0.000000e+00 0.000000e+00 0.000000e+00 2.562152e+02 3.805949e+01 0.000000e+00 3.805949e+01 6.173662e+02 0.000000e+00 0.000000e+00 0.000000e+00 0.000000e+00 -1.537898e+00 2.867786e+00 0.000000e+00 2.867786e+00 -5.416072e+00 0.000000e+00 0.000000e+00 0.000000e+00 0.000000e+00 -3.767857e-01 7.781338e-01 0.000000e+00 7.781338e-01 -3.549055e-01 0.000000e+00 0.000000e+00 0.000000e+00 0.000000e+00 -2.834998e+00 5.242316e+00 0.000000e+00 5.242316e+00 -1.078053e+00 0.000000e+00 0.000000e+00 0.000000e+00 0.000000e+00 -5.749328e+00 -1.034376e+01 0.000000e+00 -1.034376e+01 -8.340075e+01 0.000000e+00 0.000000e+00 0.000000e+00 0.000000e+00 2.210729e+00 3.001414e+00 0.000000e+00 3.001414e+00 -3.677791e+00 0.000000e+00 0.000000e+00 0.000000e+00 0.000000e+00 3.261006e+01 -6.114300e+00 0.000000e+00 -6.114300e+00 -6.098282e+01 0.000000e+00 0.000000e+00 0.000000e+00 0.000000e+00 5.244600e+00 -2.103430e+00 0.000000e+00 -2.103430e+00 -1.300820e+00 0.000000e+00 0.000000e+00 0.000000e+00 0.000000e+00 3.200763e+00 -2.809960e+00 0.000000e+00 -2.809960e+00 1.562931e+00 0.000000e+00 0.000000e+00 0.000000e+00 0.000000e+00 3.329875e-01 -4.423361e-01 0.000000e+00 -4.423361e-01 3.878074e+00 0.000000e+00 0.000000e+00 0.000000e+00 0.000000e+00 -4.386472e-01 3.197293e+00 0.000000e+00 3.197293e+00 4.097620e+00 0.000000e+00 0.000000e+00 0.000000e+00 0.000000e+00 3.844900e+00 1.646867e+01 0.000000e+00 1.646867e+01 4.495497e+00 0.000000e+00 0.000000e+00 0.000000e+00 0.000000e+00 9.609088e+00 2.278568e+01 0.000000e+00 2.278568e+01 4.102491e+00 0.000000e+00 0.000000e+00 0.000000e+00 0.000000e+00 1.625127e+01 2.872442e+01 0.000000e+00 2.872442e+01 2.803996e+00 0.000000e+00 0.000000e+00 0.000000e+00 0.000000e+00 2.240266e+01 3.266307e+01 0.000000e+00 3.266307e+01 -1.062322e-01 0.000000e+00 0.000000e+00 0.000000e+00 0.000000e+00 9.015248e+00 3.242557e+01 0.000000e+00 3.242557e+01 -1.368516e-01 0.000000e+00 0.000000e+00 0.000000e+00 0.000000e+00 -8.223760e+00 3.503811e+01 0.000000e+00 3.503811e+01 -1.320399e-01 0.000000e+00 0.000000e+00 0.000000e+00 0.000000e+00 -1.098891e+01 3.601341e+01 0.000000e+00 3.601341e+01 -2.781939e+00 0.000000e+00 0.000000e+00 0.000000e+00 0.000000e+00 -9.091061e+00 3.459332e+01 0.000000e+00 3.459332e+01 -6.776032e+00 0.000000e+00 0.000000e+00 0.000000e+00 0.000000e+00 -5.278452e+00 3.001457e+01 0.000000e+00 3.001457e+01 -1.010963e+01 0.000000e+00 0.000000e+00 0.000000e+00 0.000000e+00 9.260661e-01 1.703556e+01 0.000000e+00 1.703556e+01 -1.407602e+01 0.000000e+00 0.000000e+00 0.000000e+00 0.000000e+00 1.809588e+00 9.939279e+00 0.000000e+00 9.939279e+00 -1.357366e+01 0.000000e+00 0.000000e+00 0.000000e+00 0.000000e+00 5.446060e-01 4.322683e+00 0.000000e+00 4.322683e+00 -1.116575e+01 0.000000e+00 0.000000e+00 0.000000e+00 0.000000e+00 -2.950797e+00 1.880140e+00 0.000000e+00 1.880140e+00 -4.850648e+00 0.000000e+00 0.000000e+00 0.000000e+00 0.000000e+00 -2.647411e+00 3.223160e+00 0.000000e+00 3.223160e+00 -2.987867e+00 0.000000e+00 0.000000e+00 0.000000e+00 0.000000e+00 2.293079e+02 8.624490e+01 0.000000e+00 8.624490e+01 -4.102151e+01 0.000000e+00 0.000000e+00 0.000000e+00 0.000000e+00 1.477723e+02 5.923906e+01 0.000000e+00 5.923906e+01 3.941067e+01 0.000000e+00 0.000000e+00 0.000000e+00 0.000000e+00 1.089390e+02 3.555990e+01 0.000000e+00 3.555990e+01 2.012179e+00 0.000000e+00 0.000000e+00 0.000000e+00 0.000000e+00 -1.322532e-01 -2.870371e+00 0.000000e+00 -2.870371e+00 -1.510903e+00 0.000000e+00 0.000000e+00 0.000000e+00 0.000000e+00 6.151504e+00 -2.564704e+01 0.000000e+00 -2.564704e+01 -5.941369e+01 0.000000e+00 0.000000e+00 0.000000e+00 0.000000e+00 1.701969e+02 1.138008e+02 0.000000e+00 1.138008e+02 1.243875e+02 0.000000e+00 0.000000e+00 0.000000e+00 0.000000e+00 -1.364998e+01 -1.346524e+01 0.000000e+00 -1.346524e+01 -1.774362e+02 0.000000e+00 0.000000e+00 0.000000e+00 0.000000e+00 2.088329e+01 1.722217e+01 0.000000e+00 1.722217e+01 3.120016e+00 0.000000e+00 0.000000e+00 0.000000e+00 0.000000e+00 4.732911e+00 -2.188637e+00 0.000000e+00 -2.188637e+00 -1.331135e+02 0.000000e+00 0.000000e+00 0.000000e+00 0.000000e+00 1.223347e+01 -5.545326e+00 0.000000e+00 -5.545326e+00 -1.064479e+02 0.000000e+00 0.000000e+00 0.000000e+00 0.000000e+00 5.640369e+01 -5.841401e+00 0.000000e+00 -5.841401e+00 -2.325559e+01 0.000000e+00 0.000000e+00 0.000000e+00 0.000000e+00 6.008582e+01 -8.085237e+00 0.000000e+00 -8.085237e+00 -2.027836e+01 0.000000e+00 0.000000e+00 0.000000e+00 0.000000e+00 2.922192e+01 -5.995559e+00 0.000000e+00 -5.995559e+00 -6.646633e+01 0.000000e+00 0.000000e+00 0.000000e+00 0.000000e+00 5.463348e-01 -3.150823e+00 0.000000e+00 -3.150823e+00 -1.177199e+00 0.000000e+00 0.000000e+00 0.000000e+00 0.000000e+00 8.584561e+01 -7.532429e+00 0.000000e+00 -7.532429e+00 1.189992e+01 0.000000e+00 0.000000e+00 0.000000e+00 0.000000e+00 9.050121e+01 -9.939332e+00 0.000000e+00 -9.939332e+00 1.556905e+01 0.000000e+00 0.000000e+00 0.000000e+00 0.000000e+00 2.747963e+01 -3.457908e+00 0.000000e+00 -3.457908e+00 -6.998038e+01 0.000000e+00 0.000000e+00 0.000000e+00 0.000000e+00 1.450333e+02 -1.158904e+01 0.000000e+00 -1.158904e+01 7.413252e+01 0.000000e+00 0.000000e+00 0.000000e+00 0.000000e+00 1.492708e+02 -1.490912e+01 0.000000e+00 -1.490912e+01 7.970073e+01 0.000000e+00 0.000000e+00 0.000000e+00 0.000000e+00 1.730377e+02 8.522009e+01 0.000000e+00 8.522009e+01 4.080525e+02 0.000000e+00 0.000000e+00 0.000000e+00 0.000000e+00 6.510094e+01 1.260791e+01 0.000000e+00 1.260791e+01 1.116712e-01 0.000000e+00 0.000000e+00 0.000000e+00 0.000000e+00 1.934470e+02 4.439044e+00 0.000000e+00 4.439044e+00 5.216107e+02 0.000000e+00 0.000000e+00 0.000000e+00 0.000000e+00 4.833806e+01 1.173559e+01 0.000000e+00 1.173559e+01 -8.618503e-01 0.000000e+00 0.000000e+00 0.000000e+00 0.000000e+00 4.387060e+01 1.205692e+01 0.000000e+00 1.205692e+01 -1.267247e+00 0.000000e+00 0.000000e+00 0.000000e+00 0.000000e+00 1.458511e+02 7.961132e+01 0.000000e+00 7.961132e+01 2.046157e+01 0.000000e+00 0.000000e+00 0.000000e+00 0.000000e+00 2.243364e+02 -3.705110e+01 0.000000e+00 -3.705110e+01 2.033635e+02 0.000000e+00 0.000000e+00 0.000000e+00 0.000000e+00 2.786699e+02 -5.335708e+01 0.000000e+00 -5.335708e+01 2.292354e+02 0.000000e+00 0.000000e+00 0.000000e+00 0.000000e+00 4.323904e+01 1.185744e+01 0.000000e+00 1.185744e+01 -1.580019e+00 0.000000e+00 0.000000e+00 0.000000e+00 0.000000e+00 3.557017e+01 1.448397e+01 0.000000e+00 1.448397e+01 7.036774e+00 0.000000e+00 0.000000e+00 0.000000e+00 0.000000e+00 -4.870102e+01 1.591834e+01 0.000000e+00 1.591834e+01 8.286690e-01 0.000000e+00 0.000000e+00 0.000000e+00 0.000000e+00 -7.015238e+01 1.016326e+01 0.000000e+00 1.016326e+01 1.134960e+01 0.000000e+00 0.000000e+00 0.000000e+00 0.000000e+00 4.216492e+01 1.297624e+01 0.000000e+00 1.297624e+01 2.229362e+00 0.000000e+00 0.000000e+00 0.000000e+00 0.000000e+00 3.592250e+01 1.390756e+01 0.000000e+00 1.390756e+01 1.407209e+00 0.000000e+00 0.000000e+00 0.000000e+00 0.000000e+00 9.706525e+00 1.474853e+01 0.000000e+00 1.474853e+01 3.839461e+00 0.000000e+00 0.000000e+00 0.000000e+00 0.000000e+00 -1.330818e+01 1.480772e+01 0.000000e+00 1.480772e+01 -4.361429e-01 0.000000e+00 0.000000e+00 0.000000e+00 0.000000e+00 -4.554492e+00 2.019560e+00 0.000000e+00 2.019560e+00 6.380459e+00 0.000000e+00 0.000000e+00 0.000000e+00 0.000000e+00 -2.289143e+00 -7.087836e-02 0.000000e+00 -7.087836e-02 1.708060e-01 0.000000e+00 0.000000e+00 0.000000e+00 0.000000e+00 -7.664021e-01 -3.166715e+00 0.000000e+00 -3.166715e+00 -1.089808e-01 0.000000e+00 0.000000e+00 0.000000e+00 0.000000e+00 -1.298088e+00 -2.228073e+01 0.000000e+00 -2.228073e+01 -9.115612e+01 0.000000e+00 0.000000e+00 0.000000e+00 0.000000e+00 -3.742429e+00 -3.114965e+01 0.000000e+00 -3.114965e+01 -6.549944e+01 0.000000e+00 0.000000e+00 0.000000e+00 0.000000e+00 -2.129840e+01 1.984774e+01 0.000000e+00 1.984774e+01 3.250353e-01 0.000000e+00 0.000000e+00 0.000000e+00 0.000000e+00 9.612293e+00 -5.276575e+00 0.000000e+00 -5.276575e+00 -1.139660e+02 0.000000e+00 0.000000e+00 0.000000e+00 0.000000e+00 -5.125347e+01 -1.853805e+01 0.000000e+00 -1.853805e+01 1.097575e+01 0.000000e+00 0.000000e+00 0.000000e+00 0.000000e+00 1.624415e+02 1.044209e+02 0.000000e+00 1.044209e+02 1.285406e+02 0.000000e+00 0.000000e+00 0.000000e+00 0.000000e+00 8.643897e+00 -2.336748e+00 0.000000e+00 -2.336748e+00 -1.176153e+02 0.000000e+00 0.000000e+00 0.000000e+00 0.000000e+00 -1.703773e+00 -3.262911e+01 0.000000e+00 -3.262911e+01 -4.061174e+01 0.000000e+00 0.000000e+00 0.000000e+00 0.000000e+00 9.866355e+00 -2.502448e+00 0.000000e+00 -2.502448e+00 -1.102653e+02 0.000000e+00 0.000000e+00 0.000000e+00 0.000000e+00 -3.151491e+01 -2.979820e+01 0.000000e+00 -2.979820e+01 -4.135126e+00 0.000000e+00 0.000000e+00 0.000000e+00 0.000000e+00 -6.689053e+00 -2.520706e+01 0.000000e+00 -2.520706e+01 -1.168113e+01 0.000000e+00 0.000000e+00 0.000000e+00 0.000000e+00 5.652988e+00 -1.566457e+01 0.000000e+00 -1.566457e+01 -9.178516e+01 0.000000e+00 0.000000e+00 0.000000e+00 0.000000e+00 5.266094e-01 4.376169e+00 0.000000e+00 4.376169e+00 -3.104757e+00 0.000000e+00 0.000000e+00 0.000000e+00 0.000000e+00 3.363922e+01 -3.976337e+00 0.000000e+00 -3.976337e+00 -5.794651e+01 0.000000e+00 0.000000e+00 0.000000e+00 0.000000e+00 3.608359e+01 -6.348240e+00 0.000000e+00 -6.348240e+00 -5.455560e+01 0.000000e+00 0.000000e+00 0.000000e+00 0.000000e+00 -2.182773e+00 2.755385e+00 0.000000e+00 2.755385e+00 -2.000057e+00 0.000000e+00 0.000000e+00 0.000000e+00 0.000000e+00 -1.371250e+00 4.318821e+00 0.000000e+00 4.318821e+00 -2.549544e+00 0.000000e+00 0.000000e+00 0.000000e+00 0.000000e+00 -3.719667e+00 1.143330e+00 0.000000e+00 1.143330e+00 -3.865855e+00 0.000000e+00 0.000000e+00 0.000000e+00 0.000000e+00 -2.501512e+00 1.427293e+00 0.000000e+00 1.427293e+00 -1.310762e+01 0.000000e+00 0.000000e+00 0.000000e+00 0.000000e+00 -1.897579e+00 1.483886e+00 0.000000e+00 1.483886e+00 -7.845627e+00 0.000000e+00 0.000000e+00 0.000000e+00 0.000000e+00 -2.094553e+00 6.357499e+00 0.000000e+00 6.357499e+00 -1.798787e+01 0.000000e+00 0.000000e+00 0.000000e+00 0.000000e+00 -3.254999e+00 1.311382e+01 0.000000e+00 1.311382e+01 -2.010198e+01 0.000000e+00 0.000000e+00 0.000000e+00 0.000000e+00 -1.092595e+01 2.672062e+01 0.000000e+00 2.672062e+01 -1.678159e+01 0.000000e+00 0.000000e+00 0.000000e+00 0.000000e+00 -1.747388e+00 2.362018e+01 0.000000e+00 2.362018e+01 -1.225377e+01 0.000000e+00 0.000000e+00 0.000000e+00 0.000000e+00 -1.350013e+01 3.160929e+01 0.000000e+00 3.160929e+01 -1.287014e+01 0.000000e+00 0.000000e+00 0.000000e+00 0.000000e+00 -1.115756e+01 3.004440e+01 0.000000e+00 3.004440e+01 -4.843839e+00 0.000000e+00 0.000000e+00 0.000000e+00 0.000000e+00 -1.288036e+01 3.481869e+01 0.000000e+00 3.481869e+01 -7.778464e+00 0.000000e+00 0.000000e+00 0.000000e+00 0.000000e+00 -9.105249e+00 3.638134e+01 0.000000e+00 3.638134e+01 -2.119350e+00 0.000000e+00 0.000000e+00 0.000000e+00 0.000000e+00 4.606108e+00 3.549246e+01 0.000000e+00 3.549246e+01 1.671375e+00 0.000000e+00 0.000000e+00 0.000000e+00 0.000000e+00 -7.092429e-01 3.332154e+01 0.000000e+00 3.332154e+01 3.842116e-01 0.000000e+00 0.000000e+00 0.000000e+00 0.000000e+00 1.788125e+01 3.291836e+01 0.000000e+00 3.291836e+01 4.213602e-01 0.000000e+00 0.000000e+00 0.000000e+00 0.000000e+00 1.733336e+01 3.250709e+01 0.000000e+00 3.250709e+01 -5.507346e-01 0.000000e+00 0.000000e+00 0.000000e+00 0.000000e+00 2.396058e+01 2.886691e+01 0.000000e+00 2.886691e+01 5.038681e+00 0.000000e+00 0.000000e+00 0.000000e+00 0.000000e+00 2.144924e+01 3.155684e+01 0.000000e+00 3.155684e+01 1.072999e+00 0.000000e+00 0.000000e+00 0.000000e+00 0.000000e+00 2.039828e+01 2.572017e+01 0.000000e+00 2.572017e+01 8.131805e+00 0.000000e+00 0.000000e+00 0.000000e+00 0.000000e+00 1.221412e+01 2.050353e+01 0.000000e+00 2.050353e+01 1.033825e+01 0.000000e+00 0.000000e+00 0.000000e+00 0.000000e+00 1.373841e+00 6.694807e+00 0.000000e+00 6.694807e+00 1.137388e+01 0.000000e+00 0.000000e+00 0.000000e+00 0.000000e+00 -1.613697e+00 3.850232e+00 0.000000e+00 3.850232e+00 2.878775e-02 0.000000e+00 0.000000e+00 0.000000e+00 0.000000e+00 2.805618e-01 9.265724e+00 0.000000e+00 9.265724e+00 5.746486e+00 0.000000e+00 0.000000e+00 0.000000e+00 0.000000e+00 -7.403765e-02 -1.978048e-01 0.000000e+00 -1.978048e-01 8.603359e+00 0.000000e+00 0.000000e+00 0.000000e+00 0.000000e+00 4.097408e+00 -4.015228e+00 0.000000e+00 -4.015228e+00 1.701761e+00 0.000000e+00 0.000000e+00 0.000000e+00 0.000000e+00 -2.017557e+01 -2.926741e+01 0.000000e+00 -2.926741e+01 -1.773978e+01 0.000000e+00 0.000000e+00 0.000000e+00 0.000000e+00 4.640696e+00 9.295993e-01 0.000000e+00 9.295993e-01 -2.703868e+00 0.000000e+00 0.000000e+00 0.000000e+00 0.000000e+00 3.078723e+01 -4.125609e+00 0.000000e+00 -4.125609e+00 -6.378895e+01 0.000000e+00 0.000000e+00 0.000000e+00 0.000000e+00 6.509575e+00 1.386157e+01 0.000000e+00 1.386157e+01 1.180238e+01 0.000000e+00 0.000000e+00 0.000000e+00 0.000000e+00 2.233335e+01 3.091247e+01 0.000000e+00 3.091247e+01 1.937111e+00 0.000000e+00 0.000000e+00 0.000000e+00 0.000000e+00 1.180868e+01 3.422169e+01 0.000000e+00 3.422169e+01 7.283995e-01 0.000000e+00 0.000000e+00 0.000000e+00 0.000000e+00 -2.921485e+00 3.635625e+01 0.000000e+00 3.635625e+01 1.110224e+00 0.000000e+00 0.000000e+00 0.000000e+00 0.000000e+00 -6.839850e+00 2.024011e+01 0.000000e+00 2.024011e+01 -1.913650e+01 0.000000e+00 0.000000e+00 0.000000e+00 0.000000e+00 -3.427009e+00 -1.516690e-01 0.000000e+00 -1.516690e-01 -6.929827e+00 0.000000e+00 0.000000e+00 0.000000e+00 0.000000e+00 4.299476e+00 6.129959e-01 0.000000e+00 6.129959e-01 -3.320224e+00 0.000000e+00 0.000000e+00 0.000000e+00 0.000000e+00 -7.924970e+00 -8.905321e+00 0.000000e+00 -8.905321e+00 -1.655697e+02 0.000000e+00 0.000000e+00 0.000000e+00 0.000000e+00 1.259612e+00 -7.073365e+00 0.000000e+00 -7.073365e+00 -1.684943e+02 0.000000e+00 0.000000e+00 0.000000e+00 0.000000e+00 -1.148895e-01 -4.578952e+00 0.000000e+00 -4.578952e+00 -1.589484e+02 0.000000e+00 0.000000e+00 0.000000e+00 0.000000e+00 1.426771e+01 -5.710194e+00 0.000000e+00 -5.710194e+00 -9.906550e+01 0.000000e+00 0.000000e+00 0.000000e+00 0.000000e+00 1.310053e+01 -2.725571e+00 0.000000e+00 -2.725571e+00 -1.028666e+02 0.000000e+00 0.000000e+00 0.000000e+00 0.000000e+00 1.628344e+01 -2.970254e+00 0.000000e+00 -2.970254e+00 -9.570206e+01 0.000000e+00 0.000000e+00 0.000000e+00 0.000000e+00 3.972343e+01 -6.738262e+00 0.000000e+00 -6.738262e+00 -4.885052e+01 0.000000e+00 0.000000e+00 0.000000e+00 0.000000e+00 3.711731e+01 -4.602894e+00 0.000000e+00 -4.602894e+00 -5.182660e+01 0.000000e+00 0.000000e+00 0.000000e+00 0.000000e+00 3.950339e+01 -4.897835e+00 0.000000e+00 -4.897835e+00 -4.622468e+01 0.000000e+00 0.000000e+00 0.000000e+00 0.000000e+00 6.464736e+01 -8.568339e+00 0.000000e+00 -8.568339e+00 -1.481005e+01 0.000000e+00 0.000000e+00 0.000000e+00 0.000000e+00 6.055598e+01 -6.349086e+00 0.000000e+00 -6.349086e+00 -1.779599e+01 0.000000e+00 0.000000e+00 0.000000e+00 0.000000e+00 6.540743e+01 -6.628344e+00 0.000000e+00 -6.628344e+00 -1.224308e+01 0.000000e+00 0.000000e+00 0.000000e+00 0.000000e+00 9.673904e+01 -1.065598e+01 0.000000e+00 -1.065598e+01 2.215527e+01 0.000000e+00 0.000000e+00 0.000000e+00 0.000000e+00 9.035799e+01 -7.966318e+00 0.000000e+00 -7.966318e+00 1.826113e+01 0.000000e+00 0.000000e+00 0.000000e+00 0.000000e+00 9.693863e+01 -8.405995e+00 0.000000e+00 -8.405995e+00 2.544826e+01 0.000000e+00 0.000000e+00 0.000000e+00 0.000000e+00 1.613869e+02 -1.718696e+01 0.000000e+00 -1.718696e+01 9.000901e+01 0.000000e+00 0.000000e+00 0.000000e+00 0.000000e+00 1.459880e+02 -1.307272e+01 0.000000e+00 -1.307272e+01 8.326375e+01 0.000000e+00 0.000000e+00 0.000000e+00 0.000000e+00 1.550943e+02 -1.505433e+01 0.000000e+00 -1.505433e+01 9.455634e+01 0.000000e+00 0.000000e+00 0.000000e+00 0.000000e+00 3.048497e+02 -6.930789e+01 0.000000e+00 -6.930789e+01 2.785029e+02 0.000000e+00 0.000000e+00 0.000000e+00 0.000000e+00 2.317407e+02 -4.576027e+01 0.000000e+00 -4.576027e+01 2.417484e+02 0.000000e+00 0.000000e+00 0.000000e+00 0.000000e+00 2.278907e+02 -5.300009e+01 0.000000e+00 -5.300009e+01 2.962128e+02 0.000000e+00 0.000000e+00 0.000000e+00 0.000000e+00 1.443362e+00 8.995569e+00 0.000000e+00 8.995569e+00 6.532516e+00 0.000000e+00 0.000000e+00 0.000000e+00 0.000000e+00 -8.736863e-01 2.730134e+00 0.000000e+00 2.730134e+00 1.272336e-02 0.000000e+00 0.000000e+00 0.000000e+00 0.000000e+00 -6.952559e+01 -3.179823e+00 0.000000e+00 -3.179823e+00 1.510423e+01 0.000000e+00 0.000000e+00 0.000000e+00 0.000000e+00 1.158028e+00 -1.787501e+01 0.000000e+00 -1.787501e+01 -8.759176e+01 0.000000e+00 0.000000e+00 0.000000e+00 0.000000e+00 -1.643724e+01 -2.179177e+00 0.000000e+00 -2.179177e+00 -1.155441e+02 0.000000e+00 0.000000e+00 0.000000e+00 0.000000e+00 -2.040278e+00 -2.377849e+01 0.000000e+00 -2.377849e+01 -9.392853e+01 0.000000e+00 0.000000e+00 0.000000e+00 0.000000e+00 1.645242e+02 6.815670e+01 0.000000e+00 6.815670e+01 3.495003e+02 0.000000e+00 0.000000e+00 0.000000e+00 0.000000e+00 -5.376727e+01 9.557559e+00 0.000000e+00 9.557559e+00 2.945352e+00 0.000000e+00 0.000000e+00 0.000000e+00 0.000000e+00 -2.000058e-01 3.798013e+00 0.000000e+00 3.798013e+00 -1.903659e+00 0.000000e+00 0.000000e+00 0.000000e+00 0.000000e+00 -8.112506e+00 -2.974668e+01 0.000000e+00 -2.974668e+01 -2.920041e+01 0.000000e+00 0.000000e+00 0.000000e+00 0.000000e+00 4.824442e+00 -2.463000e+01 0.000000e+00 -2.463000e+01 -9.539237e+01 0.000000e+00 0.000000e+00 0.000000e+00 0.000000e+00 4.493368e+00 -2.263740e+00 0.000000e+00 -2.263740e+00 -1.585874e+00 0.000000e+00 0.000000e+00 0.000000e+00 0.000000e+00 2.992243e+00 -3.273672e+01 0.000000e+00 -3.273672e+01 -6.900315e+01 0.000000e+00 0.000000e+00 0.000000e+00 0.000000e+00 2.186812e+00 -3.034423e+01 0.000000e+00 -3.034423e+01 -7.835643e+01 0.000000e+00 0.000000e+00 0.000000e+00 0.000000e+00 7.086398e+00 -2.763994e+01 0.000000e+00 -2.763994e+01 -9.898296e+01 0.000000e+00 0.000000e+00 0.000000e+00 0.000000e+00 -5.091010e+00 -1.750820e+01 0.000000e+00 -1.750820e+01 -1.034280e+02 0.000000e+00 0.000000e+00 0.000000e+00 0.000000e+00 1.594460e+01 2.310173e+01 0.000000e+00 2.310173e+01 2.887459e+00 0.000000e+00 0.000000e+00 0.000000e+00 0.000000e+00 4.591178e+00 -7.847753e+00 0.000000e+00 -7.847753e+00 -1.343031e+02 0.000000e+00 0.000000e+00 0.000000e+00 0.000000e+00 4.491280e+01 -1.222571e+01 0.000000e+00 -1.222571e+01 -4.032650e+01 0.000000e+00 0.000000e+00 0.000000e+00 0.000000e+00 1.227940e+00 -3.574019e+00 0.000000e+00 -3.574019e+00 -7.487349e-01 0.000000e+00 0.000000e+00 0.000000e+00 0.000000e+00 1.690916e+02 -3.374084e+01 0.000000e+00 -3.374084e+01 1.113429e+02 0.000000e+00 0.000000e+00 0.000000e+00 0.000000e+00 7.051034e+01 -1.516845e+01 0.000000e+00 -1.516845e+01 -5.606358e+00 0.000000e+00 0.000000e+00 0.000000e+00 0.000000e+00 -4.771154e+01 8.998810e+00 0.000000e+00 8.998810e+00 2.343734e+01 0.000000e+00 0.000000e+00 0.000000e+00 0.000000e+00 1.301222e+02 -2.397079e+01 0.000000e+00 -2.397079e+01 6.992890e+01 0.000000e+00 0.000000e+00 0.000000e+00 0.000000e+00 6.561665e+01 2.287740e+01 0.000000e+00 2.287740e+01 4.622883e+00 0.000000e+00 0.000000e+00 0.000000e+00 0.000000e+00 2.710280e+01 -1.007801e+01 0.000000e+00 -1.007801e+01 -6.906198e+01 0.000000e+00 0.000000e+00 0.000000e+00 0.000000e+00 7.746659e+01 2.859417e+01 0.000000e+00 2.859417e+01 1.038523e+01 0.000000e+00 0.000000e+00 0.000000e+00 0.000000e+00 6.446712e+01 2.393478e+01 0.000000e+00 2.393478e+01 3.093307e+00 0.000000e+00 0.000000e+00 0.000000e+00 0.000000e+00 2.900822e+01 1.812425e+01 0.000000e+00 1.812425e+01 3.059959e+00 0.000000e+00 0.000000e+00 0.000000e+00 0.000000e+00 5.011692e+01 1.749210e+01 0.000000e+00 1.749210e+01 7.356500e-02 0.000000e+00 0.000000e+00 0.000000e+00 0.000000e+00 1.339881e+02 3.097198e+01 0.000000e+00 3.097198e+01 3.406229e+02 0.000000e+00 0.000000e+00 0.000000e+00 0.000000e+00 4.526247e+01 1.561722e+01 0.000000e+00 1.561722e+01 -6.669447e-02 0.000000e+00 0.000000e+00 0.000000e+00 0.000000e+00 4.352046e+01 1.664197e+01 0.000000e+00 1.664197e+01 -1.923836e+00 0.000000e+00 0.000000e+00 0.000000e+00 0.000000e+00 3.901118e+01 1.504854e+01 0.000000e+00 1.504854e+01 -1.855763e+00 0.000000e+00 0.000000e+00 0.000000e+00 0.000000e+00 9.550748e+01 3.970612e+01 0.000000e+00 3.970612e+01 2.293999e+01 0.000000e+00 0.000000e+00 0.000000e+00 0.000000e+00 7.492769e+01 3.029209e+01 0.000000e+00 3.029209e+01 7.982994e+00 0.000000e+00 0.000000e+00 0.000000e+00 0.000000e+00 2.052213e+02 -4.857510e+01 0.000000e+00 -4.857510e+01 3.469897e+02 0.000000e+00 0.000000e+00 0.000000e+00 0.000000e+00 1.433556e+02 -2.413168e+00 0.000000e+00 -2.413168e+00 3.988949e+02 0.000000e+00 0.000000e+00 0.000000e+00 0.000000e+00 5.679794e+01 1.966690e+01 0.000000e+00 1.966690e+01 1.964686e+00 0.000000e+00 0.000000e+00 0.000000e+00 0.000000e+00 4.877727e+01 1.805842e+01 0.000000e+00 1.805842e+01 -8.348268e-01 0.000000e+00 0.000000e+00 0.000000e+00 0.000000e+00 2.521307e+02 1.280287e+02 0.000000e+00 1.280287e+02 1.775791e+02 0.000000e+00 0.000000e+00 0.000000e+00 0.000000e+00 1.389875e+02 1.221372e+02 0.000000e+00 1.221372e+02 2.180782e+02 0.000000e+00 0.000000e+00 0.000000e+00 0.000000e+00 -4.469993e+01 -1.758018e+01 0.000000e+00 -1.758018e+01 3.271132e+01 0.000000e+00 0.000000e+00 0.000000e+00 0.000000e+00 -1.779019e+01 2.033608e+01 0.000000e+00 2.033608e+01 -8.105590e+00 0.000000e+00 0.000000e+00 0.000000e+00 0.000000e+00 -4.589210e+01 1.926470e+01 0.000000e+00 1.926470e+01 1.433400e+01 0.000000e+00 0.000000e+00 0.000000e+00 0.000000e+00 5.249278e+00 -4.082607e+01 0.000000e+00 -4.082607e+01 -4.492687e+01 0.000000e+00 0.000000e+00 0.000000e+00 0.000000e+00 1.372602e+02 7.665403e+01 0.000000e+00 7.665403e+01 3.769032e+02 0.000000e+00 0.000000e+00 0.000000e+00 0.000000e+00 1.171282e+01 -8.377332e+00 0.000000e+00 -8.377332e+00 -1.099217e+02 0.000000e+00 0.000000e+00 0.000000e+00 0.000000e+00 -2.611053e+01 2.463184e+01 0.000000e+00 2.463184e+01 -5.466444e+00 0.000000e+00 0.000000e+00 0.000000e+00 0.000000e+00 3.851475e+00 -1.931779e+00 0.000000e+00 -1.931779e+00 -2.176108e+00 0.000000e+00 0.000000e+00 0.000000e+00 0.000000e+00 1.709719e+01 -8.956516e+00 0.000000e+00 -8.956516e+00 -8.896053e+01 0.000000e+00 0.000000e+00 0.000000e+00 0.000000e+00 -2.739858e+01 -3.905220e+01 0.000000e+00 -3.905220e+01 5.466176e+00 0.000000e+00 0.000000e+00 0.000000e+00 0.000000e+00 -1.196969e+00 4.318734e-02 0.000000e+00 4.318734e-02 -1.761430e+00 0.000000e+00 0.000000e+00 0.000000e+00 0.000000e+00 -4.339140e+01 -2.547049e+01 0.000000e+00 -2.547049e+01 1.761947e+00 0.000000e+00 0.000000e+00 0.000000e+00 0.000000e+00 2.622565e+01 2.373769e+01 0.000000e+00 2.373769e+01 5.817929e+00 0.000000e+00 0.000000e+00 0.000000e+00 0.000000e+00 2.329461e+01 2.215446e+01 0.000000e+00 2.215446e+01 3.193025e+00 0.000000e+00 0.000000e+00 0.000000e+00 0.000000e+00 2.151521e+01 2.738380e+01 0.000000e+00 2.738380e+01 1.812651e+00 0.000000e+00 0.000000e+00 0.000000e+00 0.000000e+00 2.456402e+00 3.255966e+00 0.000000e+00 3.255966e+00 -2.595692e+00 0.000000e+00 0.000000e+00 0.000000e+00 0.000000e+00 1.201641e+02 6.403707e+01 0.000000e+00 6.403707e+01 5.035814e+01 0.000000e+00 0.000000e+00 0.000000e+00 0.000000e+00 8.265208e+01 4.233717e+01 0.000000e+00 4.233717e+01 1.841412e+01 0.000000e+00 0.000000e+00 0.000000e+00 0.000000e+00 4.154132e+01 -5.094373e+01 0.000000e+00 -5.094373e+01 8.374460e+01 0.000000e+00 0.000000e+00 0.000000e+00 0.000000e+00 -3.244025e+00 1.779418e+01 0.000000e+00 1.779418e+01 -8.342048e+00 0.000000e+00 0.000000e+00 0.000000e+00 0.000000e+00 -6.891667e+00 3.408374e+01 0.000000e+00 3.408374e+01 2.049094e+00 0.000000e+00 0.000000e+00 0.000000e+00 0.000000e+00 1.544809e+01 3.242332e+01 0.000000e+00 3.242332e+01 1.265558e+00 0.000000e+00 0.000000e+00 0.000000e+00 0.000000e+00 2.516286e+00 -4.317301e+00 0.000000e+00 -4.317301e+00 4.193092e+00 0.000000e+00 0.000000e+00 0.000000e+00 0.000000e+00 -1.754981e+00 -4.213111e+01 0.000000e+00 -4.213111e+01 -3.707793e+01 0.000000e+00 0.000000e+00 0.000000e+00 0.000000e+00 4.143906e-01 -3.511995e+01 0.000000e+00 -3.511995e+01 -7.114832e+01 0.000000e+00 0.000000e+00 0.000000e+00 0.000000e+00 -1.117307e+01 -3.656854e+01 0.000000e+00 -3.656854e+01 -9.572227e+00 0.000000e+00 0.000000e+00 0.000000e+00 0.000000e+00 -1.921802e+01 -4.134944e+01 0.000000e+00 -4.134944e+01 -7.384278e+00 0.000000e+00 0.000000e+00 0.000000e+00 0.000000e+00 -1.033172e+01 -3.915985e+01 0.000000e+00 -3.915985e+01 -2.267721e+01 0.000000e+00 0.000000e+00 0.000000e+00 0.000000e+00 2.642517e+01 3.009652e+01 0.000000e+00 3.009652e+01 8.581775e-01 0.000000e+00 0.000000e+00 0.000000e+00 0.000000e+00 2.411569e+01 3.234596e+01 0.000000e+00 3.234596e+01 6.918850e-01 0.000000e+00 0.000000e+00 0.000000e+00 0.000000e+00 3.678060e+00 3.319096e+01 0.000000e+00 3.319096e+01 1.812649e+00 0.000000e+00 0.000000e+00 0.000000e+00 0.000000e+00 8.855458e+00 3.565905e+01 0.000000e+00 3.565905e+01 3.340079e+00 0.000000e+00 0.000000e+00 0.000000e+00 0.000000e+00 -4.679959e-03 3.639586e+01 0.000000e+00 3.639586e+01 3.952698e+00 0.000000e+00 0.000000e+00 0.000000e+00 0.000000e+00 -1.393618e+01 3.500290e+01 0.000000e+00 3.500290e+01 9.929088e-01 0.000000e+00 0.000000e+00 0.000000e+00 0.000000e+00 -1.473899e+01 3.392620e+01 0.000000e+00 3.392620e+01 -1.816953e+00 0.000000e+00 0.000000e+00 0.000000e+00 0.000000e+00 -1.473352e+01 3.390773e+01 0.000000e+00 3.390773e+01 -1.830053e+00 0.000000e+00 0.000000e+00 0.000000e+00 0.000000e+00 -1.875991e+01 3.012121e+01 0.000000e+00 3.012121e+01 -7.125797e+00 0.000000e+00 0.000000e+00 0.000000e+00 0.000000e+00 -6.614144e+00 2.412905e+01 0.000000e+00 2.412905e+01 -6.424802e+00 0.000000e+00 0.000000e+00 0.000000e+00 0.000000e+00 -9.795688e-01 1.160792e+01 0.000000e+00 1.160792e+01 -9.967416e+00 0.000000e+00 0.000000e+00 0.000000e+00 0.000000e+00 7.322834e-02 6.012421e+00 0.000000e+00 6.012421e+00 -8.448902e+00 0.000000e+00 0.000000e+00 0.000000e+00 0.000000e+00 3.550471e+01 -4.995484e+01 0.000000e+00 -4.995484e+01 6.279120e+01 0.000000e+00 0.000000e+00 0.000000e+00 0.000000e+00 6.379511e-01 -2.513967e+01 0.000000e+00 -2.513967e+01 -9.323331e+01 0.000000e+00 0.000000e+00 0.000000e+00 0.000000e+00 -1.365546e+00 3.233611e+00 0.000000e+00 3.233611e+00 -1.363909e+00 0.000000e+00 0.000000e+00 0.000000e+00 0.000000e+00 7.911502e+00 -3.564321e+01 0.000000e+00 -3.564321e+01 -7.776404e+01 0.000000e+00 0.000000e+00 0.000000e+00 0.000000e+00 -3.826289e+01 -3.125892e+01 0.000000e+00 -3.125892e+01 2.243667e+01 0.000000e+00 0.000000e+00 0.000000e+00 0.000000e+00 -3.673282e+01 -2.679614e+01 0.000000e+00 -2.679614e+01 1.561567e+01 0.000000e+00 0.000000e+00 0.000000e+00 0.000000e+00 -2.725776e+01 -3.950569e+01 0.000000e+00 -3.950569e+01 6.250452e+00 0.000000e+00 0.000000e+00 0.000000e+00 0.000000e+00 6.383924e+00 -4.212097e+00 0.000000e+00 -4.212097e+00 -1.299792e+02 0.000000e+00 0.000000e+00 0.000000e+00 0.000000e+00 5.903931e+00 -7.688455e+00 0.000000e+00 -7.688455e+00 -1.257676e+02 0.000000e+00 0.000000e+00 0.000000e+00 0.000000e+00 9.819669e+01 -1.872811e+01 0.000000e+00 -1.872811e+01 2.679923e+01 0.000000e+00 0.000000e+00 0.000000e+00 0.000000e+00 4.218161e+01 -1.139482e+01 0.000000e+00 -1.139482e+01 -4.601766e+01 0.000000e+00 0.000000e+00 0.000000e+00 0.000000e+00 4.020822e+01 -9.570017e+00 0.000000e+00 -9.570017e+00 -4.371274e+01 0.000000e+00 0.000000e+00 0.000000e+00 0.000000e+00 2.542910e+01 -9.415404e+00 0.000000e+00 -9.415404e+00 -7.559298e+01 0.000000e+00 0.000000e+00 0.000000e+00 0.000000e+00 2.364239e+01 -7.287717e+00 0.000000e+00 -7.287717e+00 -7.267732e+01 0.000000e+00 0.000000e+00 0.000000e+00 0.000000e+00 5.746156e+01 -1.265936e+01 0.000000e+00 -1.265936e+01 -2.275338e+01 0.000000e+00 0.000000e+00 0.000000e+00 0.000000e+00 1.253229e+02 -2.380611e+01 0.000000e+00 -2.380611e+01 6.017940e+01 0.000000e+00 0.000000e+00 0.000000e+00 0.000000e+00 1.247519e+02 -1.999194e+01 0.000000e+00 -1.999194e+01 6.263533e+01 0.000000e+00 0.000000e+00 0.000000e+00 0.000000e+00 1.600122e+02 -2.884034e+01 0.000000e+00 -2.884034e+01 9.604165e+01 0.000000e+00 0.000000e+00 0.000000e+00 0.000000e+00 1.479233e+02 -2.736167e+01 0.000000e+00 -2.736167e+01 1.016880e+02 0.000000e+00 0.000000e+00 0.000000e+00 0.000000e+00 -3.425592e+01 1.950415e+01 0.000000e+00 1.950415e+01 9.204158e+00 0.000000e+00 0.000000e+00 0.000000e+00 0.000000e+00 2.352586e+02 -6.981808e+01 0.000000e+00 -6.981808e+01 3.021910e+02 0.000000e+00 0.000000e+00 0.000000e+00 0.000000e+00 1.634011e+02 -4.202906e+01 0.000000e+00 -4.202906e+01 3.337275e+02 0.000000e+00 0.000000e+00 0.000000e+00 0.000000e+00 3.852223e+01 1.574868e+01 0.000000e+00 1.574868e+01 5.577932e+00 0.000000e+00 0.000000e+00 0.000000e+00 0.000000e+00 1.902246e+02 -4.319540e+01 0.000000e+00 -4.319540e+01 1.480162e+02 0.000000e+00 0.000000e+00 0.000000e+00 0.000000e+00 7.957492e+01 -1.533662e+01 0.000000e+00 -1.533662e+01 6.159053e+00 0.000000e+00 0.000000e+00 0.000000e+00 0.000000e+00 1.185271e+02 -2.198363e+01 0.000000e+00 -2.198363e+01 5.129044e+01 0.000000e+00 0.000000e+00 0.000000e+00 0.000000e+00 1.144517e+02 -1.937832e+01 0.000000e+00 -1.937832e+01 5.322900e+01 0.000000e+00 0.000000e+00 0.000000e+00 0.000000e+00 3.230816e+01 2.018534e+01 0.000000e+00 2.018534e+01 6.071895e+00 0.000000e+00 0.000000e+00 0.000000e+00 0.000000e+00 5.211259e+01 -1.217154e+01 0.000000e+00 -1.217154e+01 -2.893875e+01 0.000000e+00 0.000000e+00 0.000000e+00 0.000000e+00 5.251235e+01 -1.021237e+01 0.000000e+00 -1.021237e+01 -2.588050e+01 0.000000e+00 0.000000e+00 0.000000e+00 0.000000e+00 2.234744e+02 -4.470622e+01 0.000000e+00 -4.470622e+01 1.755730e+02 0.000000e+00 0.000000e+00 0.000000e+00 0.000000e+00 5.612482e+01 2.038565e+01 0.000000e+00 2.038565e+01 7.766025e-01 0.000000e+00 0.000000e+00 0.000000e+00 0.000000e+00 -5.514654e+01 6.988820e-01 0.000000e+00 6.988820e-01 1.017218e+01 0.000000e+00 0.000000e+00 0.000000e+00 0.000000e+00 1.491129e+00 9.278579e+00 0.000000e+00 9.278579e+00 3.480153e+00 0.000000e+00 0.000000e+00 0.000000e+00 0.000000e+00 8.418773e+00 -4.381003e+00 0.000000e+00 -4.381003e+00 -1.218564e+02 0.000000e+00 0.000000e+00 0.000000e+00 0.000000e+00 8.463409e+00 -7.750902e+00 0.000000e+00 -7.750902e+00 -1.176867e+02 0.000000e+00 0.000000e+00 0.000000e+00 0.000000e+00 1.178984e+02 9.010845e+01 0.000000e+00 9.010845e+01 1.182256e+02 0.000000e+00 0.000000e+00 0.000000e+00 0.000000e+00 1.577586e+02 -3.074499e+01 0.000000e+00 -3.074499e+01 1.170039e+02 0.000000e+00 0.000000e+00 0.000000e+00 0.000000e+00 1.790129e+02 -3.869175e+01 0.000000e+00 -3.869175e+01 1.289968e+02 0.000000e+00 0.000000e+00 0.000000e+00 0.000000e+00 -2.934335e+01 2.621108e+01 0.000000e+00 2.621108e+01 5.095046e+00 0.000000e+00 0.000000e+00 0.000000e+00 0.000000e+00 -5.698553e+00 -3.912136e+01 0.000000e+00 -3.912136e+01 -4.384043e+01 0.000000e+00 0.000000e+00 0.000000e+00 0.000000e+00 -1.642225e+00 1.368879e+00 0.000000e+00 1.368879e+00 -7.580279e-01 0.000000e+00 0.000000e+00 0.000000e+00 0.000000e+00 1.034150e+01 -5.557428e+00 0.000000e+00 -5.557428e+00 -1.061851e+02 0.000000e+00 0.000000e+00 0.000000e+00 0.000000e+00 1.327248e+01 -9.076734e+00 0.000000e+00 -9.076734e+00 -1.024156e+02 0.000000e+00 0.000000e+00 0.000000e+00 0.000000e+00 1.112487e+02 -2.039834e+01 0.000000e+00 -2.039834e+01 4.256801e+01 0.000000e+00 0.000000e+00 0.000000e+00 0.000000e+00 1.100979e+02 -1.802325e+01 0.000000e+00 -1.802325e+01 4.509593e+01 0.000000e+00 0.000000e+00 0.000000e+00 0.000000e+00 -1.873396e+00 1.005821e+00 0.000000e+00 1.005821e+00 -6.822403e+00 0.000000e+00 0.000000e+00 0.000000e+00 0.000000e+00 2.380466e+01 2.987474e+01 0.000000e+00 2.987474e+01 1.610472e+00 0.000000e+00 0.000000e+00 0.000000e+00 0.000000e+00 1.370537e+02 -2.224440e+01 0.000000e+00 -2.224440e+01 7.797849e+01 0.000000e+00 0.000000e+00 0.000000e+00 0.000000e+00 1.401261e+02 -2.190032e+01 0.000000e+00 -2.190032e+01 7.343804e+01 0.000000e+00 0.000000e+00 0.000000e+00 0.000000e+00 1.536005e+02 -2.269656e+01 0.000000e+00 -2.269656e+01 8.296281e+01 0.000000e+00 0.000000e+00 0.000000e+00 0.000000e+00 -2.162560e+00 -1.385717e-01 0.000000e+00 -1.385717e-01 -2.325936e+00 0.000000e+00 0.000000e+00 0.000000e+00 0.000000e+00 2.936109e+01 2.571133e+01 0.000000e+00 2.571133e+01 4.199580e+00 0.000000e+00 0.000000e+00 0.000000e+00 0.000000e+00 2.622882e+01 2.374206e+01 0.000000e+00 2.374206e+01 1.290250e+00 0.000000e+00 0.000000e+00 0.000000e+00 0.000000e+00 2.487961e+01 2.808479e+01 0.000000e+00 2.808479e+01 9.440255e-01 0.000000e+00 0.000000e+00 0.000000e+00 0.000000e+00 1.090854e+02 9.428667e+01 0.000000e+00 9.428667e+01 1.155350e+02 0.000000e+00 0.000000e+00 0.000000e+00 0.000000e+00 -4.151960e+01 2.543056e+01 0.000000e+00 2.543056e+01 7.022592e+00 0.000000e+00 0.000000e+00 0.000000e+00 0.000000e+00 6.599814e+01 -1.444525e+01 0.000000e+00 -1.444525e+01 -1.171002e+01 0.000000e+00 0.000000e+00 0.000000e+00 0.000000e+00 6.497178e+01 -1.243290e+01 0.000000e+00 -1.243290e+01 -9.377509e+00 0.000000e+00 0.000000e+00 0.000000e+00 0.000000e+00 1.044937e+02 -1.953679e+01 0.000000e+00 -1.953679e+01 3.415398e+01 0.000000e+00 0.000000e+00 0.000000e+00 0.000000e+00 9.824565e+01 -1.625082e+01 0.000000e+00 -1.625082e+01 2.959080e+01 0.000000e+00 0.000000e+00 0.000000e+00 0.000000e+00 1.053181e+02 -1.673325e+01 0.000000e+00 -1.673325e+01 3.741181e+01 0.000000e+00 0.000000e+00 0.000000e+00 0.000000e+00 -8.064627e+00 3.606856e+01 0.000000e+00 3.606856e+01 2.321449e+00 0.000000e+00 0.000000e+00 0.000000e+00 0.000000e+00 -1.499562e+01 3.356485e+01 0.000000e+00 3.356485e+01 3.834351e+00 0.000000e+00 0.000000e+00 0.000000e+00 0.000000e+00 2.144991e+01 -6.477926e+00 0.000000e+00 -6.477926e+00 -8.585991e+01 0.000000e+00 0.000000e+00 0.000000e+00 0.000000e+00 2.121178e+01 -8.684123e+00 0.000000e+00 -8.684123e+00 -8.252902e+01 0.000000e+00 0.000000e+00 0.000000e+00 0.000000e+00 3.995382e+00 -7.694997e+00 0.000000e+00 -7.694997e+00 -1.438278e+02 0.000000e+00 0.000000e+00 0.000000e+00 0.000000e+00 3.405110e+01 -9.991196e+00 0.000000e+00 -9.991196e+00 -5.733547e+01 0.000000e+00 0.000000e+00 0.000000e+00 0.000000e+00 1.521718e+01 -9.310681e+00 0.000000e+00 -9.310681e+00 -9.499374e+01 0.000000e+00 0.000000e+00 0.000000e+00 0.000000e+00 1.917154e+01 -6.715963e+00 0.000000e+00 -6.715963e+00 -9.193256e+01 0.000000e+00 0.000000e+00 0.000000e+00 0.000000e+00 2.491867e+00 -1.091564e+01 0.000000e+00 -1.091564e+01 -1.857696e+02 0.000000e+00 0.000000e+00 0.000000e+00 0.000000e+00 -1.160736e+01 2.094250e+01 0.000000e+00 2.094250e+01 -1.328019e+01 0.000000e+00 0.000000e+00 0.000000e+00 0.000000e+00 -1.697669e+01 2.656554e+01 0.000000e+00 2.656554e+01 -1.063135e+01 0.000000e+00 0.000000e+00 0.000000e+00 0.000000e+00 1.689833e+01 3.345675e+01 0.000000e+00 3.345675e+01 1.843148e+00 0.000000e+00 0.000000e+00 0.000000e+00 0.000000e+00 -1.961905e+00 2.013240e+00 0.000000e+00 2.013240e+00 -6.244557e+00 0.000000e+00 0.000000e+00 0.000000e+00 0.000000e+00 -4.058955e-01 3.563516e+00 0.000000e+00 3.563516e+00 -2.043017e+00 0.000000e+00 0.000000e+00 0.000000e+00 0.000000e+00 -4.611307e+01 -5.550313e+00 0.000000e+00 -5.550313e+00 3.009520e+01 0.000000e+00 0.000000e+00 0.000000e+00 0.000000e+00 -3.874662e+01 7.623793e+00 0.000000e+00 7.623793e+00 1.625725e+01 0.000000e+00 0.000000e+00 0.000000e+00 0.000000e+00 -4.040873e+01 -9.573258e+00 0.000000e+00 -9.573258e+00 1.850680e+01 0.000000e+00 0.000000e+00 0.000000e+00 0.000000e+00 8.148284e+00 -4.895825e+00 0.000000e+00 -4.895825e+00 -1.134444e+02 0.000000e+00 0.000000e+00 0.000000e+00 0.000000e+00 8.319587e+01 -1.286314e+01 0.000000e+00 -1.286314e+01 9.150527e+00 0.000000e+00 0.000000e+00 0.000000e+00 0.000000e+00 8.718730e+01 -1.576386e+01 0.000000e+00 -1.576386e+01 1.328108e+01 0.000000e+00 0.000000e+00 0.000000e+00 0.000000e+00 1.887247e+02 -4.703676e+01 0.000000e+00 -4.703676e+01 1.938653e+02 0.000000e+00 0.000000e+00 0.000000e+00 0.000000e+00 2.322493e+02 -5.761999e+01 0.000000e+00 -5.761999e+01 2.115159e+02 0.000000e+00 0.000000e+00 0.000000e+00 0.000000e+00 1.059904e+02 8.278310e+01 0.000000e+00 8.278310e+01 8.389260e+01 0.000000e+00 0.000000e+00 0.000000e+00 0.000000e+00 7.982765e+01 5.678834e+01 0.000000e+00 5.678834e+01 6.065356e+01 0.000000e+00 0.000000e+00 0.000000e+00 0.000000e+00 5.330181e+00 -3.810440e+00 0.000000e+00 -3.810440e+00 -1.379555e+02 0.000000e+00 0.000000e+00 0.000000e+00 0.000000e+00 6.764577e+00 -6.605641e+00 0.000000e+00 -6.605641e+00 -1.782736e+02 0.000000e+00 0.000000e+00 0.000000e+00 0.000000e+00 -2.370602e+00 -1.181541e+01 0.000000e+00 -1.181541e+01 -1.736181e+02 0.000000e+00 0.000000e+00 0.000000e+00 0.000000e+00 -2.169598e+00 2.243118e+00 0.000000e+00 2.243118e+00 -2.069564e+00 0.000000e+00 0.000000e+00 0.000000e+00 0.000000e+00 -1.011573e+01 1.454455e+01 0.000000e+00 1.454455e+01 -9.308176e+00 0.000000e+00 0.000000e+00 0.000000e+00 0.000000e+00 2.999957e+01 -9.917429e+00 0.000000e+00 -9.917429e+00 -6.365920e+01 0.000000e+00 0.000000e+00 0.000000e+00 0.000000e+00 -1.868588e+01 2.957034e+01 0.000000e+00 2.957034e+01 -5.652107e-01 0.000000e+00 0.000000e+00 0.000000e+00 0.000000e+00 -9.564231e+00 -4.034399e+01 0.000000e+00 -4.034399e+01 -2.338072e+01 0.000000e+00 0.000000e+00 0.000000e+00 0.000000e+00 1.524788e+00 -8.230905e+00 0.000000e+00 -8.230905e+00 -1.532298e+02 0.000000e+00 0.000000e+00 0.000000e+00 0.000000e+00 3.390261e+00 -4.245861e+00 0.000000e+00 -4.245861e+00 -1.461390e+02 0.000000e+00 0.000000e+00 0.000000e+00 0.000000e+00 -2.851167e+00 8.214655e+00 0.000000e+00 8.214655e+00 -1.401983e+01 0.000000e+00 0.000000e+00 0.000000e+00 0.000000e+00 -1.285039e+00 1.530352e+00 0.000000e+00 1.530352e+00 -6.213440e+00 0.000000e+00 0.000000e+00 0.000000e+00 0.000000e+00 1.081809e+01 -2.526220e+01 0.000000e+00 -2.526220e+01 -1.117965e+02 0.000000e+00 0.000000e+00 0.000000e+00 0.000000e+00 -1.865014e+00 -9.724654e+00 0.000000e+00 -9.724654e+00 -1.613652e+02 0.000000e+00 0.000000e+00 0.000000e+00 0.000000e+00 5.056395e+00 -6.403027e+00 0.000000e+00 -6.403027e+00 -1.673754e+02 0.000000e+00 0.000000e+00 0.000000e+00 0.000000e+00 4.461138e+00 -5.796773e+00 0.000000e+00 -5.796773e+00 -1.557753e+02 0.000000e+00 0.000000e+00 0.000000e+00 0.000000e+00 3.128104e+01 -8.129151e+00 0.000000e+00 -8.129151e+00 -6.666262e+01 0.000000e+00 0.000000e+00 0.000000e+00 0.000000e+00 7.221755e+01 -1.281433e+01 0.000000e+00 -1.281433e+01 -2.812698e+00 0.000000e+00 0.000000e+00 0.000000e+00 0.000000e+00 7.466689e+01 -1.546574e+01 0.000000e+00 -1.546574e+01 7.655445e-01 0.000000e+00 0.000000e+00 0.000000e+00 0.000000e+00 4.603094e+01 -9.802886e+00 0.000000e+00 -9.802886e+00 -3.742551e+01 0.000000e+00 0.000000e+00 0.000000e+00 0.000000e+00 4.761214e+01 -1.238467e+01 0.000000e+00 -1.238467e+01 -3.405239e+01 0.000000e+00 0.000000e+00 0.000000e+00 0.000000e+00 3.087835e+01 -7.553837e+00 0.000000e+00 -7.553837e+00 -6.064207e+01 0.000000e+00 0.000000e+00 0.000000e+00 0.000000e+00 -7.447013e+00 1.741496e+01 0.000000e+00 1.741496e+01 -3.471779e+00 0.000000e+00 0.000000e+00 0.000000e+00 0.000000e+00 -2.309832e+01 2.841611e+01 0.000000e+00 2.841611e+01 -2.277715e+00 0.000000e+00 0.000000e+00 0.000000e+00 0.000000e+00 -2.156079e+01 3.335968e+01 0.000000e+00 3.335968e+01 2.126661e+00 0.000000e+00 0.000000e+00 0.000000e+00 0.000000e+00 -3.300709e+01 2.878135e+01 0.000000e+00 2.878135e+01 3.021818e+00 0.000000e+00 0.000000e+00 0.000000e+00 0.000000e+00 6.633552e+00 -1.772909e+01 0.000000e+00 -1.772909e+01 -1.150197e+02 0.000000e+00 0.000000e+00 0.000000e+00 0.000000e+00 -2.979612e+00 4.404647e-01 0.000000e+00 4.404647e-01 -1.687278e+00 0.000000e+00 0.000000e+00 0.000000e+00 0.000000e+00 2.577619e+00 -3.432186e+01 0.000000e+00 -3.432186e+01 -6.920998e+01 0.000000e+00 0.000000e+00 0.000000e+00 0.000000e+00 1.282427e+01 -3.369594e+01 0.000000e+00 -3.369594e+01 -8.672453e+01 0.000000e+00 0.000000e+00 0.000000e+00 0.000000e+00 5.880877e+00 -1.539674e+01 0.000000e+00 -1.539674e+01 -1.285554e+02 0.000000e+00 0.000000e+00 0.000000e+00 0.000000e+00 -2.158569e+00 1.242678e+00 0.000000e+00 1.242678e+00 -4.275951e+00 0.000000e+00 0.000000e+00 0.000000e+00 0.000000e+00 7.002599e+00 -2.233614e+01 0.000000e+00 -2.233614e+01 -1.342523e+02 0.000000e+00 0.000000e+00 0.000000e+00 0.000000e+00 6.879258e+00 -1.254402e+01 0.000000e+00 -1.254402e+01 -1.422686e+02 0.000000e+00 0.000000e+00 0.000000e+00 0.000000e+00 -4.787975e+00 -1.646485e+01 0.000000e+00 -1.646485e+01 -1.255839e+02 0.000000e+00 0.000000e+00 0.000000e+00 0.000000e+00 -2.963540e+01 8.137826e+00 0.000000e+00 8.137826e+00 -1.642648e+02 0.000000e+00 0.000000e+00 0.000000e+00 0.000000e+00 2.533810e+00 -8.640364e+00 0.000000e+00 -8.640364e+00 -1.431794e+02 0.000000e+00 0.000000e+00 0.000000e+00 0.000000e+00 2.114526e+00 -1.081672e+01 0.000000e+00 -1.081672e+01 -1.304888e+02 0.000000e+00 0.000000e+00 0.000000e+00 0.000000e+00 6.123054e+00 -1.018317e+01 0.000000e+00 -1.018317e+01 -1.449903e+02 0.000000e+00 0.000000e+00 0.000000e+00 0.000000e+00 9.165551e+00 -1.533123e+01 0.000000e+00 -1.533123e+01 -1.279337e+02 0.000000e+00 0.000000e+00 0.000000e+00 0.000000e+00 -9.592475e-01 -6.466110e+00 0.000000e+00 -6.466110e+00 -1.378101e+02 0.000000e+00 0.000000e+00 0.000000e+00 0.000000e+00 -7.292602e+00 -1.292144e+00 0.000000e+00 -1.292144e+00 -1.501883e+02 0.000000e+00 0.000000e+00 0.000000e+00 0.000000e+00 3.386917e+00 -8.805477e+00 0.000000e+00 -8.805477e+00 -1.431759e+02 0.000000e+00 0.000000e+00 0.000000e+00 0.000000e+00 2.742932e+00 2.807268e+00 0.000000e+00 2.807268e+00 -1.768491e+02 0.000000e+00 0.000000e+00 0.000000e+00 0.000000e+00 1.041309e+01 -2.223557e+01 0.000000e+00 -2.223557e+01 -1.194448e+02 0.000000e+00 0.000000e+00 0.000000e+00 0.000000e+00 3.016065e+00 -2.149994e+01 0.000000e+00 -2.149994e+01 -1.054101e+02 0.000000e+00 0.000000e+00 0.000000e+00 0.000000e+00 5.117628e-01 -1.623793e+01 0.000000e+00 -1.623793e+01 -1.146929e+02 0.000000e+00 0.000000e+00 0.000000e+00 0.000000e+00 8.257389e+00 -4.067043e+00 0.000000e+00 -4.067043e+00 -1.545255e+02 0.000000e+00 0.000000e+00 0.000000e+00 0.000000e+00 6.904569e+00 -6.522647e+00 0.000000e+00 -6.522647e+00 -1.547234e+02 0.000000e+00 0.000000e+00 0.000000e+00 0.000000e+00 3.800409e+01 -1.047830e+01 0.000000e+00 -1.047830e+01 -5.149684e+01 0.000000e+00 0.000000e+00 0.000000e+00 0.000000e+00 3.567940e+01 -7.917947e+00 0.000000e+00 -7.917947e+00 -5.478651e+01 0.000000e+00 0.000000e+00 0.000000e+00 0.000000e+00 3.598833e+01 -9.138030e+00 0.000000e+00 -9.138030e+00 -4.904123e+01 0.000000e+00 0.000000e+00 0.000000e+00 0.000000e+00 6.206899e+01 -1.359819e+01 0.000000e+00 -1.359819e+01 -1.732347e+01 0.000000e+00 0.000000e+00 0.000000e+00 0.000000e+00 5.664430e+01 -1.126396e+01 0.000000e+00 -1.126396e+01 -2.051250e+01 0.000000e+00 0.000000e+00 0.000000e+00 0.000000e+00 6.033417e+01 -1.191966e+01 0.000000e+00 -1.191966e+01 -1.503614e+01 0.000000e+00 0.000000e+00 0.000000e+00 0.000000e+00 3.112931e+00 -3.358092e+00 0.000000e+00 -3.358092e+00 -3.662101e-01 0.000000e+00 0.000000e+00 0.000000e+00 0.000000e+00 -2.960222e+01 2.021068e+01 0.000000e+00 2.021068e+01 2.643427e+01 0.000000e+00 0.000000e+00 0.000000e+00 0.000000e+00 3.338500e+01 -1.344951e+01 0.000000e+00 -1.344951e+01 -6.011772e+01 0.000000e+00 0.000000e+00 0.000000e+00 0.000000e+00 2.115838e+00 -3.927191e+01 0.000000e+00 -3.927191e+01 -5.457460e+01 0.000000e+00 0.000000e+00 0.000000e+00 0.000000e+00 9.318774e+01 -1.728894e+01 0.000000e+00 -1.728894e+01 1.964199e+01 0.000000e+00 0.000000e+00 0.000000e+00 0.000000e+00 8.307960e+01 -1.450212e+01 0.000000e+00 -1.450212e+01 1.524942e+01 0.000000e+00 0.000000e+00 0.000000e+00 0.000000e+00 8.904590e+01 -1.534770e+01 0.000000e+00 -1.534770e+01 2.182763e+01 0.000000e+00 0.000000e+00 0.000000e+00 0.000000e+00 1.849996e+02 -3.621774e+01 0.000000e+00 -3.621774e+01 1.524300e+02 0.000000e+00 0.000000e+00 0.000000e+00 0.000000e+00 2.393133e+02 -6.680321e+01 0.000000e+00 -6.680321e+01 2.516354e+02 0.000000e+00 0.000000e+00 0.000000e+00 0.000000e+00 1.863646e+02 -5.246064e+01 0.000000e+00 -5.246064e+01 2.284468e+02 0.000000e+00 0.000000e+00 0.000000e+00 0.000000e+00 1.819323e+02 -5.345039e+01 0.000000e+00 -5.345039e+01 2.764287e+02 0.000000e+00 0.000000e+00 0.000000e+00 0.000000e+00 3.285149e+01 1.882971e+01 0.000000e+00 1.882971e+01 2.816210e-01 0.000000e+00 0.000000e+00 0.000000e+00 0.000000e+00 3.663706e+01 2.180359e+01 0.000000e+00 2.180359e+01 3.968180e+00 0.000000e+00 0.000000e+00 0.000000e+00 0.000000e+00 8.624547e+00 -4.704722e+01 0.000000e+00 -4.704722e+01 -5.064593e+01 0.000000e+00 0.000000e+00 0.000000e+00 0.000000e+00 -6.766461e-02 -3.144741e+00 0.000000e+00 -3.144741e+00 2.320497e+00 0.000000e+00 0.000000e+00 0.000000e+00 0.000000e+00 7.749985e+01 -1.333233e+01 0.000000e+00 -1.333233e+01 3.493440e+00 0.000000e+00 0.000000e+00 0.000000e+00 0.000000e+00 6.691543e+00 -6.178451e+00 0.000000e+00 -6.178451e+00 -1.733498e+02 0.000000e+00 0.000000e+00 0.000000e+00 0.000000e+00 5.865773e+01 2.923175e+01 0.000000e+00 2.923175e+01 7.746802e+00 0.000000e+00 0.000000e+00 0.000000e+00 0.000000e+00 -1.243947e+01 2.350894e+01 0.000000e+00 2.350894e+01 -1.473909e+00 0.000000e+00 0.000000e+00 0.000000e+00 0.000000e+00 1.102803e+02 1.529335e+01 0.000000e+00 1.529335e+01 2.995793e+02 0.000000e+00 0.000000e+00 0.000000e+00 0.000000e+00 -2.624570e+01 2.841089e+01 0.000000e+00 2.841089e+01 1.804500e+00 0.000000e+00 0.000000e+00 0.000000e+00 0.000000e+00 -2.772147e+01 2.718945e+01 0.000000e+00 2.718945e+01 1.287096e+01 0.000000e+00 0.000000e+00 0.000000e+00 0.000000e+00 1.667163e+02 -3.403903e+01 0.000000e+00 -3.403903e+01 1.338194e+02 0.000000e+00 0.000000e+00 0.000000e+00 0.000000e+00 2.078032e+00 -5.026042e+01 0.000000e+00 -5.026042e+01 -2.969705e+01 0.000000e+00 0.000000e+00 0.000000e+00 0.000000e+00 1.751159e+02 -5.586636e+01 0.000000e+00 -5.586636e+01 1.661555e+02 0.000000e+00 0.000000e+00 0.000000e+00 0.000000e+00 1.065767e+02 8.473563e+01 0.000000e+00 8.473563e+01 2.648419e+02 0.000000e+00 0.000000e+00 0.000000e+00 0.000000e+00 2.705153e+01 3.004074e+01 0.000000e+00 3.004074e+01 9.169564e-02 0.000000e+00 0.000000e+00 0.000000e+00 0.000000e+00 5.619937e+00 -9.661823e+00 0.000000e+00 -9.661823e+00 -1.278697e+02 0.000000e+00 0.000000e+00 0.000000e+00 0.000000e+00 1.987835e+02 1.694929e+02 0.000000e+00 1.694929e+02 2.672241e+02 0.000000e+00 0.000000e+00 0.000000e+00 0.000000e+00 1.094479e+01 -1.588379e+01 0.000000e+00 -1.588379e+01 -1.273406e+02 0.000000e+00 0.000000e+00 0.000000e+00 0.000000e+00 6.970796e+00 -6.623677e-01 0.000000e+00 -6.623677e-01 -1.475371e+02 0.000000e+00 0.000000e+00 0.000000e+00 0.000000e+00 1.107209e+01 -6.360734e+00 0.000000e+00 -6.360734e+00 -1.804862e+02 0.000000e+00 0.000000e+00 0.000000e+00 0.000000e+00 9.130903e+01 5.662268e+01 0.000000e+00 5.662268e+01 4.710061e+01 0.000000e+00 0.000000e+00 0.000000e+00 0.000000e+00 9.323571e+01 7.821177e+01 0.000000e+00 7.821177e+01 1.933662e+02 0.000000e+00 0.000000e+00 0.000000e+00 0.000000e+00 -4.241580e+00 8.097491e+00 0.000000e+00 8.097491e+00 -9.023012e+00 0.000000e+00 0.000000e+00 0.000000e+00 0.000000e+00 8.841690e+00 -1.131206e+01 0.000000e+00 -1.131206e+01 -1.337355e+02 0.000000e+00 0.000000e+00 0.000000e+00 0.000000e+00 -2.575353e+00 3.572711e+00 0.000000e+00 3.572711e+00 -1.175432e+01 0.000000e+00 0.000000e+00 0.000000e+00 0.000000e+00 2.328690e+00 -1.145256e+01 0.000000e+00 -1.145256e+01 -1.216943e+02 0.000000e+00 0.000000e+00 0.000000e+00 0.000000e+00 2.515493e+01 -1.176530e+01 0.000000e+00 -1.176530e+01 -6.319991e+01 0.000000e+00 0.000000e+00 0.000000e+00 0.000000e+00 -1.685562e+01 -4.540246e+01 0.000000e+00 -4.540246e+01 -3.472239e+00 0.000000e+00 0.000000e+00 0.000000e+00 0.000000e+00 -8.667961e+00 -4.809046e+01 0.000000e+00 -4.809046e+01 -1.544755e+01 0.000000e+00 0.000000e+00 0.000000e+00 0.000000e+00 8.134826e+00 -7.877972e+00 0.000000e+00 -7.877972e+00 -1.723802e+02 0.000000e+00 0.000000e+00 0.000000e+00 0.000000e+00 -3.911972e+00 1.167665e+01 0.000000e+00 1.167665e+01 -4.541888e+00 0.000000e+00 0.000000e+00 0.000000e+00 0.000000e+00 3.420104e+00 -9.311092e+00 0.000000e+00 -9.311092e+00 -1.265573e+02 0.000000e+00 0.000000e+00 0.000000e+00 0.000000e+00 1.070060e+02 6.997294e+01 0.000000e+00 6.997294e+01 2.311527e+02 0.000000e+00 0.000000e+00 0.000000e+00 0.000000e+00 1.129015e+02 4.051696e+01 0.000000e+00 4.051696e+01 3.397500e+02 0.000000e+00 0.000000e+00 0.000000e+00 0.000000e+00 -6.720265e+00 1.432273e+01 0.000000e+00 1.432273e+01 -1.453402e+01 0.000000e+00 0.000000e+00 0.000000e+00 0.000000e+00 2.201751e+01 3.199861e+01 0.000000e+00 3.199861e+01 2.763257e+00 0.000000e+00 0.000000e+00 0.000000e+00 0.000000e+00 1.215473e+01 -1.747895e+01 0.000000e+00 -1.747895e+01 -1.159661e+02 0.000000e+00 0.000000e+00 0.000000e+00 0.000000e+00 6.626632e+01 3.531081e+01 0.000000e+00 3.531081e+01 1.475998e+01 0.000000e+00 0.000000e+00 0.000000e+00 0.000000e+00 4.886996e+01 2.990465e+01 0.000000e+00 2.990465e+01 6.246885e+00 0.000000e+00 0.000000e+00 0.000000e+00 0.000000e+00 -1.265440e+00 -1.730103e+01 0.000000e+00 -1.730103e+01 -1.479180e+02 0.000000e+00 0.000000e+00 0.000000e+00 0.000000e+00 -1.545600e+01 3.386019e+01 0.000000e+00 3.386019e+01 2.672098e+00 0.000000e+00 0.000000e+00 0.000000e+00 0.000000e+00 5.893776e+01 -1.795734e+01 0.000000e+00 -1.795734e+01 -2.053995e+01 0.000000e+00 0.000000e+00 0.000000e+00 0.000000e+00 6.211516e+00 -4.944536e+00 0.000000e+00 -4.944536e+00 -1.354121e+02 0.000000e+00 0.000000e+00 0.000000e+00 0.000000e+00 2.093619e+01 -6.633524e+00 0.000000e+00 -6.633524e+00 -7.886904e+01 0.000000e+00 0.000000e+00 0.000000e+00 0.000000e+00 7.221556e+01 6.807773e+01 0.000000e+00 6.807773e+01 1.326429e+02 0.000000e+00 0.000000e+00 0.000000e+00 0.000000e+00 6.614241e+01 6.207417e+01 0.000000e+00 6.207417e+01 1.263318e+02 0.000000e+00 0.000000e+00 0.000000e+00 0.000000e+00 3.284485e+01 -1.152956e+01 0.000000e+00 -1.152956e+01 -5.691698e+01 0.000000e+00 0.000000e+00 0.000000e+00 0.000000e+00 3.407772e+01 -1.384769e+01 0.000000e+00 -1.384769e+01 -5.320032e+01 0.000000e+00 0.000000e+00 0.000000e+00 0.000000e+00 -2.019873e+01 2.051354e+01 0.000000e+00 2.051354e+01 2.360561e+01 0.000000e+00 0.000000e+00 0.000000e+00 0.000000e+00 1.510246e+02 -3.976375e+01 0.000000e+00 -3.976375e+01 1.029967e+02 0.000000e+00 0.000000e+00 0.000000e+00 0.000000e+00 1.999328e+02 -4.467219e+01 0.000000e+00 -4.467219e+01 1.685275e+02 0.000000e+00 0.000000e+00 0.000000e+00 0.000000e+00 9.821425e+01 7.074878e+01 0.000000e+00 7.074878e+01 2.610237e+02 0.000000e+00 0.000000e+00 0.000000e+00 0.000000e+00 8.331122e+01 4.607760e+01 0.000000e+00 4.607760e+01 2.364110e+02 0.000000e+00 0.000000e+00 0.000000e+00 0.000000e+00 7.587538e+01 6.281080e+01 0.000000e+00 6.281080e+01 1.785995e+02 0.000000e+00 0.000000e+00 0.000000e+00 0.000000e+00 1.201445e+02 -3.228441e+01 0.000000e+00 -3.228441e+01 5.977958e+01 0.000000e+00 0.000000e+00 0.000000e+00 0.000000e+00 9.634270e+01 -2.697523e+01 0.000000e+00 -2.697523e+01 3.177712e+01 0.000000e+00 0.000000e+00 0.000000e+00 0.000000e+00 1.487525e+02 -3.495943e+01 0.000000e+00 -3.495943e+01 2.921697e+02 0.000000e+00 0.000000e+00 0.000000e+00 0.000000e+00 1.187695e+02 -1.090098e+01 0.000000e+00 -1.090098e+01 3.301214e+02 0.000000e+00 0.000000e+00 0.000000e+00 0.000000e+00 4.481024e+01 -1.777662e+01 0.000000e+00 -1.777662e+01 -3.594539e+01 0.000000e+00 0.000000e+00 0.000000e+00 0.000000e+00 1.398743e+02 -2.518337e+01 0.000000e+00 -2.518337e+01 8.880560e+01 0.000000e+00 0.000000e+00 0.000000e+00 0.000000e+00 6.413638e+01 4.267002e+01 0.000000e+00 4.267002e+01 2.466967e+01 0.000000e+00 0.000000e+00 0.000000e+00 0.000000e+00 7.609549e+01 4.334262e+01 0.000000e+00 4.334262e+01 2.651044e+01 0.000000e+00 0.000000e+00 0.000000e+00 0.000000e+00 3.330107e+01 2.871450e+01 0.000000e+00 2.871450e+01 2.178822e+00 0.000000e+00 0.000000e+00 0.000000e+00 0.000000e+00 2.483929e+01 3.346346e+01 0.000000e+00 3.346346e+01 3.639111e+00 0.000000e+00 0.000000e+00 0.000000e+00 0.000000e+00 5.459685e+01 -1.641768e+01 0.000000e+00 -1.641768e+01 -2.694972e+01 0.000000e+00 0.000000e+00 0.000000e+00 0.000000e+00 5.273123e+01 -1.518243e+01 0.000000e+00 -1.518243e+01 -2.385754e+01 0.000000e+00 0.000000e+00 0.000000e+00 0.000000e+00 2.395868e+02 1.383588e+02 0.000000e+00 1.383588e+02 4.074436e+02 0.000000e+00 0.000000e+00 0.000000e+00 0.000000e+00 8.877051e+01 6.731593e+01 0.000000e+00 6.731593e+01 7.692799e+01 0.000000e+00 0.000000e+00 0.000000e+00 0.000000e+00 6.205283e+01 5.081109e+01 0.000000e+00 5.081109e+01 5.513359e+01 0.000000e+00 0.000000e+00 0.000000e+00 0.000000e+00 4.652714e+01 2.121176e+01 0.000000e+00 2.121176e+01 1.365666e+00 0.000000e+00 0.000000e+00 0.000000e+00 0.000000e+00 -1.046786e+01 -4.618101e+01 0.000000e+00 -4.618101e+01 -1.818551e+01 0.000000e+00 0.000000e+00 0.000000e+00 0.000000e+00 1.588009e+02 -4.532080e+01 0.000000e+00 -4.532080e+01 1.736604e+02 0.000000e+00 0.000000e+00 0.000000e+00 0.000000e+00 1.931812e+02 -5.800954e+01 0.000000e+00 -5.800954e+01 1.929565e+02 0.000000e+00 0.000000e+00 0.000000e+00 0.000000e+00 -2.623584e+01 3.098252e+01 0.000000e+00 3.098252e+01 5.750463e+00 0.000000e+00 0.000000e+00 0.000000e+00 0.000000e+00 5.217754e+01 2.470962e+01 0.000000e+00 2.470962e+01 3.156899e+00 0.000000e+00 0.000000e+00 0.000000e+00 0.000000e+00 4.066609e-01 2.959632e+00 0.000000e+00 2.959632e+00 -3.156990e+00 0.000000e+00 0.000000e+00 0.000000e+00 0.000000e+00 -1.448843e+01 3.029301e+01 0.000000e+00 3.029301e+01 1.367589e+01 0.000000e+00 0.000000e+00 0.000000e+00 0.000000e+00 1.134886e+01 -9.311515e+00 0.000000e+00 -9.311515e+00 -1.170617e+02 0.000000e+00 0.000000e+00 0.000000e+00 0.000000e+00 -1.484967e+01 3.421316e+01 0.000000e+00 3.421316e+01 7.606778e+00 0.000000e+00 0.000000e+00 0.000000e+00 0.000000e+00 1.669118e+02 -5.133830e+01 0.000000e+00 -5.133830e+01 1.430267e+02 0.000000e+00 0.000000e+00 0.000000e+00 0.000000e+00 1.467834e+02 -4.486085e+01 0.000000e+00 -4.486085e+01 1.491433e+02 0.000000e+00 0.000000e+00 0.000000e+00 0.000000e+00 -2.596367e+00 -4.582482e+01 0.000000e+00 -4.582482e+01 -3.235284e+01 0.000000e+00 0.000000e+00 0.000000e+00 0.000000e+00 6.440565e+00 -9.240224e+00 0.000000e+00 -9.240224e+00 -1.185147e+02 0.000000e+00 0.000000e+00 0.000000e+00 0.000000e+00 1.465342e+01 -5.834471e+00 0.000000e+00 -5.834471e+00 -9.883345e+01 0.000000e+00 0.000000e+00 0.000000e+00 0.000000e+00 7.474491e+01 -2.167807e+01 0.000000e+00 -2.167807e+01 5.427983e+00 0.000000e+00 0.000000e+00 0.000000e+00 0.000000e+00 3.249873e+01 2.630424e+01 0.000000e+00 2.630424e+01 2.366443e+00 0.000000e+00 0.000000e+00 0.000000e+00 0.000000e+00 1.123934e+02 -2.891371e+01 0.000000e+00 -2.891371e+01 4.934677e+01 0.000000e+00 0.000000e+00 0.000000e+00 0.000000e+00 1.044022e+02 -2.704513e+01 0.000000e+00 -2.704513e+01 5.165726e+01 0.000000e+00 0.000000e+00 0.000000e+00 0.000000e+00 7.462703e+00 -6.383449e+00 0.000000e+00 -6.383449e+00 -1.245165e+02 0.000000e+00 0.000000e+00 0.000000e+00 0.000000e+00 4.298270e+01 -1.676304e+01 0.000000e+00 -1.676304e+01 -4.339428e+01 0.000000e+00 0.000000e+00 0.000000e+00 0.000000e+00 4.050927e+01 -1.476016e+01 0.000000e+00 -1.476016e+01 -4.007455e+01 0.000000e+00 0.000000e+00 0.000000e+00 0.000000e+00 6.612082e+00 -9.417120e+00 0.000000e+00 -9.417120e+00 -1.161426e+02 0.000000e+00 0.000000e+00 0.000000e+00 0.000000e+00 1.398699e+01 -1.238595e+01 0.000000e+00 -1.238595e+01 -9.043752e+01 0.000000e+00 0.000000e+00 0.000000e+00 0.000000e+00 6.701710e+01 -2.122719e+01 0.000000e+00 -2.122719e+01 -7.749988e+00 0.000000e+00 0.000000e+00 0.000000e+00 0.000000e+00 5.246373e+01 -1.045979e+01 0.000000e+00 -1.045979e+01 -3.130234e+01 0.000000e+00 0.000000e+00 0.000000e+00 0.000000e+00 4.055465e+01 -4.909444e+01 0.000000e+00 -4.909444e+01 4.632253e+01 0.000000e+00 0.000000e+00 0.000000e+00 0.000000e+00 4.014486e+01 2.292189e+01 0.000000e+00 2.292189e+01 -6.807904e-01 0.000000e+00 0.000000e+00 0.000000e+00 0.000000e+00 1.447943e+01 -2.275442e+01 0.000000e+00 -2.275442e+01 -1.078566e+02 0.000000e+00 0.000000e+00 0.000000e+00 0.000000e+00 3.164012e+01 -1.543868e+01 0.000000e+00 -1.543868e+01 -6.559692e+01 0.000000e+00 0.000000e+00 0.000000e+00 0.000000e+00 -8.630775e-01 2.489961e+00 0.000000e+00 2.489961e+00 -5.498142e+00 0.000000e+00 0.000000e+00 0.000000e+00 0.000000e+00 1.711900e+01 -1.062475e+01 0.000000e+00 -1.062475e+01 -8.345174e+01 0.000000e+00 0.000000e+00 0.000000e+00 0.000000e+00 2.076056e+01 -1.060564e+01 0.000000e+00 -1.060564e+01 -8.780707e+01 0.000000e+00 0.000000e+00 0.000000e+00 0.000000e+00 2.436373e+01 -1.075969e+01 0.000000e+00 -1.075969e+01 -8.129478e+01 0.000000e+00 0.000000e+00 0.000000e+00 0.000000e+00 4.608932e+01 2.570151e+01 0.000000e+00 2.570151e+01 2.150220e+00 0.000000e+00 0.000000e+00 0.000000e+00 0.000000e+00 -3.143888e+01 -1.036350e+01 0.000000e+00 -1.036350e+01 4.854605e+01 0.000000e+00 0.000000e+00 0.000000e+00 0.000000e+00 6.993297e+01 -2.183713e+01 0.000000e+00 -2.183713e+01 -1.148144e+00 0.000000e+00 0.000000e+00 0.000000e+00 0.000000e+00 6.560532e+01 -1.891714e+01 0.000000e+00 -1.891714e+01 -5.316918e+00 0.000000e+00 0.000000e+00 0.000000e+00 0.000000e+00 7.472028e+01 -1.957183e+01 0.000000e+00 -1.957183e+01 1.623980e+00 0.000000e+00 0.000000e+00 0.000000e+00 0.000000e+00 5.389341e+00 -9.409688e+00 0.000000e+00 -9.409688e+00 -1.410155e+02 0.000000e+00 0.000000e+00 0.000000e+00 0.000000e+00 4.277897e+01 1.820327e+01 0.000000e+00 1.820327e+01 2.720761e+00 0.000000e+00 0.000000e+00 0.000000e+00 0.000000e+00 9.337103e+00 3.329502e+01 0.000000e+00 3.329502e+01 3.511901e+00 0.000000e+00 0.000000e+00 0.000000e+00 0.000000e+00 5.316860e+00 -5.032083e+00 0.000000e+00 -5.032083e+00 -1.435683e+02 0.000000e+00 0.000000e+00 0.000000e+00 0.000000e+00 4.059909e+00 -1.510760e+01 0.000000e+00 -1.510760e+01 -1.064944e+02 0.000000e+00 0.000000e+00 0.000000e+00 0.000000e+00 5.678369e+01 3.507705e+01 0.000000e+00 3.507705e+01 1.324926e+01 0.000000e+00 0.000000e+00 0.000000e+00 0.000000e+00 8.866628e+00 -1.320831e+01 0.000000e+00 -1.320831e+01 -1.229999e+02 0.000000e+00 0.000000e+00 0.000000e+00 0.000000e+00 1.365687e+02 -3.685909e+01 0.000000e+00 -3.685909e+01 1.101055e+02 0.000000e+00 0.000000e+00 0.000000e+00 0.000000e+00 1.603711e+02 -4.537900e+01 0.000000e+00 -4.537900e+01 1.230015e+02 0.000000e+00 0.000000e+00 0.000000e+00 0.000000e+00 -3.185341e+01 7.072797e+00 0.000000e+00 7.072797e+00 4.028851e+01 0.000000e+00 0.000000e+00 0.000000e+00 0.000000e+00 7.326646e+00 -7.748772e+00 0.000000e+00 -7.748772e+00 -1.103148e+02 0.000000e+00 0.000000e+00 0.000000e+00 0.000000e+00 1.070428e+01 -1.475254e+01 0.000000e+00 -1.475254e+01 -1.086893e+02 0.000000e+00 0.000000e+00 0.000000e+00 0.000000e+00 1.327459e+01 -1.218841e+01 0.000000e+00 -1.218841e+01 -1.060170e+02 0.000000e+00 0.000000e+00 0.000000e+00 0.000000e+00 7.705085e+01 -1.907063e+01 0.000000e+00 -1.907063e+01 7.767966e+00 0.000000e+00 0.000000e+00 0.000000e+00 0.000000e+00 7.922858e+01 -2.128803e+01 0.000000e+00 -2.128803e+01 1.185161e+01 0.000000e+00 0.000000e+00 0.000000e+00 0.000000e+00 -2.342602e+00 7.004524e+00 0.000000e+00 7.004524e+00 -7.295312e+00 0.000000e+00 0.000000e+00 0.000000e+00 0.000000e+00 -2.946242e+01 -1.687886e+01 0.000000e+00 -1.687886e+01 2.969321e+01 0.000000e+00 0.000000e+00 0.000000e+00 0.000000e+00 1.429856e+01 3.603254e+01 0.000000e+00 3.603254e+01 6.225677e+00 0.000000e+00 0.000000e+00 0.000000e+00 0.000000e+00 4.755462e+01 -5.756454e+01 0.000000e+00 -5.756454e+01 4.341423e+01 0.000000e+00 0.000000e+00 0.000000e+00 0.000000e+00 1.474898e+01 -2.854391e+01 0.000000e+00 -2.854391e+01 -9.874159e+01 0.000000e+00 0.000000e+00 0.000000e+00 0.000000e+00 3.796606e+00 -2.789424e+01 0.000000e+00 -2.789424e+01 -8.461839e+01 0.000000e+00 0.000000e+00 0.000000e+00 0.000000e+00 1.011961e+01 6.999285e+00 0.000000e+00 6.999285e+00 -1.891226e+02 0.000000e+00 0.000000e+00 0.000000e+00 0.000000e+00 -2.788060e+01 -2.953686e+01 0.000000e+00 -2.953686e+01 4.381894e+01 0.000000e+00 0.000000e+00 0.000000e+00 0.000000e+00 5.446790e+01 -1.732265e+01 0.000000e+00 -1.732265e+01 -1.790234e+01 0.000000e+00 0.000000e+00 0.000000e+00 0.000000e+00 6.301194e+01 -1.955982e+01 0.000000e+00 -1.955982e+01 -1.454242e+01 0.000000e+00 0.000000e+00 0.000000e+00 0.000000e+00 -1.890484e+01 -1.781707e+01 0.000000e+00 -1.781707e+01 6.498146e+01 0.000000e+00 0.000000e+00 0.000000e+00 0.000000e+00 3.665124e+01 2.084304e+01 0.000000e+00 2.084304e+01 -1.199673e+00 0.000000e+00 0.000000e+00 0.000000e+00 0.000000e+00 2.808207e+01 -1.352500e+01 0.000000e+00 -1.352500e+01 -7.351130e+01 0.000000e+00 0.000000e+00 0.000000e+00 0.000000e+00 2.001520e+01 -1.122668e+01 0.000000e+00 -1.122668e+01 -7.646444e+01 0.000000e+00 0.000000e+00 0.000000e+00 0.000000e+00 2.198515e+01 -1.340394e+01 0.000000e+00 -1.340394e+01 -6.903405e+01 0.000000e+00 0.000000e+00 0.000000e+00 0.000000e+00 -1.508532e+01 -4.939063e+01 0.000000e+00 -4.939063e+01 3.699030e+00 0.000000e+00 0.000000e+00 0.000000e+00 0.000000e+00 8.838773e+01 -2.351966e+01 0.000000e+00 -2.351966e+01 2.684859e+01 0.000000e+00 0.000000e+00 0.000000e+00 0.000000e+00 9.317604e+01 -2.519598e+01 0.000000e+00 -2.519598e+01 2.386049e+01 0.000000e+00 0.000000e+00 0.000000e+00 0.000000e+00 1.457502e+02 -3.230757e+01 0.000000e+00 -3.230757e+01 8.627782e+01 0.000000e+00 0.000000e+00 0.000000e+00 0.000000e+00 1.294321e+02 -3.556456e+01 0.000000e+00 -3.556456e+01 9.499991e+01 0.000000e+00 0.000000e+00 0.000000e+00 0.000000e+00 3.047678e+01 2.498717e+01 0.000000e+00 2.498717e+01 -6.256434e-02 0.000000e+00 0.000000e+00 0.000000e+00 0.000000e+00 2.973549e+00 -4.286385e+01 0.000000e+00 -4.286385e+01 -4.665843e+01 0.000000e+00 0.000000e+00 0.000000e+00 0.000000e+00 4.552308e+00 -2.168612e+01 0.000000e+00 -2.168612e+01 -9.702223e+01 0.000000e+00 0.000000e+00 0.000000e+00 0.000000e+00 -2.777711e+01 2.782938e+00 0.000000e+00 2.782938e+00 2.948998e+01 0.000000e+00 0.000000e+00 0.000000e+00 0.000000e+00 2.627331e+01 -1.538081e+01 0.000000e+00 -1.538081e+01 -6.104744e+01 0.000000e+00 0.000000e+00 0.000000e+00 0.000000e+00 6.048764e+00 -5.438815e+01 0.000000e+00 -5.438815e+01 -2.240365e+01 0.000000e+00 0.000000e+00 0.000000e+00 0.000000e+00 1.383566e+01 -1.331455e+01 0.000000e+00 -1.331455e+01 -9.751545e+01 0.000000e+00 0.000000e+00 0.000000e+00 0.000000e+00 1.113164e+01 -9.594241e+00 0.000000e+00 -9.594241e+00 -1.012363e+02 0.000000e+00 0.000000e+00 0.000000e+00 0.000000e+00 1.843814e+01 -1.079772e+01 0.000000e+00 -1.079772e+01 -9.461863e+01 0.000000e+00 0.000000e+00 0.000000e+00 0.000000e+00 5.350994e+01 3.801447e+01 0.000000e+00 3.801447e+01 1.659340e+01 0.000000e+00 0.000000e+00 0.000000e+00 0.000000e+00 6.114277e+01 5.056758e+01 0.000000e+00 5.056758e+01 4.976314e+01 0.000000e+00 0.000000e+00 0.000000e+00 0.000000e+00 1.512669e+01 -4.212292e+01 0.000000e+00 -4.212292e+01 -6.272527e+01 0.000000e+00 0.000000e+00 0.000000e+00 0.000000e+00 5.874012e+01 -1.816662e+01 0.000000e+00 -1.816662e+01 -1.208288e+01 0.000000e+00 0.000000e+00 0.000000e+00 0.000000e+00 4.648861e+01 -1.610633e+01 0.000000e+00 -1.610633e+01 -2.937677e+01 0.000000e+00 0.000000e+00 0.000000e+00 0.000000e+00 1.022617e+02 -2.742952e+01 0.000000e+00 -2.742952e+01 3.991960e+01 0.000000e+00 0.000000e+00 0.000000e+00 0.000000e+00 9.662556e+01 -2.400303e+01 0.000000e+00 -2.400303e+01 3.496353e+01 0.000000e+00 0.000000e+00 0.000000e+00 0.000000e+00 1.047390e+02 -2.473659e+01 0.000000e+00 -2.473659e+01 4.274537e+01 0.000000e+00 0.000000e+00 0.000000e+00 0.000000e+00 -2.531958e+01 -3.257207e+01 0.000000e+00 -3.257207e+01 2.708494e+01 0.000000e+00 0.000000e+00 0.000000e+00 0.000000e+00 4.359764e+01 2.785290e+01 0.000000e+00 2.785290e+01 3.248987e+00 0.000000e+00 0.000000e+00 0.000000e+00 0.000000e+00 5.659765e+01 4.468717e+01 0.000000e+00 4.468717e+01 3.198078e+01 0.000000e+00 0.000000e+00 0.000000e+00 0.000000e+00 4.533374e+01 4.126313e+01 0.000000e+00 4.126313e+01 3.042129e+01 0.000000e+00 0.000000e+00 0.000000e+00 0.000000e+00 3.741253e+01 3.579255e+01 0.000000e+00 3.579255e+01 1.720086e+01 0.000000e+00 0.000000e+00 0.000000e+00 0.000000e+00 1.742945e+01 -2.156325e+01 0.000000e+00 -2.156325e+01 -9.922790e+01 0.000000e+00 0.000000e+00 0.000000e+00 0.000000e+00 -6.279652e+00 3.658284e+01 0.000000e+00 3.658284e+01 6.521293e+00 0.000000e+00 0.000000e+00 0.000000e+00 0.000000e+00 4.094428e+01 2.445478e+01 0.000000e+00 2.445478e+01 2.738853e+00 0.000000e+00 0.000000e+00 0.000000e+00 0.000000e+00 8.925056e+01 -3.349040e+01 0.000000e+00 -3.349040e+01 2.949970e+01 0.000000e+00 0.000000e+00 0.000000e+00 0.000000e+00 7.963814e+01 -2.188341e+01 0.000000e+00 -2.188341e+01 1.843748e+01 0.000000e+00 0.000000e+00 0.000000e+00 0.000000e+00 1.838906e+01 -2.968074e+01 0.000000e+00 -2.968074e+01 -8.711672e+01 0.000000e+00 0.000000e+00 0.000000e+00 0.000000e+00 5.443895e+00 -3.665822e+01 0.000000e+00 -3.665822e+01 -6.067204e+01 0.000000e+00 0.000000e+00 0.000000e+00 0.000000e+00 -3.563856e+00 3.350887e+01 0.000000e+00 3.350887e+01 3.960911e+00 0.000000e+00 0.000000e+00 0.000000e+00 0.000000e+00 3.154158e+01 2.759434e+01 0.000000e+00 2.759434e+01 -1.223825e-02 0.000000e+00 0.000000e+00 0.000000e+00 0.000000e+00 4.057072e+01 -1.342522e+01 0.000000e+00 -1.342522e+01 -5.121752e+01 0.000000e+00 0.000000e+00 0.000000e+00 0.000000e+00 5.168513e+01 -5.649265e+01 0.000000e+00 -5.649265e+01 9.357612e+01 0.000000e+00 0.000000e+00 0.000000e+00 0.000000e+00 3.542867e+01 -1.426473e+01 0.000000e+00 -1.426473e+01 -4.672911e+01 0.000000e+00 0.000000e+00 0.000000e+00 0.000000e+00 1.442475e+01 3.362233e+01 0.000000e+00 3.362233e+01 6.102767e+00 0.000000e+00 0.000000e+00 0.000000e+00 0.000000e+00 1.236855e+02 -3.461588e+01 0.000000e+00 -3.461588e+01 7.045003e+01 0.000000e+00 0.000000e+00 0.000000e+00 0.000000e+00 -1.415693e+01 2.186012e+01 0.000000e+00 2.186012e+01 4.609856e+01 0.000000e+00 0.000000e+00 0.000000e+00 0.000000e+00 5.661354e+00 -5.963535e+00 0.000000e+00 -5.963535e+00 -1.551633e+02 0.000000e+00 0.000000e+00 0.000000e+00 0.000000e+00 1.279701e+02 -3.189389e+01 0.000000e+00 -3.189389e+01 8.092925e+01 0.000000e+00 0.000000e+00 0.000000e+00 0.000000e+00 3.751241e+00 3.691013e+01 0.000000e+00 3.691013e+01 6.846616e+00 0.000000e+00 0.000000e+00 0.000000e+00 0.000000e+00 -1.162316e+01 2.965978e+01 0.000000e+00 2.965978e+01 2.335174e+01 0.000000e+00 0.000000e+00 0.000000e+00 0.000000e+00 1.116394e+00 3.303272e+01 0.000000e+00 3.303272e+01 2.583762e+01 0.000000e+00 0.000000e+00 0.000000e+00 0.000000e+00 1.302549e+02 -3.155025e+01 0.000000e+00 -3.155025e+01 7.329200e+01 0.000000e+00 0.000000e+00 0.000000e+00 0.000000e+00 3.926202e+00 -9.004664e+00 0.000000e+00 -9.004664e+00 -1.578513e+02 0.000000e+00 0.000000e+00 0.000000e+00 0.000000e+00 1.841394e+00 3.313158e+01 0.000000e+00 3.313158e+01 6.346962e+00 0.000000e+00 0.000000e+00 0.000000e+00 0.000000e+00 1.348828e+02 -4.385956e+01 0.000000e+00 -4.385956e+01 9.345492e+01 0.000000e+00 0.000000e+00 0.000000e+00 0.000000e+00 1.101066e+02 -2.911024e+01 0.000000e+00 -2.911024e+01 6.171644e+01 0.000000e+00 0.000000e+00 0.000000e+00 0.000000e+00 5.434566e+01 -5.146205e+01 0.000000e+00 -5.146205e+01 6.339653e+01 0.000000e+00 0.000000e+00 0.000000e+00 0.000000e+00 4.290359e+01 -4.322744e+01 0.000000e+00 -4.322744e+01 1.275463e+02 0.000000e+00 0.000000e+00 0.000000e+00 0.000000e+00 -1.771131e+01 4.734373e+00 0.000000e+00 4.734373e+00 6.356260e+01 0.000000e+00 0.000000e+00 0.000000e+00 0.000000e+00 -1.022835e+01 1.834783e+01 0.000000e+00 1.834783e+01 3.868306e+01 0.000000e+00 0.000000e+00 0.000000e+00 0.000000e+00 -1.874038e+01 -2.825387e+00 0.000000e+00 -2.825387e+00 4.636668e+01 0.000000e+00 0.000000e+00 0.000000e+00 0.000000e+00 1.905327e+01 -3.697267e+01 0.000000e+00 -3.697267e+01 -7.420808e+01 0.000000e+00 0.000000e+00 0.000000e+00 0.000000e+00 -1.041586e+01 -1.529914e+01 0.000000e+00 -1.529914e+01 -1.901410e+02 0.000000e+00 0.000000e+00 0.000000e+00 0.000000e+00 -1.852684e+01 -2.381127e+01 0.000000e+00 -2.381127e+01 4.558883e+01 0.000000e+00 0.000000e+00 0.000000e+00 0.000000e+00 8.630901e+01 -3.019090e+01 0.000000e+00 -3.019090e+01 3.245507e+01 0.000000e+00 0.000000e+00 0.000000e+00 0.000000e+00 9.338325e+01 -3.436650e+01 0.000000e+00 -3.436650e+01 3.970721e+01 0.000000e+00 0.000000e+00 0.000000e+00 0.000000e+00 2.812952e+01 -1.737928e+01 0.000000e+00 -1.737928e+01 -7.262468e+01 0.000000e+00 0.000000e+00 0.000000e+00 0.000000e+00 6.445169e+01 6.597708e+01 0.000000e+00 6.597708e+01 1.198866e+02 0.000000e+00 0.000000e+00 0.000000e+00 0.000000e+00 5.017107e+01 4.996180e+01 0.000000e+00 4.996180e+01 9.341627e+01 0.000000e+00 0.000000e+00 0.000000e+00 0.000000e+00 9.578930e+00 3.778564e+01 0.000000e+00 3.778564e+01 1.347453e+01 0.000000e+00 0.000000e+00 0.000000e+00 0.000000e+00 9.150166e+01 3.484193e+00 0.000000e+00 3.484193e+00 2.509086e+02 0.000000e+00 0.000000e+00 0.000000e+00 0.000000e+00 8.396396e+00 -2.697025e+01 0.000000e+00 -2.697025e+01 -7.750932e+01 0.000000e+00 0.000000e+00 0.000000e+00 0.000000e+00 1.157961e+02 -4.001331e+01 0.000000e+00 -4.001331e+01 6.503624e+01 0.000000e+00 0.000000e+00 0.000000e+00 0.000000e+00 5.041971e+01 -1.572693e+01 0.000000e+00 -1.572693e+01 -3.310169e+01 0.000000e+00 0.000000e+00 0.000000e+00 0.000000e+00 1.780801e+02 -5.545502e+01 0.000000e+00 -5.545502e+01 2.596187e+02 0.000000e+00 0.000000e+00 0.000000e+00 0.000000e+00 1.373448e+02 -4.297384e+01 0.000000e+00 -4.297384e+01 2.947485e+02 0.000000e+00 0.000000e+00 0.000000e+00 0.000000e+00 6.255100e+01 -2.623741e+01 0.000000e+00 -2.623741e+01 -1.148264e+01 0.000000e+00 0.000000e+00 0.000000e+00 0.000000e+00 1.881908e+02 -6.124071e+01 0.000000e+00 -6.124071e+01 2.267383e+02 0.000000e+00 0.000000e+00 0.000000e+00 0.000000e+00 1.444476e+02 -4.812992e+01 0.000000e+00 -4.812992e+01 2.465163e+02 0.000000e+00 0.000000e+00 0.000000e+00 0.000000e+00 2.804217e+01 3.177189e+01 0.000000e+00 3.177189e+01 4.500259e+00 0.000000e+00 0.000000e+00 0.000000e+00 0.000000e+00 2.138780e+01 3.758457e+01 0.000000e+00 3.758457e+01 1.078590e+01 0.000000e+00 0.000000e+00 0.000000e+00 0.000000e+00 8.749999e+01 1.871123e+01 0.000000e+00 1.871123e+01 2.805718e+02 0.000000e+00 0.000000e+00 0.000000e+00 0.000000e+00 2.029784e+01 -4.419085e+01 0.000000e+00 -4.419085e+01 -5.223641e+01 0.000000e+00 0.000000e+00 0.000000e+00 0.000000e+00 7.510000e+01 4.107213e+01 0.000000e+00 4.107213e+01 2.322677e+02 0.000000e+00 0.000000e+00 0.000000e+00 0.000000e+00 -3.481372e+00 -5.394458e+01 0.000000e+00 -5.394458e+01 -5.858995e+00 0.000000e+00 0.000000e+00 0.000000e+00 0.000000e+00 1.554376e+02 -5.179029e+01 0.000000e+00 -5.179029e+01 2.121204e+02 0.000000e+00 0.000000e+00 0.000000e+00 0.000000e+00 2.671968e+00 -4.952099e+01 0.000000e+00 -4.952099e+01 -1.950563e+01 0.000000e+00 0.000000e+00 0.000000e+00 0.000000e+00 3.396273e+01 -1.833043e+01 0.000000e+00 -1.833043e+01 -5.717395e+01 0.000000e+00 0.000000e+00 0.000000e+00 0.000000e+00 1.444960e+02 -5.886702e+01 0.000000e+00 -5.886702e+01 1.575894e+02 0.000000e+00 0.000000e+00 0.000000e+00 0.000000e+00 -4.996897e+00 -5.047756e+01 0.000000e+00 -5.047756e+01 -6.488639e+00 0.000000e+00 0.000000e+00 0.000000e+00 0.000000e+00 1.431930e+01 -5.128584e+01 0.000000e+00 -5.128584e+01 -3.692793e+01 0.000000e+00 0.000000e+00 0.000000e+00 0.000000e+00 6.786095e+01 -2.737840e+01 0.000000e+00 -2.737840e+01 5.465543e+00 0.000000e+00 0.000000e+00 0.000000e+00 0.000000e+00 6.065492e+01 5.064283e+01 0.000000e+00 5.064283e+01 4.962812e+01 0.000000e+00 0.000000e+00 0.000000e+00 0.000000e+00 4.986669e+01 3.202356e+01 0.000000e+00 3.202356e+01 8.072357e+00 0.000000e+00 0.000000e+00 0.000000e+00 0.000000e+00 2.339919e+00 3.570525e+01 0.000000e+00 3.570525e+01 1.259850e+01 0.000000e+00 0.000000e+00 0.000000e+00 0.000000e+00 3.741599e+01 3.305171e+01 0.000000e+00 3.305171e+01 8.753718e+00 0.000000e+00 0.000000e+00 0.000000e+00 0.000000e+00 4.280363e+01 -2.312309e+01 0.000000e+00 -2.312309e+01 -3.943038e+01 0.000000e+00 0.000000e+00 0.000000e+00 0.000000e+00 8.510133e+01 -3.094566e+01 0.000000e+00 -3.094566e+01 1.976446e+01 0.000000e+00 0.000000e+00 0.000000e+00 0.000000e+00 7.893094e+01 -2.926075e+01 0.000000e+00 -2.926075e+01 2.301978e+01 0.000000e+00 0.000000e+00 0.000000e+00 0.000000e+00 -1.555297e+01 -3.640623e+01 0.000000e+00 -3.640623e+01 5.699213e+01 0.000000e+00 0.000000e+00 0.000000e+00 0.000000e+00 1.356768e+02 -5.082389e+01 0.000000e+00 -5.082389e+01 1.194051e+02 0.000000e+00 0.000000e+00 0.000000e+00 0.000000e+00 7.600098e+00 -1.978760e+01 0.000000e+00 -1.978760e+01 -9.078149e+01 0.000000e+00 0.000000e+00 0.000000e+00 0.000000e+00 1.413946e+02 -4.297676e+01 0.000000e+00 -4.297676e+01 1.304122e+02 0.000000e+00 0.000000e+00 0.000000e+00 0.000000e+00 -2.568243e+01 -4.142586e+01 0.000000e+00 -4.142586e+01 1.575417e+01 0.000000e+00 0.000000e+00 0.000000e+00 0.000000e+00 -1.448923e+01 -4.782464e+01 0.000000e+00 -4.782464e+01 5.116453e+00 0.000000e+00 0.000000e+00 0.000000e+00 0.000000e+00 6.563296e+01 -2.845609e+01 0.000000e+00 -2.845609e+01 -2.679040e+00 0.000000e+00 0.000000e+00 0.000000e+00 0.000000e+00 6.808501e+01 -2.578491e+01 0.000000e+00 -2.578491e+01 3.447714e-01 0.000000e+00 0.000000e+00 0.000000e+00 0.000000e+00 1.146750e+02 -4.071519e+01 0.000000e+00 -4.071519e+01 8.647089e+01 0.000000e+00 0.000000e+00 0.000000e+00 0.000000e+00 1.543774e+01 -1.360584e+01 0.000000e+00 -1.360584e+01 -8.328192e+01 0.000000e+00 0.000000e+00 0.000000e+00 0.000000e+00 2.394016e+01 -1.391558e+01 0.000000e+00 -1.391558e+01 -8.076869e+01 0.000000e+00 0.000000e+00 0.000000e+00 0.000000e+00 -8.508696e+00 -5.334344e+01 0.000000e+00 -5.334344e+01 1.728489e+01 0.000000e+00 0.000000e+00 0.000000e+00 0.000000e+00 1.154136e+02 -4.247883e+01 0.000000e+00 -4.247883e+01 1.060938e+02 0.000000e+00 0.000000e+00 0.000000e+00 0.000000e+00 2.193830e+01 -1.905458e+01 0.000000e+00 -1.905458e+01 -6.633720e+01 0.000000e+00 0.000000e+00 0.000000e+00 0.000000e+00 3.077997e+01 -2.158095e+01 0.000000e+00 -2.158095e+01 -6.312285e+01 0.000000e+00 0.000000e+00 0.000000e+00 0.000000e+00 9.025718e+00 -4.343363e+01 0.000000e+00 -4.343363e+01 -3.780667e+01 0.000000e+00 0.000000e+00 0.000000e+00 0.000000e+00 2.046339e+01 -1.654032e+01 0.000000e+00 -1.654032e+01 -8.619924e+01 0.000000e+00 0.000000e+00 0.000000e+00 0.000000e+00 4.407033e+01 -2.318673e+01 0.000000e+00 -2.318673e+01 -3.019923e+01 0.000000e+00 0.000000e+00 0.000000e+00 0.000000e+00 5.755560e+01 -2.496228e+01 0.000000e+00 -2.496228e+01 -7.740231e+00 0.000000e+00 0.000000e+00 0.000000e+00 0.000000e+00 5.526396e+01 3.837044e+01 0.000000e+00 3.837044e+01 1.664360e+02 0.000000e+00 0.000000e+00 0.000000e+00 0.000000e+00 6.205732e+01 5.029138e+01 0.000000e+00 5.029138e+01 1.792571e+02 0.000000e+00 0.000000e+00 0.000000e+00 0.000000e+00 1.218613e+02 -4.666391e+01 0.000000e+00 -4.666391e+01 1.661237e+02 0.000000e+00 0.000000e+00 0.000000e+00 0.000000e+00 1.482996e+02 -6.058249e+01 0.000000e+00 -6.058249e+01 1.914252e+02 0.000000e+00 0.000000e+00 0.000000e+00 0.000000e+00 3.405244e+01 -4.960269e+01 0.000000e+00 -4.960269e+01 2.855408e+01 0.000000e+00 0.000000e+00 0.000000e+00 0.000000e+00 7.804501e+01 -2.823279e+01 0.000000e+00 -2.823279e+01 8.582328e+00 0.000000e+00 0.000000e+00 0.000000e+00 0.000000e+00 4.382859e+01 -2.034652e+01 0.000000e+00 -2.034652e+01 -3.549224e+01 0.000000e+00 0.000000e+00 0.000000e+00 0.000000e+00 -1.980995e+01 -4.573176e+01 0.000000e+00 -4.573176e+01 2.998052e+01 0.000000e+00 0.000000e+00 0.000000e+00 0.000000e+00 1.079551e+01 -1.506281e+01 0.000000e+00 -1.506281e+01 -8.946145e+01 0.000000e+00 0.000000e+00 0.000000e+00 0.000000e+00 5.910508e+01 -2.203314e+01 0.000000e+00 -2.203314e+01 -1.985826e+01 0.000000e+00 0.000000e+00 0.000000e+00 0.000000e+00 5.065501e+01 -2.256794e+01 0.000000e+00 -2.256794e+01 -2.245419e+01 0.000000e+00 0.000000e+00 0.000000e+00 0.000000e+00 5.133434e+01 -2.374182e+01 0.000000e+00 -2.374182e+01 -1.559926e+01 0.000000e+00 0.000000e+00 0.000000e+00 0.000000e+00 5.213798e+01 -2.127260e+01 0.000000e+00 -2.127260e+01 -2.698855e+01 0.000000e+00 0.000000e+00 0.000000e+00 0.000000e+00 -1.186262e+01 -4.058818e+01 0.000000e+00 -4.058818e+01 3.696781e+01 0.000000e+00 0.000000e+00 0.000000e+00 0.000000e+00 2.058287e+01 -3.593818e+01 0.000000e+00 -3.593818e+01 -6.379223e+01 0.000000e+00 0.000000e+00 0.000000e+00 0.000000e+00 6.511365e+01 2.572300e+01 0.000000e+00 2.572300e+01 2.080586e+02 0.000000e+00 0.000000e+00 0.000000e+00 0.000000e+00 6.023207e+01 -3.369158e+01 0.000000e+00 -3.369158e+01 -6.551298e+00 0.000000e+00 0.000000e+00 0.000000e+00 0.000000e+00 1.271145e+01 -5.605165e+01 0.000000e+00 -5.605165e+01 -1.105936e+01 0.000000e+00 0.000000e+00 0.000000e+00 0.000000e+00 4.303400e+00 3.292150e+01 0.000000e+00 3.292150e+01 1.208561e+01 0.000000e+00 0.000000e+00 0.000000e+00 0.000000e+00 1.672114e+01 -4.281927e+01 0.000000e+00 -4.281927e+01 -4.288621e+01 0.000000e+00 0.000000e+00 0.000000e+00 0.000000e+00 1.975855e+01 -3.279941e+01 0.000000e+00 -3.279941e+01 -6.070859e+01 0.000000e+00 0.000000e+00 0.000000e+00 0.000000e+00 1.164564e+02 -4.202554e+01 0.000000e+00 -4.202554e+01 7.885378e+01 0.000000e+00 0.000000e+00 0.000000e+00 0.000000e+00 3.126089e+01 -1.650905e+01 0.000000e+00 -1.650905e+01 -5.285291e+01 0.000000e+00 0.000000e+00 0.000000e+00 0.000000e+00 3.241070e+01 -2.233615e+01 0.000000e+00 -2.233615e+01 1.309496e+02 0.000000e+00 0.000000e+00 0.000000e+00 0.000000e+00 1.339164e+00 -5.675311e+01 0.000000e+00 -5.675311e+01 3.527113e+00 0.000000e+00 0.000000e+00 0.000000e+00 0.000000e+00 -8.226507e+00 -4.985495e+01 0.000000e+00 -4.985495e+01 1.688770e+01 0.000000e+00 0.000000e+00 0.000000e+00 0.000000e+00 6.851538e-01 -5.314936e+01 0.000000e+00 -5.314936e+01 6.871228e+00 0.000000e+00 0.000000e+00 0.000000e+00 0.000000e+00 7.838903e+00 -1.548410e+01 0.000000e+00 -1.548410e+01 -9.679875e+01 0.000000e+00 0.000000e+00 0.000000e+00 0.000000e+00 1.110646e+02 -3.359011e+01 0.000000e+00 -3.359011e+01 5.177863e+01 0.000000e+00 0.000000e+00 0.000000e+00 0.000000e+00 9.837818e+01 -3.350641e+01 0.000000e+00 -3.350641e+01 4.797342e+01 0.000000e+00 0.000000e+00 0.000000e+00 0.000000e+00 9.748869e+01 -3.651420e+01 0.000000e+00 -3.651420e+01 5.841389e+01 0.000000e+00 0.000000e+00 0.000000e+00 0.000000e+00 4.345874e+01 4.790725e+01 0.000000e+00 4.790725e+01 7.799351e+01 0.000000e+00 0.000000e+00 0.000000e+00 0.000000e+00 3.547649e+01 2.861408e+01 0.000000e+00 2.861408e+01 2.566994e+00 0.000000e+00 0.000000e+00 0.000000e+00 0.000000e+00 -4.884933e+00 3.685510e+01 0.000000e+00 3.685510e+01 1.226058e+01 0.000000e+00 0.000000e+00 0.000000e+00 0.000000e+00 1.426056e+02 -4.769648e+01 0.000000e+00 -4.769648e+01 1.224763e+02 0.000000e+00 0.000000e+00 0.000000e+00 0.000000e+00 2.036497e+01 -2.725258e+01 0.000000e+00 -2.725258e+01 -7.992506e+01 0.000000e+00 0.000000e+00 0.000000e+00 0.000000e+00 9.928175e+01 -4.059006e+01 0.000000e+00 -4.059006e+01 7.355634e+01 0.000000e+00 0.000000e+00 0.000000e+00 0.000000e+00 7.304194e+01 -3.228525e+00 0.000000e+00 -3.228525e+00 2.401700e+02 0.000000e+00 0.000000e+00 0.000000e+00 0.000000e+00 1.009300e+02 -5.016663e+01 0.000000e+00 -5.016663e+01 9.526381e+01 0.000000e+00 0.000000e+00 0.000000e+00 0.000000e+00 3.488474e+01 3.476529e+01 0.000000e+00 3.476529e+01 7.472067e+00 0.000000e+00 0.000000e+00 0.000000e+00 0.000000e+00 1.037972e+02 -4.765269e+01 0.000000e+00 -4.765269e+01 7.199336e+01 0.000000e+00 0.000000e+00 0.000000e+00 0.000000e+00 -7.709875e+00 -2.513348e+01 0.000000e+00 -2.513348e+01 8.215730e+01 0.000000e+00 0.000000e+00 0.000000e+00 0.000000e+00 1.908860e+01 -1.684127e+01 0.000000e+00 -1.684127e+01 -7.513349e+01 0.000000e+00 0.000000e+00 0.000000e+00 0.000000e+00 1.194369e+02 -4.964925e+01 0.000000e+00 -4.964925e+01 1.434719e+02 0.000000e+00 0.000000e+00 0.000000e+00 0.000000e+00 8.911479e+01 -2.130494e+01 0.000000e+00 -2.130494e+01 1.479618e+01 0.000000e+00 0.000000e+00 0.000000e+00 0.000000e+00 1.974880e+01 -1.929715e+01 0.000000e+00 -1.929715e+01 -9.193992e+01 0.000000e+00 0.000000e+00 0.000000e+00 0.000000e+00 1.161039e+02 -4.960004e+01 0.000000e+00 -4.960004e+01 9.962325e+01 0.000000e+00 0.000000e+00 0.000000e+00 0.000000e+00 3.669954e+00 3.212833e+01 0.000000e+00 3.212833e+01 3.378174e+01 0.000000e+00 0.000000e+00 0.000000e+00 0.000000e+00 1.043603e+02 -2.849981e+01 0.000000e+00 -2.849981e+01 2.698832e+02 0.000000e+00 0.000000e+00 0.000000e+00 0.000000e+00 7.857730e+01 -1.336811e+01 0.000000e+00 -1.336811e+01 2.063858e+02 0.000000e+00 0.000000e+00 0.000000e+00 0.000000e+00 1.177684e+02 -5.605530e+01 0.000000e+00 -5.605530e+01 1.334086e+02 0.000000e+00 0.000000e+00 0.000000e+00 0.000000e+00 1.972576e+01 -5.141998e+01 0.000000e+00 -5.141998e+01 -2.287845e+01 0.000000e+00 0.000000e+00 0.000000e+00 0.000000e+00 3.811427e+01 -3.067304e+01 0.000000e+00 -3.067304e+01 -3.136721e+01 0.000000e+00 0.000000e+00 0.000000e+00 0.000000e+00 1.846365e+01 -1.463861e+01 0.000000e+00 -1.463861e+01 -8.166491e+01 0.000000e+00 0.000000e+00 0.000000e+00 0.000000e+00 1.961005e+01 -2.258510e+01 0.000000e+00 -2.258510e+01 -7.567391e+01 0.000000e+00 0.000000e+00 0.000000e+00 0.000000e+00 8.551932e+01 -4.176151e+01 0.000000e+00 -4.176151e+01 3.923468e+01 0.000000e+00 0.000000e+00 0.000000e+00 0.000000e+00 2.091373e+01 -4.113811e+01 0.000000e+00 -4.113811e+01 -4.114929e+01 0.000000e+00 0.000000e+00 0.000000e+00 0.000000e+00 3.388327e+01 -2.010914e+01 0.000000e+00 -2.010914e+01 -4.338597e+01 0.000000e+00 0.000000e+00 0.000000e+00 0.000000e+00 5.247428e+01 5.298463e+00 0.000000e+00 5.298463e+00 1.790173e+02 0.000000e+00 0.000000e+00 0.000000e+00 0.000000e+00 9.135156e+01 -4.428280e+01 0.000000e+00 -4.428280e+01 8.215699e+01 0.000000e+00 0.000000e+00 0.000000e+00 0.000000e+00 -1.784532e+01 -4.399420e+01 0.000000e+00 -4.399420e+01 2.018388e+01 0.000000e+00 0.000000e+00 0.000000e+00 0.000000e+00 9.518526e+01 -5.017102e+01 0.000000e+00 -5.017102e+01 1.238293e+02 0.000000e+00 0.000000e+00 0.000000e+00 0.000000e+00 9.217056e+01 -5.427870e+01 0.000000e+00 -5.427870e+01 1.118991e+02 0.000000e+00 0.000000e+00 0.000000e+00 0.000000e+00 5.479348e+01 -3.173184e+01 0.000000e+00 -3.173184e+01 -1.740640e+00 0.000000e+00 0.000000e+00 0.000000e+00 0.000000e+00 6.395637e+01 -3.621793e+01 0.000000e+00 -3.621793e+01 4.704259e+00 0.000000e+00 0.000000e+00 0.000000e+00 0.000000e+00 1.297965e+01 -1.766860e+01 0.000000e+00 -1.766860e+01 -8.488438e+01 0.000000e+00 0.000000e+00 0.000000e+00 0.000000e+00 4.392959e+01 -2.801123e+01 0.000000e+00 -2.801123e+01 -2.175136e+01 0.000000e+00 0.000000e+00 0.000000e+00 0.000000e+00 5.682789e+01 -2.846684e+01 0.000000e+00 -2.846684e+01 -1.788973e+01 0.000000e+00 0.000000e+00 0.000000e+00 0.000000e+00 4.175756e+01 3.919484e+01 0.000000e+00 3.919484e+01 1.213295e+02 0.000000e+00 0.000000e+00 0.000000e+00 0.000000e+00 5.333373e+01 -5.690751e+01 0.000000e+00 -5.690751e+01 6.296237e+01 0.000000e+00 0.000000e+00 0.000000e+00 0.000000e+00 -3.349344e+00 -4.328665e+01 0.000000e+00 -4.328665e+01 6.532106e+01 0.000000e+00 0.000000e+00 0.000000e+00 0.000000e+00 1.266028e+01 3.858612e+01 0.000000e+00 3.858612e+01 1.940916e+01 0.000000e+00 0.000000e+00 0.000000e+00 0.000000e+00 2.014304e+01 3.380025e+01 0.000000e+00 3.380025e+01 1.008062e+01 0.000000e+00 0.000000e+00 0.000000e+00 0.000000e+00 1.511492e+02 -5.128777e+01 0.000000e+00 -5.128777e+01 1.922438e+02 0.000000e+00 0.000000e+00 0.000000e+00 0.000000e+00 3.770989e+01 3.337037e+01 0.000000e+00 3.337037e+01 8.644322e+00 0.000000e+00 0.000000e+00 0.000000e+00 0.000000e+00 4.785246e+01 -2.992761e+01 0.000000e+00 -2.992761e+01 -1.206608e+01 0.000000e+00 0.000000e+00 0.000000e+00 0.000000e+00 1.353292e+01 -2.405925e+01 0.000000e+00 -2.405925e+01 -7.380982e+01 0.000000e+00 0.000000e+00 0.000000e+00 0.000000e+00 5.182285e+01 1.341296e+01 0.000000e+00 1.341296e+01 1.998096e+02 0.000000e+00 0.000000e+00 0.000000e+00 0.000000e+00 7.122574e+01 -2.666058e+01 0.000000e+00 -2.666058e+01 1.343014e+01 0.000000e+00 0.000000e+00 0.000000e+00 0.000000e+00 -1.236306e+01 3.151700e+01 0.000000e+00 3.151700e+01 6.966368e+00 0.000000e+00 0.000000e+00 0.000000e+00 0.000000e+00 1.013301e+02 -4.029175e+01 0.000000e+00 -4.029175e+01 5.398869e+01 0.000000e+00 0.000000e+00 0.000000e+00 0.000000e+00 9.750757e+01 -3.157432e+01 0.000000e+00 -3.157432e+01 4.191091e+01 0.000000e+00 0.000000e+00 0.000000e+00 0.000000e+00 -6.001637e+00 -3.242670e+01 0.000000e+00 -3.242670e+01 5.646117e+01 0.000000e+00 0.000000e+00 0.000000e+00 0.000000e+00 3.177692e+01 -3.100757e+01 0.000000e+00 -3.100757e+01 -4.402708e+01 0.000000e+00 0.000000e+00 0.000000e+00 0.000000e+00 2.124222e+01 3.915509e+01 0.000000e+00 3.915509e+01 2.161489e+01 0.000000e+00 0.000000e+00 0.000000e+00 0.000000e+00 2.891694e+01 3.926551e+01 0.000000e+00 3.926551e+01 1.933221e+01 0.000000e+00 0.000000e+00 0.000000e+00 0.000000e+00 -1.011506e+01 -4.834876e+01 0.000000e+00 -4.834876e+01 4.170867e+01 0.000000e+00 0.000000e+00 0.000000e+00 0.000000e+00 2.161099e+01 3.543211e+01 0.000000e+00 3.543211e+01 1.853384e+01 0.000000e+00 0.000000e+00 0.000000e+00 0.000000e+00 6.977187e-01 2.311732e+01 0.000000e+00 2.311732e+01 7.298363e+01 0.000000e+00 0.000000e+00 0.000000e+00 0.000000e+00 4.851844e+01 -2.894441e+01 0.000000e+00 -2.894441e+01 -2.775016e+01 0.000000e+00 0.000000e+00 0.000000e+00 0.000000e+00 3.790267e+01 4.361799e+01 0.000000e+00 4.361799e+01 3.272406e+01 0.000000e+00 0.000000e+00 0.000000e+00 0.000000e+00 3.116813e+01 4.012414e+01 0.000000e+00 4.012414e+01 5.091908e+01 0.000000e+00 0.000000e+00 0.000000e+00 0.000000e+00 -2.768960e+00 -5.309657e+01 0.000000e+00 -5.309657e+01 2.228565e+01 0.000000e+00 0.000000e+00 0.000000e+00 0.000000e+00 8.623311e+01 -4.415955e+01 0.000000e+00 -4.415955e+01 6.543437e+01 0.000000e+00 0.000000e+00 0.000000e+00 0.000000e+00 3.997384e+01 4.685402e+01 0.000000e+00 4.685402e+01 5.441670e+01 0.000000e+00 0.000000e+00 0.000000e+00 0.000000e+00 1.222815e+01 -1.024171e+01 0.000000e+00 -1.024171e+01 -1.538285e+02 0.000000e+00 0.000000e+00 0.000000e+00 0.000000e+00 2.500198e+01 -2.195530e+01 0.000000e+00 -2.195530e+01 -7.391917e+01 0.000000e+00 0.000000e+00 0.000000e+00 0.000000e+00 1.539813e+01 -1.381760e+01 0.000000e+00 -1.381760e+01 -1.069623e+02 0.000000e+00 0.000000e+00 0.000000e+00 0.000000e+00 7.474511e+00 2.811542e+01 0.000000e+00 2.811542e+01 4.546627e+01 0.000000e+00 0.000000e+00 0.000000e+00 0.000000e+00 8.055286e+01 -3.967972e+01 0.000000e+00 -3.967972e+01 2.800190e+01 0.000000e+00 0.000000e+00 0.000000e+00 0.000000e+00 7.371665e+01 -3.653165e+01 0.000000e+00 -3.653165e+01 3.077100e+01 0.000000e+00 0.000000e+00 0.000000e+00 0.000000e+00 -6.964820e+00 -8.935269e-01 0.000000e+00 -8.935269e-01 8.571809e+01 0.000000e+00 0.000000e+00 0.000000e+00 0.000000e+00 -4.131168e+00 1.319885e+01 0.000000e+00 1.319885e+01 5.838001e+01 0.000000e+00 0.000000e+00 0.000000e+00 0.000000e+00 -1.030858e+01 -1.143914e+01 0.000000e+00 -1.143914e+01 6.284248e+01 0.000000e+00 0.000000e+00 0.000000e+00 0.000000e+00 6.078633e+00 -6.157440e+00 0.000000e+00 -6.157440e+00 -1.605660e+02 0.000000e+00 0.000000e+00 0.000000e+00 0.000000e+00 3.964203e+01 -2.763060e+01 0.000000e+00 -2.763060e+01 -3.928392e+01 0.000000e+00 0.000000e+00 0.000000e+00 0.000000e+00 2.531393e+01 -4.586118e+01 0.000000e+00 -4.586118e+01 -2.419767e+01 0.000000e+00 0.000000e+00 0.000000e+00 0.000000e+00 1.401851e+02 -5.426016e+01 0.000000e+00 -5.426016e+01 2.347611e+02 0.000000e+00 0.000000e+00 0.000000e+00 0.000000e+00 6.100304e+01 -1.974465e+01 0.000000e+00 -1.974465e+01 2.038322e+02 0.000000e+00 0.000000e+00 0.000000e+00 0.000000e+00 8.924198e+01 -5.450633e+01 0.000000e+00 -5.450633e+01 8.225815e+01 0.000000e+00 0.000000e+00 0.000000e+00 0.000000e+00 7.470889e+01 -4.724682e+01 0.000000e+00 -4.724682e+01 1.007705e+02 0.000000e+00 0.000000e+00 0.000000e+00 0.000000e+00 6.219720e+01 -3.301159e+01 0.000000e+00 -3.301159e+01 8.166325e+00 0.000000e+00 0.000000e+00 0.000000e+00 0.000000e+00 5.746719e+01 -4.160079e+01 0.000000e+00 -4.160079e+01 7.750819e-01 0.000000e+00 0.000000e+00 0.000000e+00 0.000000e+00 1.134888e+02 -2.767231e+01 0.000000e+00 -2.767231e+01 2.475664e+02 0.000000e+00 0.000000e+00 0.000000e+00 0.000000e+00 3.278431e+00 -4.488042e+01 0.000000e+00 -4.488042e+01 4.441973e+01 0.000000e+00 0.000000e+00 0.000000e+00 0.000000e+00 8.717811e+01 -4.592725e+01 0.000000e+00 -4.592725e+01 5.641738e+01 0.000000e+00 0.000000e+00 0.000000e+00 0.000000e+00 2.309818e+01 -3.649685e+01 0.000000e+00 -3.649685e+01 -4.410938e+01 0.000000e+00 0.000000e+00 0.000000e+00 0.000000e+00 1.203007e+02 -4.855114e+01 0.000000e+00 -4.855114e+01 2.255802e+02 0.000000e+00 0.000000e+00 0.000000e+00 0.000000e+00 3.381868e+01 -2.443359e+01 0.000000e+00 -2.443359e+01 -5.229170e+01 0.000000e+00 0.000000e+00 0.000000e+00 0.000000e+00 2.613980e+01 -2.064403e+01 0.000000e+00 -2.064403e+01 -5.753203e+01 0.000000e+00 0.000000e+00 0.000000e+00 0.000000e+00 3.881240e+01 -2.187544e+01 0.000000e+00 -2.187544e+01 -4.876624e+01 0.000000e+00 0.000000e+00 0.000000e+00 0.000000e+00 1.026382e+01 -5.826861e+01 0.000000e+00 -5.826861e+01 1.500142e+01 0.000000e+00 0.000000e+00 0.000000e+00 0.000000e+00 9.026736e+01 -4.110388e+01 0.000000e+00 -4.110388e+01 5.071582e+01 0.000000e+00 0.000000e+00 0.000000e+00 0.000000e+00 8.673862e+01 -3.780711e+01 0.000000e+00 -3.780711e+01 4.147689e+01 0.000000e+00 0.000000e+00 0.000000e+00 0.000000e+00 5.314118e+01 -3.658637e+01 0.000000e+00 -3.658637e+01 -1.412257e+01 0.000000e+00 0.000000e+00 0.000000e+00 0.000000e+00 3.874012e+01 -3.380139e+01 0.000000e+00 -3.380139e+01 -1.928839e+01 0.000000e+00 0.000000e+00 0.000000e+00 0.000000e+00 4.619759e+01 4.970073e+01 0.000000e+00 4.970073e+01 7.997886e+01 0.000000e+00 0.000000e+00 0.000000e+00 0.000000e+00 1.163750e+02 -5.845253e+01 0.000000e+00 -5.845253e+01 1.829467e+02 0.000000e+00 0.000000e+00 0.000000e+00 0.000000e+00 7.769401e+01 -4.834604e+01 0.000000e+00 -4.834604e+01 5.327519e+01 0.000000e+00 0.000000e+00 0.000000e+00 0.000000e+00 9.350751e+01 -4.592285e+01 0.000000e+00 -4.592285e+01 1.592997e+02 0.000000e+00 0.000000e+00 0.000000e+00 0.000000e+00 8.807452e+01 -5.021107e+01 0.000000e+00 -5.021107e+01 1.441393e+02 0.000000e+00 0.000000e+00 0.000000e+00 0.000000e+00 1.041008e+02 -3.822730e+01 0.000000e+00 -3.822730e+01 1.862698e+02 0.000000e+00 0.000000e+00 0.000000e+00 0.000000e+00 5.471687e+00 -3.381236e+01 0.000000e+00 -3.381236e+01 9.581510e+01 0.000000e+00 0.000000e+00 0.000000e+00 0.000000e+00 3.895992e+01 1.847775e+01 0.000000e+00 1.847775e+01 1.575032e+02 0.000000e+00 0.000000e+00 0.000000e+00 0.000000e+00 1.271248e+01 -5.451088e+01 0.000000e+00 -5.451088e+01 -5.966023e-01 0.000000e+00 0.000000e+00 0.000000e+00 0.000000e+00 2.020484e+01 -4.827147e+01 0.000000e+00 -4.827147e+01 -2.120960e+01 0.000000e+00 0.000000e+00 0.000000e+00 0.000000e+00 2.513100e+01 -5.256310e+01 0.000000e+00 -5.256310e+01 -2.523330e+00 0.000000e+00 0.000000e+00 0.000000e+00 0.000000e+00 2.916472e+01 -4.333170e+01 0.000000e+00 -4.333170e+01 -2.253593e+01 0.000000e+00 0.000000e+00 0.000000e+00 0.000000e+00 2.170190e+01 3.684233e+01 0.000000e+00 3.684233e+01 7.906149e+01 0.000000e+00 0.000000e+00 0.000000e+00 0.000000e+00 1.474433e+01 2.898285e+01 0.000000e+00 2.898285e+01 7.198234e+01 0.000000e+00 0.000000e+00 0.000000e+00 0.000000e+00 2.770549e+01 3.588773e+01 0.000000e+00 3.588773e+01 1.070396e+02 0.000000e+00 0.000000e+00 0.000000e+00 0.000000e+00 8.766466e+00 1.699746e+01 0.000000e+00 1.699746e+01 9.988475e+01 0.000000e+00 0.000000e+00 0.000000e+00 0.000000e+00 7.123125e+01 -3.402303e+01 0.000000e+00 -3.402303e+01 1.862303e+01 0.000000e+00 0.000000e+00 0.000000e+00 0.000000e+00 7.267628e+01 -4.944984e+01 0.000000e+00 -4.944984e+01 7.424026e+01 0.000000e+00 0.000000e+00 0.000000e+00 0.000000e+00 5.001169e+01 -4.477455e+01 0.000000e+00 -4.477455e+01 9.395210e+01 0.000000e+00 0.000000e+00 0.000000e+00 0.000000e+00 7.217940e+01 -4.736762e+01 0.000000e+00 -4.736762e+01 1.392598e+02 0.000000e+00 0.000000e+00 0.000000e+00 0.000000e+00 4.463795e+01 -3.643202e+01 0.000000e+00 -3.643202e+01 -6.790999e+00 0.000000e+00 0.000000e+00 0.000000e+00 0.000000e+00 2.810197e+01 -2.931484e+01 0.000000e+00 -2.931484e+01 -5.883357e+01 0.000000e+00 0.000000e+00 0.000000e+00 0.000000e+00 7.409259e+01 -3.801862e+01 0.000000e+00 -3.801862e+01 1.572895e+01 0.000000e+00 0.000000e+00 0.000000e+00 0.000000e+00 8.868625e+01 -3.906149e+01 0.000000e+00 -3.906149e+01 2.216285e+02 0.000000e+00 0.000000e+00 0.000000e+00 0.000000e+00 3.631934e+00 -2.287335e+01 0.000000e+00 -2.287335e+01 7.905569e+01 0.000000e+00 0.000000e+00 0.000000e+00 0.000000e+00 3.077021e+01 -3.554742e+01 0.000000e+00 -3.554742e+01 -4.159749e+01 0.000000e+00 0.000000e+00 0.000000e+00 0.000000e+00 6.264129e+01 -4.518849e+01 0.000000e+00 -4.518849e+01 1.526188e+01 0.000000e+00 0.000000e+00 0.000000e+00 0.000000e+00 4.051998e+01 -2.000688e+01 0.000000e+00 -2.000688e+01 -4.817865e+01 0.000000e+00 0.000000e+00 0.000000e+00 0.000000e+00 5.011633e+01 -3.906178e+01 0.000000e+00 -3.906178e+01 5.417794e+00 0.000000e+00 0.000000e+00 0.000000e+00 0.000000e+00 1.086920e+01 -5.330898e+00 0.000000e+00 -5.330898e+00 -1.944965e+02 0.000000e+00 0.000000e+00 0.000000e+00 0.000000e+00 -7.377097e-01 -5.020649e+01 0.000000e+00 -5.020649e+01 2.943399e+01 0.000000e+00 0.000000e+00 0.000000e+00 0.000000e+00 1.944081e+01 -2.338625e+01 0.000000e+00 -2.338625e+01 -6.415592e+01 0.000000e+00 0.000000e+00 0.000000e+00 0.000000e+00 1.317384e+01 -4.438733e+01 0.000000e+00 -4.438733e+01 6.503253e+01 0.000000e+00 0.000000e+00 0.000000e+00 0.000000e+00 9.307027e+00 -4.609428e+01 0.000000e+00 -4.609428e+01 6.677328e+01 0.000000e+00 0.000000e+00 0.000000e+00 0.000000e+00 6.826396e+01 -4.262699e+01 0.000000e+00 -4.262699e+01 4.166866e+01 0.000000e+00 0.000000e+00 0.000000e+00 0.000000e+00 6.926389e+01 -3.976525e+01 0.000000e+00 -3.976525e+01 1.794880e+02 0.000000e+00 0.000000e+00 0.000000e+00 0.000000e+00 2.206734e+01 3.602878e+01 0.000000e+00 3.602878e+01 3.106008e+01 0.000000e+00 0.000000e+00 0.000000e+00 0.000000e+00 4.028508e+00 -1.083124e+01 0.000000e+00 -1.083124e+01 1.110604e+02 0.000000e+00 0.000000e+00 0.000000e+00 0.000000e+00 9.741231e+00 -5.330329e+01 0.000000e+00 -5.330329e+01 1.854686e+01 0.000000e+00 0.000000e+00 0.000000e+00 0.000000e+00 1.900215e+01 -5.599049e+01 0.000000e+00 -5.599049e+01 1.862205e+00 0.000000e+00 0.000000e+00 0.000000e+00 0.000000e+00 4.552912e+01 -1.362777e+01 0.000000e+00 -1.362777e+01 1.570516e+02 0.000000e+00 0.000000e+00 0.000000e+00 0.000000e+00 3.922460e+01 -9.092703e+00 0.000000e+00 -9.092703e+00 1.739299e+02 0.000000e+00 0.000000e+00 0.000000e+00 0.000000e+00 2.208840e+01 -5.684980e+01 0.000000e+00 -5.684980e+01 1.814664e+01 0.000000e+00 0.000000e+00 0.000000e+00 0.000000e+00 3.065896e+01 -5.176065e+01 0.000000e+00 -5.176065e+01 -8.991788e-01 0.000000e+00 0.000000e+00 0.000000e+00 0.000000e+00 2.422449e+01 -3.123077e+01 0.000000e+00 -3.123077e+01 -6.135967e+01 0.000000e+00 0.000000e+00 0.000000e+00 0.000000e+00 7.152082e+01 -5.213798e+01 0.000000e+00 -5.213798e+01 6.429794e+01 0.000000e+00 0.000000e+00 0.000000e+00 0.000000e+00 1.655512e+01 -2.335378e+01 0.000000e+00 -2.335378e+01 1.221650e+02 0.000000e+00 0.000000e+00 0.000000e+00 0.000000e+00 5.995110e+01 -4.045383e+01 0.000000e+00 -4.045383e+01 1.836928e+01 0.000000e+00 0.000000e+00 0.000000e+00 0.000000e+00 3.013335e+01 -2.796792e+01 0.000000e+00 -2.796792e+01 -5.839258e+01 0.000000e+00 0.000000e+00 0.000000e+00 0.000000e+00 4.383696e+01 -3.856638e+01 0.000000e+00 -3.856638e+01 -2.505960e+01 0.000000e+00 0.000000e+00 0.000000e+00 0.000000e+00 7.253081e+01 -5.558197e+01 0.000000e+00 -5.558197e+01 9.761520e+01 0.000000e+00 0.000000e+00 0.000000e+00 0.000000e+00 5.703970e+01 -5.225352e+01 0.000000e+00 -5.225352e+01 2.801394e+01 0.000000e+00 0.000000e+00 0.000000e+00 0.000000e+00 3.367787e+01 -3.791009e+01 0.000000e+00 -3.791009e+01 -1.529413e+01 0.000000e+00 0.000000e+00 0.000000e+00 0.000000e+00 3.513432e+01 -4.830521e+01 0.000000e+00 -4.830521e+01 -7.835713e+00 0.000000e+00 0.000000e+00 0.000000e+00 0.000000e+00 4.883096e+01 -4.431462e+01 0.000000e+00 -4.431462e+01 -5.993290e+00 0.000000e+00 0.000000e+00 0.000000e+00 0.000000e+00 6.580458e+01 -5.371573e+01 0.000000e+00 -5.371573e+01 4.626652e+01 0.000000e+00 0.000000e+00 0.000000e+00 0.000000e+00 5.753099e+01 -4.645741e+01 0.000000e+00 -4.645741e+01 5.571136e+01 0.000000e+00 0.000000e+00 0.000000e+00 0.000000e+00 5.769304e+01 -3.696390e+01 0.000000e+00 -3.696390e+01 1.421368e+02 0.000000e+00 0.000000e+00 0.000000e+00 0.000000e+00 4.663181e+01 -3.022814e+01 0.000000e+00 -3.022814e+01 1.674784e+02 0.000000e+00 0.000000e+00 0.000000e+00 0.000000e+00 3.167531e+01 1.278698e+01 0.000000e+00 1.278698e+01 1.350437e+02 0.000000e+00 0.000000e+00 0.000000e+00 0.000000e+00 4.124504e+00 7.123388e+00 0.000000e+00 7.123388e+00 8.228127e+01 0.000000e+00 0.000000e+00 0.000000e+00 0.000000e+00 6.766955e+01 -5.032295e+01 0.000000e+00 -5.032295e+01 1.242596e+02 0.000000e+00 0.000000e+00 0.000000e+00 0.000000e+00 5.607480e+01 -4.525461e+01 0.000000e+00 -4.525461e+01 1.166328e+02 0.000000e+00 0.000000e+00 0.000000e+00 0.000000e+00 4.869039e+01 -3.937471e+01 0.000000e+00 -3.937471e+01 1.438265e+02 0.000000e+00 0.000000e+00 0.000000e+00 0.000000e+00 7.494712e+00 -5.632923e+01 0.000000e+00 -5.632923e+01 4.392429e+01 0.000000e+00 0.000000e+00 0.000000e+00 0.000000e+00 5.332568e+01 -4.870778e+01 0.000000e+00 -4.870778e+01 8.797781e+00 0.000000e+00 0.000000e+00 0.000000e+00 0.000000e+00 3.985675e+01 -4.344987e+01 0.000000e+00 -4.344987e+01 1.157533e+00 0.000000e+00 0.000000e+00 0.000000e+00 0.000000e+00 4.346161e+01 -4.522960e+01 0.000000e+00 -4.522960e+01 1.605909e+01 0.000000e+00 0.000000e+00 0.000000e+00 0.000000e+00 3.904264e+01 3.578403e+01 0.000000e+00 3.578403e+01 1.468383e+02 0.000000e+00 0.000000e+00 0.000000e+00 0.000000e+00 2.606658e+01 6.540980e+00 0.000000e+00 6.540980e+00 1.500219e+02 0.000000e+00 0.000000e+00 0.000000e+00 0.000000e+00 9.390275e+00 -5.028555e+01 0.000000e+00 -5.028555e+01 3.708951e+01 0.000000e+00 0.000000e+00 0.000000e+00 0.000000e+00 1.905237e+01 -5.926559e+01 0.000000e+00 -5.926559e+01 2.879622e+01 0.000000e+00 0.000000e+00 0.000000e+00 0.000000e+00 4.427451e+01 -5.531860e+01 0.000000e+00 -5.531860e+01 1.793377e+01 0.000000e+00 0.000000e+00 0.000000e+00 0.000000e+00 1.779472e+01 -2.129885e+01 0.000000e+00 -2.129885e+01 1.148793e+02 0.000000e+00 0.000000e+00 0.000000e+00 0.000000e+00 2.352576e+01 2.825648e+01 0.000000e+00 2.825648e+01 9.838437e+01 0.000000e+00 0.000000e+00 0.000000e+00 0.000000e+00 3.010161e+01 -3.710991e+01 0.000000e+00 -3.710991e+01 -2.936417e+01 0.000000e+00 0.000000e+00 0.000000e+00 0.000000e+00 1.796766e+01 4.053053e+01 0.000000e+00 4.053053e+01 5.044178e+01 0.000000e+00 0.000000e+00 0.000000e+00 0.000000e+00 5.966752e+01 -5.452797e+01 0.000000e+00 -5.452797e+01 8.264361e+01 0.000000e+00 0.000000e+00 0.000000e+00 0.000000e+00 5.756970e+01 -4.769994e+01 0.000000e+00 -4.769994e+01 8.327847e+01 0.000000e+00 0.000000e+00 0.000000e+00 0.000000e+00 2.159275e+01 -5.762578e+01 0.000000e+00 -5.762578e+01 5.102033e+01 0.000000e+00 0.000000e+00 0.000000e+00 0.000000e+00 2.445111e+01 -3.167504e+00 0.000000e+00 -3.167504e+00 1.295847e+02 0.000000e+00 0.000000e+00 0.000000e+00 0.000000e+00 2.065315e+01 -5.173050e+01 0.000000e+00 -5.173050e+01 1.927438e+01 0.000000e+00 0.000000e+00 0.000000e+00 0.000000e+00 5.178432e+01 -4.626788e+01 0.000000e+00 -4.626788e+01 3.330473e+01 0.000000e+00 0.000000e+00 0.000000e+00 0.000000e+00 7.721500e+01 -4.631714e+01 0.000000e+00 -4.631714e+01 3.265721e+01 0.000000e+00 0.000000e+00 0.000000e+00 0.000000e+00 6.890977e+01 -2.847027e+01 0.000000e+00 -2.847027e+01 1.688425e+02 0.000000e+00 0.000000e+00 0.000000e+00 0.000000e+00 2.727375e+01 -2.056871e+01 0.000000e+00 -2.056871e+01 1.470187e+02 0.000000e+00 0.000000e+00 0.000000e+00 0.000000e+00 2.613172e+01 -3.956542e+01 0.000000e+00 -3.956542e+01 8.653083e+01 0.000000e+00 0.000000e+00 0.000000e+00 0.000000e+00 4.182587e+01 -4.735628e+01 0.000000e+00 -4.735628e+01 -5.760929e+00 0.000000e+00 0.000000e+00 0.000000e+00 0.000000e+00 6.575856e+01 -4.450269e+01 0.000000e+00 -4.450269e+01 2.868600e+01 0.000000e+00 0.000000e+00 0.000000e+00 0.000000e+00 2.267470e+01 -4.916407e+01 0.000000e+00 -4.916407e+01 4.333710e+01 0.000000e+00 0.000000e+00 0.000000e+00 0.000000e+00 2.154669e+01 -4.551285e+01 0.000000e+00 -4.551285e+01 9.435373e+01 0.000000e+00 0.000000e+00 0.000000e+00 0.000000e+00 3.305983e+01 -6.005066e+01 0.000000e+00 -6.005066e+01 3.944279e+01 0.000000e+00 0.000000e+00 0.000000e+00 0.000000e+00 3.657619e+01 -3.993181e+01 0.000000e+00 -3.993181e+01 1.219554e+02 0.000000e+00 0.000000e+00 0.000000e+00 0.000000e+00 3.538668e+01 -5.771445e+01 0.000000e+00 -5.771445e+01 6.581888e+01 0.000000e+00 0.000000e+00 0.000000e+00 0.000000e+00 2.686532e+01 -2.660602e+01 0.000000e+00 -2.660602e+01 -4.965766e+01 0.000000e+00 0.000000e+00 0.000000e+00 0.000000e+00 3.122079e+01 -5.009290e+01 0.000000e+00 -5.009290e+01 1.035753e+01 0.000000e+00 0.000000e+00 0.000000e+00 0.000000e+00 1.760902e+01 1.015491e+01 0.000000e+00 1.015491e+01 1.272236e+02 0.000000e+00 0.000000e+00 0.000000e+00 0.000000e+00   </DataArray>
  <DataArray type="Float64" Name="IST_PrincipalStressTensor" NumberOfComponents="3" format="ascii">-1.421085e-14 -2.185648e+01 -1.781899e+02 0.000000e+00 -7.105053e+00 -1.589057e+02 7.560777e-01 -6.394885e-14 -1.416648e+02 5.935609e+00 3.552714e-14 -1.253710e+02 1.082205e+01 -2.131628e-14 -1.104431e+02 1.591774e+01 -3.552714e-15 -9.588643e+01 2.159395e+01 -1.776357e-14 -8.262459e+01 2.770355e+01 -3.552714e-15 -6.999546e+01 3.444672e+01 -9.769963e-15 -5.795451e+01 4.172326e+01 -1.554312e-15 -4.638248e+01 4.946020e+01 0.000000e+00 -3.452901e+01 5.806483e+01 -5.329071e-15 -2.339097e+01 6.736136e+01 -3.552714e-15 -1.232287e+01 7.726578e+01 -1.136868e-13 -2.642083e-01 8.831232e+01 1.164968e+01 -2.131628e-14 1.001538e+02 2.519758e+01 -7.105427e-15 1.133627e+02 3.976247e+01 -7.105427e-15 1.287064e+02 5.472629e+01 -2.131628e-14 1.459476e+02 7.353078e+01 0.000000e+00 1.667624e+02 9.419346e+01 0.000000e+00 1.930774e+02 1.191290e+02 1.421085e-14 2.292862e+02 1.525503e+02 0.000000e+00 2.869649e+02 1.975527e+02 0.000000e+00 4.101498e+02 2.706439e+02 -2.842171e-14 7.649930e+02 4.163457e+02 -5.684342e-14 6.488230e+01 2.025707e+00 2.486900e-14 5.697199e+01 1.776357e-14 -1.191480e+00 4.437153e+01 1.776357e-15 -1.173769e+00 2.461035e+01 -8.881784e-16 -9.051294e-01 3.003252e+01 7.214823e-01 -2.309264e-14 5.525627e+01 1.794347e+00 -2.486900e-14 5.954640e+01 3.461390e+00 1.065814e-14 1.670245e+01 -8.881784e-16 -1.727727e+00 4.798240e+00 -8.881784e-16 -1.156722e+01 1.653635e+00 -8.881784e-16 -1.002941e+01 -3.222977e-13 -3.222977e-13 -1.786909e+00 1.841719e-02 1.620926e-14 -3.895868e+00 1.068898e+00 -8.881784e-16 -5.584021e+00 2.012087e+00 -4.718448e-16 -1.474674e+00 5.586880e+00 -8.881784e-16 -7.870257e-01 3.451408e+00 -3.330669e-16 -6.178342e-01 1.460454e+00 -5.551115e-17 -2.666207e-01 1.349128e+00 -3.053113e-16 -7.723429e-01 1.439934e+00 -8.326673e-17 -8.560194e-01 2.888299e+00 1.665335e-15 -7.726793e-02 4.259753e+00 -4.440892e-16 -1.665326e+00 9.154606e-01 1.332268e-15 -7.619938e+00 9.273541e-01 -1.598721e-14 -3.787257e+01 2.652548e+00 -3.552714e-15 -7.824869e+01 6.224361e+00 -1.421085e-14 -1.066913e+02 9.352768e+00 -1.065814e-14 -8.276683e+01 7.090657e+00 -3.552714e-15 -4.331945e+01 2.024875e-01 -3.996803e-15 -1.150810e+01 2.022922e+00 -5.329071e-15 -3.453225e+01 2.779092e-01 3.108624e-15 -1.091213e+01 4.394885e+00 5.329071e-15 -3.970501e+01 5.030536e+00 3.330669e-16 -5.964953e+00 6.161361e+00 -1.221245e-15 -4.119219e+00 7.051472e+00 0.000000e+00 -1.933769e+00 7.395083e+00 3.073611e-01 8.881784e-16 6.933141e+00 1.828871e+00 0.000000e+00 9.521032e+00 5.773160e-15 -2.251296e-01 1.440730e+01 -8.881784e-16 -3.735659e+00 2.141057e+01 4.440892e-16 -1.055071e+01 2.920075e+01 -4.440892e-15 -1.686884e+01 3.983341e+01 8.881784e-16 -2.027227e+01 4.431565e+01 -2.664535e-15 -2.328905e+01 4.524270e+01 8.881784e-16 -2.536299e+01 4.311520e+01 0.000000e+00 -2.630171e+01 3.850003e+01 -5.773160e-15 -2.778818e+01 3.386806e+01 -5.884182e-15 -3.102241e+01 3.154096e+01 -4.218847e-15 -3.652275e+01 3.125009e+01 -8.881784e-15 -4.241545e+01 2.966772e+01 -5.329071e-15 -4.531702e+01 2.640264e+01 -7.105427e-15 -4.357251e+01 2.181791e+01 8.881784e-16 -3.840995e+01 1.697664e+01 -5.329071e-15 -3.298749e+01 1.122436e+01 -2.664535e-15 -2.690959e+01 5.546892e+00 -1.776357e-15 -2.034015e+01 7.416997e-01 -1.776357e-15 -1.479344e+01 0.000000e+00 -3.074750e+00 -8.911668e+00 -4.440892e-16 -2.224302e+00 -7.193589e+00 9.256542e-01 -8.881784e-16 -7.319233e+00 3.303127e+00 -8.881784e-16 -7.105197e+00 7.543321e-01 -1.665335e-16 -1.667370e+00 0.000000e+00 -3.692756e+01 -1.825803e+02 -4.263256e-14 -1.296327e+01 -1.687839e+02 -5.684342e-14 -9.935345e+00 -1.700649e+02 8.526513e-14 -5.859659e+00 -1.621092e+02 7.105427e-15 -2.610232e+00 -1.501605e+02 1.293565e-02 1.396927e-11 -1.453209e+02 3.416262e+00 -5.684342e-14 -1.331568e+02 8.303192e+00 -1.421085e-14 -1.176542e+02 1.328437e+01 -3.552714e-15 -1.030005e+02 1.165885e+01 1.065814e-14 -1.065829e+02 1.475213e+01 -1.776357e-14 -9.934102e+01 1.863638e+01 -3.552714e-15 -8.893041e+01 2.470289e+01 -7.105427e-15 -7.660104e+01 3.094367e+01 -1.065814e-14 -6.374029e+01 3.794870e+01 -4.440892e-15 -5.195653e+01 3.578315e+01 -1.421085e-14 -5.482467e+01 3.955966e+01 -2.664535e-15 -4.902568e+01 4.557361e+01 -6.661338e-15 -4.062243e+01 5.363712e+01 -7.105427e-15 -2.881684e+01 6.262472e+01 -3.552714e-15 -1.791031e+01 5.985971e+01 -5.329071e-15 -2.058199e+01 6.430005e+01 -3.552714e-15 -1.501455e+01 7.229080e+01 -7.105427e-15 -6.579893e+00 8.258134e+01 5.885791e+00 -1.065814e-14 9.416542e+01 1.804979e+01 -7.105427e-15 9.032777e+01 1.492824e+01 0.000000e+00 9.633074e+01 2.159332e+01 0.000000e+00 1.065319e+02 3.247578e+01 0.000000e+00 1.088185e+02 3.598548e+01 0.000000e+00 1.208683e+02 4.679740e+01 -7.105427e-15 1.368566e+02 6.403152e+01 -1.421085e-14 1.561141e+02 8.305547e+01 0.000000e+00 1.493083e+02 7.841233e+01 0.000000e+00 1.573054e+02 8.822273e+01 1.421085e-14 1.791122e+02 1.059011e+02 0.000000e+00 2.096813e+02 1.338492e+02 -1.421085e-14 2.541330e+02 1.734587e+02 -2.842171e-14 3.345672e+02 2.293039e+02 -2.842171e-14 2.737222e+02 2.093339e+02 0.000000e+00 3.026348e+02 2.383889e+02 2.842171e-14 5.396786e+02 3.303133e+02 0.000000e+00 1.016068e+02 1.350031e-13 -4.726008e-01 6.070556e+01 -1.065814e-14 -3.621186e+00 6.117825e+01 -2.131628e-14 -5.772380e-01 5.129178e+01 1.421085e-14 -9.768945e-01 3.582675e+01 -7.105427e-15 -1.825114e+00 3.605088e+01 -3.552714e-15 -3.918901e+00 4.368396e+01 3.019485e+00 -8.881784e-15 4.288819e+01 1.145645e+00 -2.131628e-14 3.304587e+01 -1.598721e-14 -7.160818e-01 7.380946e+00 4.440892e-16 -4.404372e+00 6.456217e-01 2.220446e-16 -4.233816e+00 0.000000e+00 -8.023013e-01 -6.504221e+00 2.734019e+00 4.440892e-16 -1.358906e+01 6.859677e-01 8.881784e-16 -4.956522e+00 4.345105e-01 6.661338e-16 -3.617089e+00 9.291375e-01 -8.881784e-16 -5.808780e+00 5.141905e-02 3.996803e-15 -4.361294e+00 1.108012e+00 -3.330669e-16 -3.556269e+00 3.878505e+00 0.000000e+00 -9.306199e-01 5.162056e+00 8.881784e-16 -5.721918e-01 2.098549e+00 -1.065814e-14 -3.773589e+01 1.228271e+00 7.105427e-15 -5.805668e+01 1.530967e+00 -2.775558e-16 -2.284706e-01 9.151166e-01 -8.326673e-17 -3.579180e-01 2.939505e+00 -7.251144e-16 -2.897868e+00 1.558523e+00 -8.881784e-16 -5.717208e+00 3.867678e-01 2.664535e-15 -1.977331e+01 8.637882e-01 6.039613e-14 -5.253934e+01 4.146048e+00 1.065814e-14 -9.597855e+01 -2.451372e-13 -1.864462e-01 -6.863560e+01 8.218825e+00 -2.842171e-14 -1.033881e+02 -2.486900e-14 -3.020667e-01 -5.164290e+01 5.710595e+00 3.330669e-16 -3.364829e+00 3.954091e+00 -7.771561e-16 -5.181001e+00 7.156821e+00 -1.110223e-15 -1.644009e+00 8.416953e+00 8.881784e-16 -2.956741e-01 1.046533e+01 1.361832e+00 -1.332268e-15 1.254592e+01 2.539979e+00 -8.881784e-16 1.619568e+01 1.183565e+00 0.000000e+00 2.466270e+01 -8.881784e-16 -2.429379e+00 3.241688e+01 -3.552714e-15 -7.789793e+00 4.316950e+01 3.552714e-15 -1.197796e+01 4.647323e+01 0.000000e+00 -1.727860e+01 4.638056e+01 -5.329071e-15 -2.107922e+01 4.447217e+01 1.776357e-15 -2.502579e+01 4.166675e+01 -1.154632e-14 -2.789731e+01 3.856596e+01 -7.993606e-15 -3.092491e+01 3.579880e+01 -7.771561e-15 -3.519014e+01 3.309215e+01 -3.996803e-15 -4.103612e+01 2.916976e+01 2.664535e-15 -4.633177e+01 2.385975e+01 -1.776357e-15 -4.883608e+01 1.796612e+01 0.000000e+00 -4.674942e+01 1.247478e+01 -1.776357e-15 -4.164210e+01 7.571306e+00 -3.552714e-15 -3.619043e+01 2.650203e+00 -3.552714e-15 -2.945476e+01 3.552714e-15 -1.225878e+00 -2.209678e+01 0.000000e+00 -3.992066e+00 -1.493697e+01 0.000000e+00 -4.852048e+00 -8.355512e+00 0.000000e+00 -2.236503e+00 -6.362268e+00 1.332703e+00 -2.220446e-16 -6.102785e+00 1.190006e+02 1.600297e+01 7.105427e-15 7.815970e-14 -2.877673e+00 -1.536535e+02 2.518742e+00 -2.842171e-14 -1.370771e+02 7.256415e+00 -3.552714e-14 -1.212483e+02 2.017126e+01 -2.131628e-14 -8.574581e+01 1.749244e+01 3.552714e-15 -9.235753e+01 2.299911e+01 -1.065814e-14 -7.955019e+01 2.904961e+01 -1.243450e-14 -6.683145e+01 4.709409e+01 -1.332268e-15 -3.728494e+01 4.311806e+01 -1.298961e-14 -4.327991e+01 5.140845e+01 -1.154632e-14 -3.149262e+01 7.427823e+01 3.552714e-15 -3.250682e+00 6.929885e+01 -7.105427e-15 -9.235710e+00 7.962796e+01 2.973487e+00 0.000000e+00 1.023278e+02 2.870268e+01 7.105427e-15 1.158468e+02 4.319400e+01 0.000000e+00 1.323278e+02 5.942643e+01 7.105427e-15 1.819693e+02 1.121908e+02 0.000000e+00 1.693623e+02 9.972998e+01 1.421085e-14 1.959754e+02 1.261064e+02 0.000000e+00 2.318414e+02 1.626350e+02 2.842171e-14 4.265450e+02 2.739316e+02 0.000000e+00 3.438505e+02 2.645669e+02 2.842171e-14 8.080207e+01 4.618528e-14 -6.223797e-01 5.885426e+01 -1.030287e-13 -1.136636e-01 4.403333e+01 -3.375078e-14 -6.037214e-01 3.529113e+01 -3.552714e-15 -3.020000e+00 1.319839e+01 -4.440892e-16 -3.024736e+00 4.440892e-16 -1.695207e+00 -6.671085e+00 2.412186e-01 0.000000e+00 -4.700140e+00 2.209525e-01 2.220446e-16 -3.928294e+00 1.602630e+00 -2.220446e-16 -1.977660e+00 1.717630e+00 0.000000e+00 -6.230474e-02 1.858696e+00 -8.881784e-16 -1.391896e+01 -2.486900e-14 -3.706361e-01 -6.460147e+01 4.263256e-14 -1.337709e+00 -7.519912e+01 5.387545e+00 -1.243450e-14 -4.736139e+01 3.246419e+01 -1.243450e-14 -6.072797e+01 2.488942e+02 1.833558e+02 -2.842171e-14 5.083110e+01 0.000000e+00 -2.666701e-01 3.727025e+01 -8.881784e-15 -1.383534e+00 1.436037e+00 -2.775558e-16 -4.323786e-01 9.470330e+00 -1.421085e-14 -1.138478e+02 5.143573e+00 2.842171e-14 -1.289500e+02 2.597412e+01 -5.329071e-15 -7.317845e+01 5.560759e+01 1.776357e-15 -2.601384e+01 8.476956e+01 8.905650e+00 -2.486900e-14 1.410037e+02 6.902922e+01 0.000000e+00 1.237423e+02 5.076129e+01 1.421085e-14 2.135832e+02 1.433002e+02 2.842171e-14 6.892492e+01 5.507903e-02 7.815970e-14 2.533182e+01 2.664535e-15 -2.176930e+00 1.842555e+00 3.330669e-16 -2.589759e-01 1.072769e+00 -2.220446e-16 -2.950862e+00 2.020294e+00 -1.776357e-15 -2.450465e+01 -2.131628e-14 -1.766350e+00 -7.348105e+01 2.951639e+00 -2.131628e-14 -1.380373e+02 7.262368e+00 -3.552714e-14 -1.219411e+02 2.638337e+01 0.000000e+00 -7.352356e+01 2.025702e+01 -2.131628e-14 -8.615839e+01 4.985375e+00 -2.842171e-14 -1.301321e+02 7.029476e+00 0.000000e+00 -1.254824e+02 2.328428e+01 -7.105427e-15 -7.953296e+01 2.171744e+01 -1.065814e-14 -8.265513e+01 2.353456e+01 -1.065814e-14 -7.648144e+01 1.722892e+01 3.552714e-15 -9.246313e+01 1.983124e+01 -1.065814e-14 -8.905181e+01 5.629681e+01 1.776357e-15 -2.672017e+01 4.766553e+01 -3.108624e-15 -3.819244e+01 2.762880e+02 1.740272e+02 0.000000e+00 5.165760e+01 -3.552714e-15 -3.219087e+01 4.972323e+01 -1.509903e-14 -3.481995e+01 5.355501e+01 -7.105427e-15 -2.910507e+01 4.397099e+01 -1.368697e-15 -4.392819e+01 4.437858e+01 -1.221245e-14 -4.085189e+01 7.508540e+01 -2.486900e-14 -4.132714e+00 8.587135e+01 7.896163e+00 2.131628e-14 8.038018e+01 1.736810e+00 -3.552714e-15 7.703698e+01 -1.527667e-13 -8.080830e-01 8.302142e+01 5.287635e+00 -2.131628e-14 7.006044e+01 -7.105427e-15 -1.032361e+01 7.071523e+01 7.105427e-15 -6.986084e+00 1.048025e+02 2.809323e+01 0.000000e+00 1.415662e+02 6.737846e+01 0.000000e+00 1.188305e+02 4.240661e+01 0.000000e+00 1.337425e+02 5.827604e+01 1.421085e-14 1.371836e+02 6.335218e+01 1.421085e-14 2.219171e+02 1.365797e+02 -1.421085e-14 1.901265e+02 1.089180e+02 -1.421085e-14 1.259939e+02 4.992732e+01 0.000000e+00 1.184243e+02 4.589776e+01 -7.105427e-15 1.260276e+02 5.403951e+01 0.000000e+00 2.058306e+02 1.222452e+02 1.421085e-14 1.848469e+02 1.150609e+02 1.421085e-14 2.002981e+02 1.290194e+02 1.421085e-14 1.767268e+02 9.697508e+01 0.000000e+00 1.707244e+02 1.024380e+02 1.421085e-14 2.462889e+02 1.557906e+02 -2.842171e-14 2.200408e+02 1.463291e+02 4.263256e-14 2.315067e+02 1.602211e+02 0.000000e+00 7.005824e+01 -6.394885e-14 -1.245133e+00 4.695986e+02 2.699993e+02 -2.842171e-14 5.330456e+01 -1.065814e-14 -3.125928e+00 8.465853e+01 1.626033e+00 2.131628e-14 8.039031e+01 -6.750156e-14 -2.129033e+00 1.082017e+02 6.311108e+00 2.131628e-14 9.625936e+01 -1.776357e-14 -2.293324e+00 4.207972e+02 2.483519e+02 -2.842171e-14 3.909969e+02 2.012196e+02 0.000000e+00 6.103348e+01 2.131628e-14 -2.175857e+00 5.764099e+01 -1.421085e-14 -2.761153e+00 1.257049e+02 7.105427e-15 -4.579952e+01 3.034506e+01 -2.664535e-15 -7.880748e+00 4.142831e+01 -3.552714e-15 -4.825451e+00 3.931925e+01 5.329071e-15 -4.266994e+00 3.673088e+01 5.329071e-15 -4.726613e+00 1.154890e+00 -8.326673e-17 -1.567554e+00 4.408467e+01 -1.243450e-14 -4.158787e+00 2.159683e+01 -8.881784e-16 -8.437013e+00 1.704439e+00 -1.110223e-16 -2.808469e+00 2.960116e+00 3.330669e-16 -3.626537e+00 4.081926e+00 -1.665335e-15 -5.160870e+00 2.947048e+00 -2.220446e-16 -5.068523e+00 8.975067e-01 -2.220446e-16 -3.356051e+00 -5.684342e-14 -3.074966e+00 -1.560460e+02 2.498285e+00 -3.885781e-16 -3.395933e+00 3.154751e+00 2.775558e-17 -3.431888e+00 1.516817e+00 1.110223e-16 -3.569416e+00 1.358570e+00 -5.551115e-16 -4.063405e+00 4.885641e+00 0.000000e+00 -3.582997e+01 1.292378e+00 -9.714451e-17 -1.581330e+00 5.716939e-02 0.000000e+00 -1.644126e+00 0.000000e+00 -9.112477e-01 -1.872314e+00 2.812951e+00 -3.330669e-16 -3.745277e+00 3.655566e+00 -4.440892e-15 -2.334960e+01 7.242323e+00 -3.552714e-15 -4.695935e+01 1.175324e+00 -7.632783e-17 -1.060763e+00 -1.110223e-16 -4.578449e-01 -2.524961e+00 1.724235e-01 -7.771561e-16 -2.859296e+00 1.044780e+01 -7.105427e-15 -6.686644e+01 1.928322e+01 5.329071e-15 -6.562579e+01 1.621388e+00 0.000000e+00 -1.343534e+01 6.398357e+00 -3.552714e-15 -1.449189e+01 9.689062e+00 -7.105427e-15 -5.803857e+01 9.682370e+00 -3.552714e-15 -4.320697e+01 8.156235e+00 -3.552714e-15 -4.953934e+01 2.011445e+01 3.552714e-15 -5.750803e+01 1.272082e+01 -1.421085e-14 -6.173952e+01 1.809965e+01 -8.881784e-16 -4.096784e+01 2.477367e+00 1.065814e-14 -3.430478e+01 3.336925e-01 8.455459e-13 -1.469500e+02 1.077528e+00 -1.350031e-13 -1.501154e+02 2.481323e+00 2.842171e-14 -1.414587e+02 1.116446e+02 3.540956e+01 7.105427e-15 1.052743e+02 3.164615e+01 -7.105427e-15 1.117674e+02 3.875801e+01 -1.421085e-14 6.213335e+02 2.522479e+02 -5.684342e-14 4.662937e-14 -1.515706e-02 -6.938813e+00 4.123651e-01 -1.387779e-16 -1.144056e+00 3.358885e+00 -1.110223e-15 -7.271936e+00 -7.105427e-15 -4.395078e+00 -8.475500e+01 3.470890e+00 -8.326673e-16 -4.937951e+00 3.300781e+01 3.552714e-15 -6.138057e+01 5.862269e+00 -2.220446e-16 -1.918489e+00 5.308705e+00 2.220446e-16 -5.450111e-01 3.932433e+00 2.786288e-01 0.000000e+00 5.749577e+00 -2.220446e-16 -2.090604e+00 2.064208e+01 -3.108624e-15 -1.230168e+01 2.980721e+01 3.552714e-15 -1.609563e+01 3.902848e+01 -7.105427e-15 -1.997321e+01 4.569584e+01 3.552714e-15 -2.339941e+01 3.718608e+01 -6.661338e-15 -2.830768e+01 3.109303e+01 -3.552714e-15 -3.944883e+01 2.936101e+01 5.329071e-15 -4.313186e+01 2.667913e+01 -6.217249e-15 -4.254622e+01 2.241758e+01 2.664535e-15 -3.780566e+01 1.203889e+01 -2.664535e-15 -2.518884e+01 6.685794e+00 -1.332268e-15 -1.844987e+01 1.967388e+00 4.440892e-16 -1.258853e+01 0.000000e+00 -1.794236e+00 -6.007209e+00 4.100133e-01 6.661338e-16 -6.045291e+00 2.544793e+02 -1.421085e-14 -6.619295e+01 1.738711e+02 1.331180e+01 0.000000e+00 1.196850e+02 -1.421085e-14 -8.733774e+00 2.130404e+00 4.440892e-16 -3.773561e+00 1.499185e+01 7.105427e-15 -6.825404e+01 2.633751e+02 3.120930e+01 -5.684342e-14 6.394885e-14 -1.255036e+01 -1.785358e+02 3.137913e+01 1.776357e-15 -7.375824e+00 4.767652e+00 -2.842171e-14 -1.331482e+02 1.249201e+01 -3.197442e-14 -1.067064e+02 5.682976e+01 1.776357e-15 -2.368166e+01 6.089118e+01 3.552714e-15 -2.108372e+01 2.959612e+01 -3.552714e-15 -6.684053e+01 2.951115e+00 2.220446e-16 -3.581979e+00 8.660510e+01 1.114044e+01 -7.105427e-15 9.179719e+01 1.427307e+01 0.000000e+00 2.760216e+01 5.329071e-15 -7.010291e+01 1.468795e+02 7.228631e+01 1.421085e-14 1.523313e+02 7.664028e+01 1.421085e-14 4.357018e+02 1.453885e+02 5.684342e-14 6.746115e+01 -1.065814e-14 -2.248545e+00 5.216707e+02 1.933870e+02 -2.842171e-14 5.099396e+01 -3.552714e-15 -3.517753e+00 4.688929e+01 -1.421085e-14 -4.285929e+00 1.844904e+02 1.421085e-14 -1.817775e+01 2.523564e+02 1.753435e+02 2.842171e-14 3.127568e+02 1.951486e+02 2.842171e-14 4.618274e+01 -3.552714e-15 -4.523712e+00 4.163385e+01 9.730988e-01 8.881784e-15 5.503441e+00 -3.552714e-15 -5.337579e+01 1.259783e+01 -3.552714e-15 -7.140062e+01 4.601090e+01 -1.421085e-14 -1.616619e+00 4.082893e+01 -7.105427e-15 -3.499230e+00 2.181044e+01 -1.776357e-15 -8.264453e+00 9.273764e+00 -1.776357e-15 -2.301809e+01 6.741526e+00 -8.881784e-16 -4.915559e+00 1.728465e-01 -7.771561e-16 -2.291184e+00 2.746038e+00 3.330669e-16 -3.621421e+00 3.923142e+00 1.065814e-14 -9.637735e+01 9.240015e+00 -1.421085e-14 -7.848189e+01 1.211478e+01 -3.552714e-15 -3.308815e+01 9.837184e+00 -3.552714e-14 -1.141909e+02 1.607962e+01 -3.552714e-15 -5.635734e+01 2.512788e+02 3.970328e+01 -1.421085e-14 8.687129e+00 1.421085e-14 -1.176586e+02 1.683061e+01 1.776357e-15 -5.914613e+01 9.918461e+00 -1.421085e-14 -1.103174e+02 1.496745e+01 -8.881784e-15 -5.061748e+01 1.614524e+01 1.776357e-15 -3.451543e+01 8.109366e+00 -1.065814e-14 -9.424153e+01 3.448812e+00 -3.330669e-16 -6.026959e+00 3.381153e+01 -1.776357e-15 -5.811883e+01 3.652605e+01 -1.776357e-15 -5.499806e+01 6.654842e-01 -8.881784e-16 -4.848314e+00 2.398423e+00 -2.220446e-16 -6.319217e+00 0.000000e+00 -2.647097e+00 -4.938425e+00 -1.776357e-15 -2.312795e+00 -1.329634e+01 4.440892e-16 -1.547940e+00 -8.195266e+00 1.355841e-01 8.881784e-15 -2.021800e+01 3.907638e+00 -2.664535e-15 -2.726462e+01 1.302678e+01 3.552714e-15 -4.073432e+01 1.719671e+01 -2.664535e-15 -3.119787e+01 1.842572e+01 -3.552714e-15 -4.479599e+01 2.220910e+01 -2.664535e-15 -3.821049e+01 2.458260e+01 8.881784e-16 -4.524142e+01 3.093634e+01 -4.440892e-16 -4.216094e+01 3.866152e+01 -1.776357e-15 -3.238404e+01 3.316351e+01 -3.108624e-15 -3.348854e+01 4.320758e+01 0.000000e+00 -2.490498e+01 4.210587e+01 8.881784e-16 -2.532324e+01 4.487738e+01 -3.552714e-15 -1.587812e+01 4.442182e+01 -2.664535e-15 -2.189957e+01 4.070636e+01 -1.776357e-15 -1.217628e+01 3.180116e+01 -2.664535e-15 -9.248786e+00 1.472973e+01 0.000000e+00 -1.982014e+00 3.144388e+00 -4.440892e-16 -4.729297e+00 1.267389e+01 2.664535e-15 -6.646845e+00 8.607865e+00 4.440892e-15 -7.854435e-02 7.089672e+00 -4.440892e-16 -1.290504e+00 1.033506e+01 -5.329071e-15 -4.825041e+01 4.756529e+00 -7.771561e-16 -2.819700e+00 3.096685e+01 -1.776357e-14 -6.396858e+01 2.326791e+01 -3.552714e-15 -4.955948e+00 4.468646e+01 -1.243450e-14 -2.041600e+01 4.093577e+01 5.329071e-15 -2.839869e+01 3.550647e+01 2.886580e-15 -3.731773e+01 8.165164e+00 -8.881784e-15 -3.414151e+01 4.440892e-16 -3.420454e+00 -6.936382e+00 4.348476e+00 -1.387779e-15 -3.369224e+00 -7.105427e-15 -7.423505e+00 -1.660712e+02 1.553837e+00 8.526513e-14 -1.687885e+02 1.700592e-02 8.611778e-12 -1.590803e+02 1.455469e+01 -1.065814e-14 -9.935248e+01 1.316456e+01 -1.776357e-14 -1.029306e+02 1.636217e+01 7.105427e-15 -9.578078e+01 4.023311e+01 -5.773160e-15 -4.936020e+01 3.735488e+01 -1.065814e-14 -5.206417e+01 3.978231e+01 2.664535e-15 -4.650360e+01 6.556083e+01 -3.552714e-15 -1.572352e+01 6.106713e+01 -1.065814e-14 -1.830714e+01 6.596917e+01 0.000000e+00 -1.280482e+01 9.823162e+01 2.066269e+01 -1.421085e-14 9.122773e+01 1.739139e+01 0.000000e+00 9.791372e+01 2.447317e+01 7.105427e-15 1.653098e+02 8.608619e+01 1.421085e-14 1.486035e+02 8.064825e+01 -1.421085e-14 1.586313e+02 9.101934e+01 0.000000e+00 3.622250e+02 2.211276e+02 -2.842171e-14 2.827776e+02 1.907115e+02 0.000000e+00 3.251072e+02 1.989963e+02 -2.842171e-14 1.333648e+01 4.440892e-16 -5.360598e+00 2.335393e+00 4.996004e-16 -3.196356e+00 1.522354e+01 -1.065814e-14 -6.964489e+01 4.622942e+00 2.842171e-14 -9.105667e+01 2.131628e-14 -1.638935e+01 -1.155919e+02 3.748365e+00 -2.131628e-14 -9.971717e+01 3.719008e+02 1.421237e+02 0.000000e+00 4.512733e+00 -3.552714e-15 -5.533465e+01 2.840533e+00 -2.220446e-16 -4.944198e+00 1.290364e+01 -1.776357e-15 -5.021656e+01 1.055052e+01 0.000000e+00 -1.011184e+02 5.243709e+00 4.440892e-16 -2.336215e+00 1.565179e+01 -1.776357e-14 -8.166270e+01 1.233915e+01 3.552714e-15 -8.850877e+01 1.385676e+01 7.105427e-15 -1.057533e+02 9.237056e-14 -2.066804e+00 -1.064522e+02 3.342253e+01 8.881784e-16 -1.459047e+01 5.033182e+00 -7.815970e-14 -1.347451e+02 4.663166e+01 -4.440892e-15 -4.204535e+01 3.947759e+00 -1.443290e-15 -3.468554e+00 1.846264e+02 9.580808e+01 1.421085e-14 7.342173e+01 1.776357e-14 -8.517750e+00 2.455785e+01 -7.105427e-15 -4.883205e+01 1.385016e+02 6.154949e+01 -1.421085e-14 7.324371e+01 -1.421085e-14 -3.004180e+00 2.814762e+01 0.000000e+00 -7.010680e+01 8.800090e+01 3.907985e-14 -1.490717e-01 7.269756e+01 7.105427e-15 -5.137134e+00 3.832347e+01 -8.881784e-15 -6.255295e+00 5.562486e+01 -1.065814e-14 -5.434379e+00 3.451654e+02 1.294457e+02 0.000000e+00 5.012207e+01 0.000000e+00 -4.926296e+00 4.896303e+01 5.329071e-15 -7.366406e+00 4.395458e+01 -1.776357e-15 -6.799159e+00 1.130112e+02 5.436316e+00 -1.421085e-14 8.659965e+01 -2.486900e-14 -3.688969e+00 3.620364e+02 1.901747e+02 0.000000e+00 3.989177e+02 1.433328e+02 2.842171e-14 6.312236e+01 1.776357e-14 -4.359734e+00 5.465422e+01 -5.329071e-15 -6.711779e+00 3.481997e+02 8.151005e+01 0.000000e+00 3.069126e+02 5.015321e+01 5.684342e-14 3.651673e+01 2.664535e-15 -4.850534e+01 7.956755e+00 -3.552714e-15 -3.385253e+01 1.996902e+01 -7.105427e-15 -5.152712e+01 2.807967e+01 1.065814e-14 -6.775726e+01 3.993246e+02 1.148388e+02 0.000000e+00 1.228708e+01 0.000000e+00 -1.104959e+02 1.091867e+01 -5.329071e-15 -4.249564e+01 4.417447e+00 3.330669e-16 -2.742080e+00 1.784824e+01 7.105427e-15 -8.971158e+01 3.140238e+01 -8.881784e-16 -5.333479e+01 -1.110223e-16 -1.193684e+00 -1.764715e+00 1.322131e+01 -1.776357e-15 -5.485077e+01 4.185968e+01 -1.776357e-15 -9.816099e+00 3.757155e+01 -3.552714e-15 -1.108391e+01 4.076583e+01 1.776357e-15 -1.743797e+01 4.051304e+00 -2.636780e-16 -4.190595e+00 1.581924e+02 1.232990e+01 1.421085e-14 1.036750e+02 7.105427e-14 -2.608829e+00 1.177841e+02 7.501836e+00 -1.421085e-14 1.218278e+01 -1.332268e-15 -2.376886e+01 3.195437e+01 -3.996803e-15 -3.679695e+01 4.154654e+01 1.776357e-15 -2.483289e+01 7.752644e+00 -4.440892e-16 -1.043266e+00 2.626678e+01 0.000000e+00 -6.509969e+01 1.477001e+01 -3.552714e-15 -8.550394e+01 2.620465e+01 8.881784e-16 -4.694995e+01 2.846948e+01 -3.552714e-15 -5.507178e+01 2.313889e+01 -1.776357e-15 -5.614783e+01 4.634058e+01 0.000000e+00 -1.905723e+01 4.680480e+01 -7.105427e-15 -2.199723e+01 3.594942e+01 4.440892e-16 -3.045871e+01 4.186329e+01 -1.154632e-14 -2.966775e+01 3.842361e+01 -4.662937e-15 -3.447559e+01 2.931834e+01 4.440892e-15 -4.226161e+01 2.625798e+01 3.552714e-15 -4.281392e+01 2.623428e+01 -1.154632e-14 -4.279785e+01 1.773491e+01 -5.329071e-15 -4.362062e+01 1.760976e+01 8.881784e-16 -3.064870e+01 6.973964e+00 -4.440892e-16 -1.792095e+01 3.181416e+00 -1.332268e-15 -1.155709e+01 1.009324e+02 2.842171e-14 -2.636440e+00 6.946630e+00 0.000000e+00 -9.954199e+01 1.868884e+00 -2.220446e-16 -4.598339e+00 2.080086e+01 0.000000e+00 -9.065340e+01 3.565556e+01 0.000000e+00 -5.148178e+01 2.689972e+01 -4.440892e-15 -4.801688e+01 3.240788e+01 -3.552714e-15 -5.341518e+01 6.513906e+00 1.421085e-14 -1.301092e+02 6.351349e+00 -3.552714e-14 -1.262150e+02 1.028110e+02 2.218492e+01 -7.105427e-15 4.362997e+01 -2.220446e-16 -4.746602e+01 4.128571e+01 -5.107026e-15 -4.479023e+01 2.629914e+01 7.105427e-15 -7.646302e+01 2.419067e+01 -7.105427e-15 -7.322560e+01 5.941201e+01 -1.598721e-14 -2.470383e+01 1.330953e+02 5.240700e+01 0.000000e+00 1.306300e+02 5.675726e+01 7.105427e-15 1.710945e+02 8.495926e+01 -1.421085e-14 1.606259e+02 8.898542e+01 0.000000e+00 1.667354e+01 0.000000e+00 -4.172531e+01 3.461493e+02 1.913003e+02 2.842171e-14 3.435339e+02 1.535947e+02 2.842171e-14 4.483939e+01 -1.776357e-15 -7.392253e-01 2.171957e+02 1.210452e+02 -1.421085e-14 8.264995e+01 3.084022e+00 1.065814e-14 1.250768e+02 4.474072e+01 7.105427e-15 1.200698e+02 4.761088e+01 0.000000e+00 4.326352e+01 1.776357e-15 -4.883469e+00 5.390095e+01 -8.881784e-15 -3.072711e+01 5.382089e+01 -3.552714e-15 -2.718904e+01 2.502413e+02 1.488060e+02 -2.842171e-14 6.282266e+01 -1.065814e-14 -5.921243e+00 1.017965e+01 3.552714e-15 -5.515402e+01 1.181737e+01 1.998401e-15 -6.846083e+00 8.565935e+00 -1.421085e-14 -1.220035e+02 8.937855e+00 -1.421085e-14 -1.181611e+02 2.081706e+02 2.795339e+01 1.421085e-14 1.742661e+02 1.004964e+02 1.421085e-14 2.000749e+02 1.079348e+02 0.000000e+00 1.923699e+01 -3.552714e-15 -4.348530e+01 1.875270e+01 -7.105427e-15 -6.829168e+01 2.383725e-01 1.110223e-16 -2.638626e+00 1.060595e+01 7.105427e-15 -1.064495e+02 1.398030e+01 -7.105427e-15 -1.031234e+02 1.168502e+02 3.696650e+01 0.000000e+00 1.147607e+02 4.043307e+01 0.000000e+00 1.332268e-15 -1.676787e+00 -7.019012e+00 4.457676e+01 -3.552714e-15 -1.916163e+01 1.444929e+02 7.053931e+01 -1.421085e-14 1.466751e+02 6.688911e+01 -1.421085e-14 1.602644e+02 7.629886e+01 1.421085e-14 0.000000e+00 -2.083391e+00 -2.405106e+00 4.540459e+01 -7.105427e-15 -1.184391e+01 4.057685e+01 -5.329071e-15 -1.305778e+01 4.344023e+01 -5.329071e-15 -1.761659e+01 2.066520e+02 1.796838e+01 -1.421085e-14 1.790544e+01 -1.776357e-15 -5.240244e+01 6.859651e+01 7.105427e-15 -1.430838e+01 6.699575e+01 0.000000e+00 -1.140148e+01 1.095557e+02 2.909195e+01 1.421085e-14 1.018980e+02 2.593848e+01 -7.105427e-15 1.092175e+02 3.351238e+01 1.421085e-14 3.356890e+01 -6.217249e-15 -3.931207e+01 2.927967e+01 3.552714e-15 -4.044094e+01 2.183955e+01 -3.552714e-15 -8.624955e+01 2.193371e+01 -7.105427e-15 -8.325094e+01 4.394868e+00 -4.263256e-14 -1.442273e+02 3.513067e+01 -1.332268e-14 -5.841505e+01 1.599822e+01 -1.065814e-14 -9.577478e+01 1.957603e+01 -3.552714e-15 -9.233705e+01 3.122656e+00 -8.526513e-14 -1.864004e+02 8.515419e+00 -1.776357e-15 -3.340297e+01 1.295031e+01 -3.552714e-15 -4.055834e+01 4.366386e+01 -7.105427e-15 -2.492239e+01 8.881784e-16 -1.164113e+00 -7.042349e+00 2.431865e+00 4.440892e-16 -4.880778e+00 3.049731e+01 4.440892e-15 -4.651519e+01 1.729439e+01 -8.881784e-16 -3.978376e+01 2.002333e+01 3.552714e-15 -4.192526e+01 8.345091e+00 2.131628e-14 -1.136412e+02 8.536680e+01 6.979596e+00 2.486900e-14 9.040920e+01 1.005917e+01 0.000000e+00 2.384019e+02 1.441881e+02 -2.842171e-14 2.804277e+02 1.633375e+02 2.842171e-14 1.784587e+02 1.142433e+01 7.105427e-15 1.278325e+02 1.264870e+01 7.105427e-15 5.431441e+00 3.552714e-14 -1.380568e+02 7.000091e+00 -1.421085e-14 -1.785091e+02 3.907985e-13 -1.559228e+00 -1.744295e+02 1.240944e-01 -2.664535e-15 -4.363257e+00 4.838205e+00 -2.664535e-15 -2.426211e+01 3.103820e+01 -1.421085e-14 -6.469783e+01 2.130170e+01 4.440892e-15 -4.055279e+01 2.445870e+01 -1.776357e-15 -5.740365e+01 1.961332e+00 6.394885e-14 -1.536664e+02 3.510724e+00 7.105427e-14 -1.462595e+02 1.497544e+00 -1.776357e-15 -1.836854e+01 0.000000e+00 -8.485047e-01 -6.649974e+00 1.581889e+01 -1.421085e-14 -1.167973e+02 -1.492140e-13 -1.274294e+00 -1.619559e+02 5.293836e+00 -7.105427e-14 -1.676128e+02 4.670570e+00 4.263256e-14 -1.559847e+02 3.195117e+01 1.776357e-15 -6.733274e+01 7.434573e+01 3.552714e-15 -4.940880e+00 7.777294e+01 -3.552714e-15 -2.340508e+00 4.716694e+01 -3.996803e-15 -3.856150e+01 4.944899e+01 3.552714e-15 -3.588925e+01 3.149763e+01 3.552714e-15 -6.126135e+01 1.206862e+01 -1.776357e-15 -2.298741e+01 1.757499e+01 0.000000e+00 -4.295103e+01 2.568268e+01 4.440892e-15 -4.511681e+01 1.896155e+01 -3.552714e-15 -4.894682e+01 9.164631e+00 0.000000e+00 -1.175508e+02 -2.220446e-16 -1.551434e+00 -3.115456e+00 1.634623e+01 3.552714e-15 -8.297859e+01 2.315733e+01 7.105427e-15 -9.705760e+01 7.621695e+00 4.263256e-14 -1.302962e+02 -4.440892e-16 -1.584754e+00 -4.849766e+00 1.045038e+01 -7.105427e-15 -1.377000e+02 7.926909e+00 1.421085e-14 -1.433163e+02 1.563194e-13 -2.583980e+00 -1.277879e+02 0.000000e+00 -2.914528e+01 -1.647550e+02 3.044369e+00 1.421085e-13 -1.436899e+02 2.991074e+00 9.237056e-14 -1.313653e+02 6.806185e+00 5.684342e-14 -1.456734e+02 1.085906e+01 -7.105427e-15 -1.296272e+02 -6.465939e-13 -6.544073e-01 -1.381150e+02 -3.552714e-14 -7.280919e+00 -1.501999e+02 3.914053e+00 2.131628e-14 -1.437030e+02 2.786802e+00 -4.973799e-14 -1.768929e+02 1.411496e+01 0.000000e+00 -1.231467e+02 7.123699e+00 -2.131628e-14 -1.095177e+02 2.756727e+00 7.105427e-15 -1.169379e+02 8.358939e+00 0.000000e+00 -1.546270e+02 7.167369e+00 5.684342e-14 -1.549862e+02 3.921447e+01 -1.509903e-14 -5.270721e+01 3.636718e+01 -8.881784e-16 -5.547430e+01 3.695929e+01 4.440892e-15 -5.001220e+01 6.433347e+01 1.776357e-15 -1.958795e+01 5.825507e+01 5.329071e-15 -2.212327e+01 6.217431e+01 -3.552714e-15 -1.687628e+01 5.155276e+00 -7.771561e-16 -2.408555e+00 3.296301e+01 2.664535e-15 -3.613095e+01 3.528113e+01 -3.552714e-15 -6.201386e+01 2.220341e+01 -1.065814e-14 -7.466217e+01 9.704924e+01 1.578049e+01 -7.105427e-15 8.605007e+01 1.227895e+01 -7.105427e-15 9.238438e+01 1.848916e+01 7.105427e-15 2.084253e+02 1.290044e+02 0.000000e+00 3.125610e+02 1.783876e+02 2.842171e-14 2.639286e+02 1.508827e+02 2.842171e-14 3.005201e+02 1.578409e+02 2.842171e-14 4.146147e+01 -3.552714e-15 -8.328367e+00 4.754616e+01 -7.105427e-15 -6.940917e+00 3.459226e+01 -1.776357e-15 -7.661365e+01 4.490227e+00 -4.440892e-16 -2.237394e+00 7.982841e+01 1.164873e+00 1.065814e-13 6.903319e+00 7.105427e-14 -1.735616e+02 7.196406e+01 -1.065814e-14 -5.559520e+00 1.718313e+01 -9.769963e-15 -3.109652e+01 3.008068e+02 1.090527e+02 5.684342e-14 1.946350e+01 -5.329071e-15 -4.390470e+01 2.650412e+01 -3.552714e-15 -4.135463e+01 1.880727e+02 1.124630e+02 2.842171e-14 3.890219e+01 7.105427e-15 -6.652121e+01 2.266814e+02 1.145900e+02 1.421085e-14 3.016493e+02 6.976926e+01 -2.842171e-14 4.649811e+01 -3.552714e-15 -1.935489e+01 6.315622e+00 5.684342e-14 -1.285654e+02 4.059167e+02 6.009092e+01 0.000000e+00 1.274578e+01 -2.842171e-14 -1.291416e+02 6.973635e+00 3.552714e-14 -1.475399e+02 1.128307e+01 -4.973799e-14 -1.806971e+02 1.299891e+02 8.420578e+00 2.842171e-14 2.361644e+02 5.043757e+01 1.421085e-14 1.810742e+00 3.552714e-15 -1.507533e+01 9.733609e+00 -7.105427e-15 -1.346275e+02 8.881784e-16 -1.348685e+00 -1.298099e+01 3.377378e+00 2.131628e-14 -1.227430e+02 2.669476e+01 8.881784e-15 -6.473974e+01 3.572901e+01 8.881784e-16 -5.605687e+01 3.615202e+01 -1.953993e-14 -6.026753e+01 8.477981e+00 4.973799e-14 -1.727234e+02 7.453967e+00 -3.108624e-15 -1.590783e+01 4.083728e+00 4.973799e-14 -1.272209e+02 2.626172e+02 7.554158e+01 0.000000e+00 3.467694e+02 1.058821e+02 0.000000e+00 4.218880e+00 -8.881784e-16 -2.547317e+01 4.580584e+01 -1.243450e-14 -2.102507e+01 1.449650e+01 -7.105427e-15 -1.183079e+02 8.421760e+01 -5.329071e-14 -3.191300e+00 6.427994e+01 0.000000e+00 -9.163089e+00 7.479711e-01 6.181722e-13 -1.499314e+02 2.866043e+01 -6.217249e-15 -4.144434e+01 6.280674e+01 -7.105427e-15 -2.440893e+01 6.383936e+00 2.842171e-14 -1.355845e+02 2.137515e+01 -7.105427e-15 -7.930801e+01 1.769104e+02 2.794807e+01 -1.421085e-14 1.652218e+02 2.725238e+01 0.000000e+00 3.430212e+01 -7.105427e-15 -5.837425e+01 3.622214e+01 -7.105427e-15 -5.534473e+01 3.171195e+01 8.881784e-16 -2.830507e+01 1.734630e+02 8.055827e+01 0.000000e+00 2.315818e+02 1.368785e+02 0.000000e+00 2.874713e+02 7.176667e+01 -1.421085e-14 2.492089e+02 7.051331e+01 0.000000e+00 2.083747e+02 4.610016e+01 -1.421085e-14 1.341578e+02 4.576630e+01 0.000000e+00 1.061294e+02 2.199043e+01 7.105427e-15 3.002376e+02 1.406846e+02 0.000000e+00 3.306822e+02 1.182088e+02 -5.684342e-14 4.855018e+01 -7.993606e-15 -3.968533e+01 1.502036e+02 7.847624e+01 -1.421085e-14 9.141510e+01 -6.750156e-14 -2.609057e+00 1.012354e+02 1.370490e+00 -1.847411e-13 5.039988e+01 -5.329071e-15 -1.491998e+01 4.934141e+01 -7.105427e-15 -2.086301e+01 5.777810e+01 8.881784e-15 -3.013096e+01 5.563109e+01 -8.881784e-15 -2.675740e+01 4.853396e+02 1.616908e+02 2.842171e-14 1.504251e+02 1.527340e+01 -3.552714e-14 1.095219e+02 7.664479e+00 -7.105427e-15 5.492750e+01 -7.105427e-15 -7.034694e+00 3.201526e+01 -8.881784e-15 -6.066863e+01 2.121564e+02 1.203049e+02 1.421085e-14 2.510785e+02 1.350592e+02 0.000000e+00 2.462417e+01 8.881784e-16 -4.510954e+01 6.247126e+01 -1.065814e-14 -7.136822e+00 2.079445e+00 -5.551115e-16 -4.829774e+00 3.299992e+01 -9.381385e-15 -3.381247e+01 1.202056e+01 -1.421085e-14 -1.177334e+02 3.238707e+01 1.332268e-15 -3.962996e+01 2.076783e+02 1.022602e+02 0.000000e+00 1.928397e+02 1.030870e+02 0.000000e+00 3.070502e+01 -7.105427e-15 -6.565422e+01 7.120167e+00 -4.973799e-14 -1.191943e+02 1.495258e+01 1.421085e-14 -9.913262e+01 8.096612e+01 -6.394885e-14 -7.932287e-01 4.774598e+01 -1.776357e-15 -1.288081e+01 1.236453e+02 3.809484e+01 -7.105427e-15 1.158047e+02 4.025479e+01 -7.105427e-15 7.770733e+00 -7.105427e-15 -1.248245e+02 4.612179e+01 6.300516e-15 -4.653337e+01 4.312774e+01 -1.387779e-16 -4.269302e+01 7.330314e+00 1.421085e-14 -1.168608e+02 1.543600e+01 -7.105427e-15 -9.188654e+01 7.262336e+01 7.105427e-15 -1.335624e+01 5.375008e+01 1.776357e-15 -3.258869e+01 9.261766e+01 0.000000e+00 -5.740483e+00 5.042562e+01 -1.776357e-15 -1.096155e+01 1.857465e+01 -3.552714e-15 -1.119518e+02 3.403251e+01 -5.329071e-15 -6.798932e+01 2.209875e-01 4.884981e-15 -6.582207e+00 1.822919e+01 7.105427e-15 -8.456193e+01 2.178689e+01 1.065814e-14 -8.883340e+01 2.544831e+01 3.552714e-15 -8.237936e+01 5.793143e+01 3.552714e-15 -9.691893e+00 4.986701e+01 -1.065814e-14 -3.275985e+01 7.610562e+01 0.000000e+00 -7.320790e+00 7.033560e+01 1.065814e-14 -1.004721e+01 7.963083e+01 3.197442e-14 -3.286567e+00 5.991639e+00 -2.842171e-14 -1.416178e+02 4.981505e+01 1.243450e-14 -4.315319e+00 3.984668e+01 2.664535e-15 -2.699767e+01 5.486742e+00 7.105427e-15 -1.437382e+02 6.087235e+00 -7.105427e-15 -1.085217e+02 7.629857e+01 -2.131628e-14 -6.265619e+00 1.017662e+01 -2.131628e-14 -1.243098e+02 1.624992e+02 8.417503e+01 0.000000e+00 1.907615e+02 9.261112e+01 -1.421085e-14 4.097538e+01 -3.996803e-15 -3.254029e+01 7.834844e+00 -2.842171e-14 -1.108230e+02 1.250012e+01 7.105427e-15 -1.104851e+02 1.450719e+01 -4.263256e-14 -1.072496e+02 8.195329e+01 2.865528e+00 2.842171e-14 8.539100e+01 5.689194e+00 -1.776357e-14 2.610423e+00 0.000000e+00 -1.224834e+01 3.417040e+01 -7.216450e-16 -3.393960e+01 4.652004e+01 7.993606e-15 -2.599581e+01 1.030862e+02 -1.421085e-14 -1.211733e+01 2.152363e+01 3.552714e-15 -1.055162e+02 1.186139e+01 -2.131628e-14 -9.268318e+01 1.036519e+01 -4.263256e-14 -1.893681e+02 5.441949e+01 -1.421085e-14 -3.848115e+01 5.840057e+01 -3.552714e-15 -2.183501e+01 6.766581e+01 -7.105427e-15 -1.919629e+01 6.860887e+01 -1.243450e-14 -2.253225e+01 4.587903e+01 0.000000e+00 -1.042746e+01 2.985181e+01 0.000000e+00 -7.528104e+01 2.130435e+01 -1.065814e-14 -7.775359e+01 2.391803e+01 1.776357e-15 -7.096694e+01 4.458257e+01 -7.105427e-15 -5.596885e+01 9.634723e+01 1.888908e+01 0.000000e+00 1.013668e+02 1.566971e+01 7.105427e-15 1.599232e+02 7.210478e+01 1.421085e-14 1.517285e+02 7.270360e+01 0.000000e+00 4.449058e+01 -1.776357e-15 -1.407636e+01 2.768677e+01 -1.421085e-14 -7.137165e+01 8.988533e+00 3.552714e-15 -1.014585e+02 2.962490e+01 -7.882583e-15 -2.791203e+01 2.890330e+01 5.329071e-15 -6.367743e+01 4.804049e+01 -4.440892e-15 -6.439537e+01 1.540559e+01 1.421085e-14 -9.908537e+01 1.194493e+01 -1.776357e-14 -1.020496e+02 1.946016e+01 -3.552714e-15 -9.564065e+01 7.731049e+01 0.000000e+00 -7.207151e+00 1.063396e+02 4.566276e+00 -7.105427e-15 3.355550e+01 -1.776357e-15 -8.115408e+01 6.312813e+01 -1.065814e-14 -1.647088e+01 4.976639e+01 0.000000e+00 -3.265455e+01 1.126119e+02 2.956941e+01 2.131628e-14 1.048675e+02 2.672158e+01 0.000000e+00 1.133995e+02 3.408488e+01 7.105427e-15 4.268577e+01 -1.221245e-14 -4.092041e+01 5.781499e+01 -1.421085e-14 -1.096836e+01 9.064049e+01 2.842171e-14 -2.062061e+00 7.980890e+01 3.197442e-14 -4.053872e+00 6.449855e+01 -3.552714e-15 -9.885161e+00 2.128766e+01 3.552714e-15 -1.030861e+02 3.725935e+01 4.163336e-16 -3.701771e+01 5.287300e+01 -8.881784e-15 -9.189870e+00 1.042544e+02 1.449586e+01 0.000000e+00 8.665780e+01 1.141782e+01 1.421085e-14 2.616562e+01 -7.105427e-15 -9.489328e+01 2.174841e+01 -1.776357e-14 -7.697656e+01 3.391795e+01 2.414735e-15 -3.352090e+01 4.755081e+01 -3.552714e-15 -1.602146e+01 4.249404e+01 -1.199041e-14 -5.314083e+01 1.328812e+02 1.238004e+01 0.000000e+00 3.783492e+01 -8.437695e-15 -4.913537e+01 4.414258e+01 0.000000e+00 -2.361507e+01 1.407343e+02 5.340127e+01 -1.421085e-14 5.319374e+01 -8.881784e-15 -2.125210e+01 5.882184e+00 2.842171e-14 -1.553841e+02 1.440783e+02 6.482101e+01 0.000000e+00 4.224149e+01 -2.220446e-15 -3.164364e+01 4.029558e+01 -3.552714e-15 -2.856700e+01 4.874662e+01 3.552714e-15 -2.179261e+01 1.442777e+02 5.926920e+01 0.000000e+00 4.425865e+00 4.973799e-14 -1.583510e+02 3.730226e+01 -6.661338e-15 -2.911390e+01 1.626738e+02 6.566393e+01 0.000000e+00 1.237640e+02 4.805907e+01 0.000000e+00 1.105317e+02 7.210449e+00 2.131628e-14 1.457205e+02 2.472942e+01 1.421085e-14 6.383746e+01 -8.881784e-15 -1.798617e+01 4.480061e+01 -5.329071e-15 -1.634590e+01 4.648906e+01 -5.329071e-15 -1.886276e+01 3.193224e+01 7.105427e-15 -8.708705e+01 -1.421085e-14 -9.122824e+00 -1.914341e+02 5.346446e+01 -7.105427e-15 -2.640247e+01 9.983636e+01 1.892772e+01 0.000000e+00 1.101495e+02 2.294093e+01 7.105427e-15 3.104305e+01 -1.065814e-14 -7.553822e+01 1.637320e+02 2.060638e+01 2.131628e-14 1.262337e+02 1.735362e+01 -2.131628e-14 4.936254e+01 -2.664535e-15 -2.630908e+01 2.509847e+02 9.142554e+01 -2.842171e-14 1.616180e+01 -3.552714e-15 -8.527472e+01 1.377998e+02 4.303257e+01 7.105427e-15 5.328292e+01 -2.664535e-15 -3.596489e+01 2.876781e+02 1.500207e+02 0.000000e+00 3.057168e+02 1.263765e+02 0.000000e+00 7.090650e+01 -1.065814e-14 -1.983813e+01 2.716666e+02 1.432625e+02 5.684342e-14 2.656317e+02 1.253322e+02 -2.842171e-14 5.015349e+01 1.776357e-15 -1.761106e+01 5.404341e+01 -3.552714e-15 -2.186970e+01 2.823684e+02 8.570334e+01 0.000000e+00 4.119832e+01 -1.065814e-14 -7.313689e+01 2.423537e+02 6.501401e+01 -2.842171e-14 4.928750e+01 -1.065814e-14 -5.862786e+01 2.428168e+02 1.247411e+02 2.842171e-14 4.233048e+01 -3.552714e-15 -5.916414e+01 3.751138e+01 -5.329071e-15 -6.072259e+01 2.102727e+02 9.181281e+01 2.842171e-14 4.474030e+01 3.996803e-15 -5.622584e+01 4.602637e+01 -8.881784e-16 -6.863500e+01 7.817076e+01 -3.552714e-15 -4.844263e+00 1.060836e+02 4.199454e+00 7.105427e-15 6.720824e+01 1.065814e-14 -9.269199e+00 4.354101e+01 8.881784e-16 -2.860259e+01 5.910980e+01 -1.243450e-14 -1.294009e+01 4.885955e+01 -8.881784e-16 -4.548631e+01 9.743134e+01 7.434444e+00 0.000000e+00 9.144394e+01 1.050678e+01 -7.105427e-15 7.211132e+01 8.881784e-15 -3.067217e+01 1.790119e+02 7.606999e+01 -1.421085e-14 1.143084e+01 -7.105427e-15 -9.461223e+01 1.792296e+02 9.257725e+01 -1.421085e-14 4.135379e+01 -1.021405e-14 -5.128205e+01 4.413258e+01 3.552714e-15 -5.350536e+01 7.593347e+01 3.552714e-15 -1.297955e+01 7.678303e+01 0.000000e+00 -8.353250e+00 1.436611e+02 5.748470e+01 -1.421085e-14 1.727861e+01 -1.065814e-14 -8.512279e+01 2.575796e+01 -3.552714e-15 -8.258649e+01 5.926842e+01 4.440892e-15 -5.049223e+01 1.534874e+02 6.802005e+01 0.000000e+00 2.587568e+01 8.881784e-15 -7.027458e+01 3.550226e+01 0.000000e+00 -6.784515e+01 3.495320e+01 -1.776357e-15 -6.373415e+01 2.296944e+01 -7.105427e-15 -8.870529e+01 5.071473e+01 -7.105427e-15 -3.684363e+01 6.600515e+01 -7.105427e-15 -1.618978e+01 1.783932e+02 4.330668e+01 0.000000e+00 1.978788e+02 4.343565e+01 0.000000e+00 1.956385e+02 9.234645e+01 1.421085e-14 2.341679e+02 1.055570e+02 0.000000e+00 8.098207e+01 0.000000e+00 -1.837555e+01 8.807253e+01 4.973799e-14 -1.445199e+00 4.874316e+01 -1.509903e-14 -4.040681e+01 5.715414e+01 -4.884981e-15 -4.698358e+01 1.300968e+01 -3.552714e-15 -9.167562e+01 6.483692e+01 -5.329071e-15 -2.559010e+01 5.706029e+01 -1.065814e-14 -2.885946e+01 5.890046e+01 3.552714e-15 -2.316538e+01 5.749437e+01 -1.065814e-14 -3.234494e+01 5.991823e+01 0.000000e+00 -3.481304e+01 3.381502e+01 -1.065814e-14 -7.702437e+01 2.125466e+02 6.062569e+01 -1.421085e-14 7.427589e+01 -1.065814e-14 -2.059512e+01 5.812395e+01 6.661338e-15 -5.647187e+01 4.134516e+01 0.000000e+00 -2.495614e+01 3.908785e+01 1.776357e-15 -6.525292e+01 3.143396e+01 -1.776357e-15 -7.238400e+01 1.436946e+02 5.161560e+01 -1.421085e-14 3.438509e+01 -1.332268e-14 -5.597711e+01 1.357762e+02 2.758410e+01 0.000000e+00 5.919679e+01 1.332268e-15 -5.433051e+01 5.574263e+01 -1.021405e-14 -4.708143e+01 5.701748e+01 9.325873e-15 -4.946109e+01 1.008212e+01 3.552714e-15 -9.904197e+01 1.262212e+02 3.662204e+01 -7.105427e-15 1.151024e+02 3.124920e+01 2.131628e-14 1.193638e+02 3.653876e+01 7.105427e-15 1.116503e+02 9.801994e+00 -7.105427e-15 5.202968e+01 0.000000e+00 -1.398620e+01 4.152683e+01 -4.440892e-16 -3.415118e+01 1.812878e+02 8.379417e+01 -1.421085e-14 2.729206e+01 -7.105427e-15 -8.685216e+01 1.289984e+02 4.383968e+01 -7.105427e-15 2.402324e+02 7.297960e+01 -2.842171e-14 1.483435e+02 4.785035e+01 0.000000e+00 5.854803e+01 -7.105427e-15 -1.619122e+01 1.381312e+02 3.765933e+01 0.000000e+00 8.870885e+01 3.552714e-15 -1.426142e+01 2.200833e+01 3.552714e-15 -7.805322e+01 1.825373e+02 8.037143e+01 2.842171e-14 9.478905e+01 9.121921e+00 3.552714e-14 2.298890e+01 -3.552714e-15 -9.518001e+01 1.581435e+02 5.758370e+01 -1.421085e-14 5.420697e+01 -3.552714e-15 -1.675527e+01 2.746529e+02 9.959061e+01 -2.842171e-14 2.077691e+02 7.719403e+01 1.421085e-14 1.821867e+02 6.899037e+01 0.000000e+00 5.408149e+01 -1.243450e-14 -5.723418e+01 4.971740e+01 5.773160e-15 -4.297034e+01 2.055990e+01 0.000000e+00 -8.376116e+01 2.469230e+01 -1.421085e-14 -8.075617e+01 1.101221e+02 1.463194e+01 7.105427e-15 4.141181e+01 -1.598721e-14 -6.164737e+01 3.880334e+01 -8.881784e-16 -4.830604e+01 1.792388e+02 5.225282e+01 0.000000e+00 1.312751e+02 4.223348e+01 -1.421085e-14 4.909677e+01 -8.881784e-15 -4.675822e+01 1.616825e+02 5.733207e+01 -1.421085e-14 1.572026e+02 4.686706e+01 0.000000e+00 6.902273e+01 -3.552714e-15 -1.596989e+01 8.112178e+01 0.000000e+00 -1.246116e+01 1.607187e+01 -3.552714e-15 -8.797661e+01 5.425306e+01 -9.769963e-15 -3.207483e+01 6.643760e+01 0.000000e+00 -2.749943e+01 1.373929e+02 2.569409e+01 0.000000e+00 1.152588e+02 1.037263e+00 -1.421085e-14 8.623656e+01 0.000000e+00 -2.426484e+01 5.476811e+01 -1.065814e-14 -2.269867e+01 4.928448e+01 -8.881784e-15 -1.906082e+01 2.269470e+02 1.164459e+02 0.000000e+00 5.957468e+01 -3.552714e-15 -1.322047e+01 6.023962e+01 -1.065814e-14 -2.445323e+01 1.972172e+01 7.105427e-15 -7.999862e+01 2.010154e+02 5.061697e+01 0.000000e+00 8.164549e+01 3.010393e+00 1.421085e-14 3.026721e+01 -3.552714e-15 -3.566391e+01 1.243897e+02 3.092902e+01 -7.105427e-15 1.117769e+02 2.764162e+01 1.421085e-14 7.025078e+01 0.000000e+00 -1.979124e+01 4.284462e+01 -8.881784e-16 -5.509477e+01 6.058409e+01 -1.243450e-14 -1.772698e+01 6.368146e+01 -1.065814e-14 -1.543231e+01 7.065140e+01 -8.881784e-15 -3.905780e+01 5.553791e+01 -7.105427e-15 -1.539309e+01 7.974433e+01 -3.552714e-15 -6.062980e+00 5.825902e+01 2.664535e-15 -3.749074e+01 7.900814e+01 -1.065814e-14 -8.381415e+00 8.236517e+01 -2.842171e-13 -2.779615e-01 6.431272e+01 -9.769963e-15 -4.479603e+01 1.212013e+02 3.046621e+01 0.000000e+00 9.460253e+01 9.272583e-13 -2.119921e-01 1.285743e+01 1.421085e-14 -1.544578e+02 2.965595e+01 -1.421085e-14 -7.857313e+01 1.693908e+01 -1.421085e-14 -1.085032e+02 6.040150e+01 7.105427e-15 -7.460724e+00 1.018681e+02 6.686615e+00 7.105427e-15 9.461886e+01 9.868790e+00 -7.105427e-15 8.572670e+01 -2.131628e-14 -6.973433e+00 6.105260e+01 -7.105427e-15 -6.803759e+00 6.458957e+01 -3.552714e-15 -1.205567e+01 6.305838e+00 -8.526513e-14 -1.607932e+02 4.835350e+01 -2.498002e-16 -4.799538e+01 5.267433e+01 -5.107026e-15 -5.155806e+01 2.594475e+02 1.154986e+02 1.421085e-14 2.065114e+02 5.832381e+01 2.842171e-14 1.403681e+02 3.113199e+01 -7.105427e-15 1.367506e+02 3.872885e+01 7.105427e-15 7.783852e+01 7.105427e-15 -7.474994e+00 7.946123e+01 -3.552714e-15 -2.121895e+01 2.530531e+02 1.080021e+02 -2.842171e-14 7.321915e+01 -5.329071e-15 -2.552099e+01 1.202319e+02 2.336358e+01 0.000000e+00 3.910523e+01 -2.664535e-15 -6.011642e+01 2.445516e+02 1.013293e+02 -4.263256e-14 4.026854e+01 7.993606e-15 -5.874155e+01 3.095599e+01 0.000000e+00 -6.234823e+01 4.397244e+01 -8.437695e-15 -5.392627e+01 7.094936e+01 -7.105427e-15 -4.568412e+01 1.161053e+02 2.487789e+01 0.000000e+00 1.081706e+02 2.004492e+01 -7.105427e-15 6.920503e+01 -1.065814e-14 -3.018642e+01 5.427203e+01 -8.881784e-16 -3.482030e+01 1.155807e+02 1.059579e+01 2.131628e-14 2.169264e+02 8.239534e+01 1.421085e-14 1.153485e+02 1.562069e+01 0.000000e+00 1.828931e+02 6.991413e+01 0.000000e+00 1.736131e+02 5.860068e+01 0.000000e+00 2.013036e+02 8.906699e+01 0.000000e+00 1.070682e+02 -2.842171e-14 -5.781411e+00 1.603166e+02 3.614650e+01 0.000000e+00 6.097350e+01 -5.329071e-15 -4.885762e+01 5.202308e+01 -7.271961e-15 -5.302784e+01 6.565519e+01 -1.243450e-14 -4.304752e+01 5.377107e+01 -8.881784e-15 -4.714228e+01 9.707097e+01 3.692428e+00 -3.552714e-14 8.409480e+01 2.631860e+00 3.552714e-15 1.208646e+02 1.388045e+01 -1.421085e-14 1.029522e+02 5.698980e+00 -1.421085e-14 8.793264e+01 1.921645e+00 7.460699e-14 1.229143e+02 2.400225e+01 7.105427e-15 1.218562e+02 2.210755e+01 -7.105427e-15 1.637595e+02 4.767964e+01 1.421085e-14 6.351637e+01 0.000000e+00 -2.566942e+01 3.706326e+01 5.329071e-15 -6.779487e+01 9.283774e+01 1.065814e-14 -3.016199e+00 2.322561e+02 7.805867e+01 1.421085e-14 8.545022e+01 -2.131628e-14 -2.762602e+00 4.531002e+01 -1.021405e-14 -5.613731e+01 8.997316e+01 -3.552714e-15 -1.206999e+01 4.482389e+01 -1.776357e-15 -5.248257e+01 7.277053e+01 7.105427e-15 -1.723641e+01 1.100748e+01 4.263256e-14 -1.946348e+02 6.677213e+01 0.000000e+00 -3.807585e+01 2.553837e+01 -3.552714e-15 -7.025348e+01 9.050908e+01 0.000000e+00 -1.230271e+01 9.235659e+01 -1.421085e-14 -1.627628e+01 9.961928e+01 1.031334e+01 -7.105427e-15 1.923364e+02 5.641557e+01 0.000000e+00 6.287198e+01 7.105427e-15 -9.744554e+00 1.121454e+02 2.943425e+00 -3.552714e-14 6.762886e+01 -1.065814e-14 -3.934077e+01 6.707474e+01 -1.154632e-14 -4.621039e+01 1.586927e+02 4.388799e+01 0.000000e+00 1.745409e+02 3.861361e+01 -1.421085e-14 7.700147e+01 -1.776357e-15 -3.676643e+01 6.899222e+01 -8.881784e-15 -3.923244e+01 3.440904e+01 -1.776357e-15 -7.154422e+01 1.201723e+02 1.564647e+01 -7.105427e-15 1.270988e+02 1.162133e+01 7.105427e-15 8.464397e+01 7.105427e-15 -6.323591e+00 3.822891e+01 -1.243450e-14 -6.648813e+01 6.109989e+01 -7.105427e-15 -4.232253e+01 1.420525e+02 2.809352e+01 -1.421085e-14 9.675830e+01 0.000000e+00 -1.170467e+01 5.432211e+01 -7.105427e-15 -3.593838e+01 6.651706e+01 -5.329071e-15 -3.921845e+01 7.352651e+01 -2.131628e-14 -3.068885e+01 1.106324e+02 1.438723e+00 -3.552714e-14 1.030875e+02 1.015486e+01 -1.421085e-14 1.560311e+02 4.379882e+01 0.000000e+00 1.746177e+02 3.949243e+01 -1.421085e-14 1.366020e+02 3.011701e+01 -7.105427e-15 8.292520e+01 3.480567e+00 2.131628e-14 1.536968e+02 3.823237e+01 -7.105427e-15 1.408037e+02 3.190384e+01 7.105427e-15 1.580086e+02 3.450825e+01 0.000000e+00 8.491053e+01 -1.065814e-14 -3.349152e+01 8.461667e+01 1.065814e-14 -2.249321e+01 6.807077e+01 -8.881784e-15 -2.705649e+01 7.701964e+01 -1.776357e-14 -1.749895e+01 1.576357e+02 2.824524e+01 -3.552714e-14 1.503661e+02 2.572238e+01 7.105427e-15 7.539781e+01 -5.329071e-15 -2.891803e+01 8.338980e+01 -1.243450e-14 -3.554120e+01 8.796894e+01 -1.065814e-14 -2.576066e+01 1.193464e+02 1.332763e+01 -7.105427e-15 1.078526e+02 1.405750e+01 -7.105427e-15 4.792069e+01 -5.523360e-15 -4.718325e+01 7.786667e+01 -3.552714e-15 -9.457238e+00 1.268806e+02 1.543057e+01 0.000000e+00 1.198257e+02 2.102247e+01 0.000000e+00 9.578112e+01 -2.131628e-14 -2.316804e+01 1.296801e+02 2.435576e+01 0.000000e+00 7.169886e+01 -1.776357e-15 -3.177133e+01 8.972599e+01 -2.486900e-14 -4.636933e+00 1.063329e+02 3.539352e+00 1.421085e-14 1.763844e+02 6.136793e+01 0.000000e+00 1.504533e+02 2.383916e+01 0.000000e+00 1.061051e+02 6.557431e+00 -3.552714e-14 7.103005e+01 -1.776357e-15 -3.496510e+01 9.543103e+01 -8.881784e-14 -9.864717e-01 8.324373e+01 3.552714e-15 -1.723193e+01 1.162309e+02 -1.492140e-13 -3.304599e-01 9.638672e+01 3.552714e-15 -2.388409e+01 1.377205e+02 2.081109e+01 -7.105427e-15 1.102894e+02 7.105427e-15 -9.083801e+00 3.520664e+01 -8.881784e-16 -5.799898e+01 7.195670e+01 -1.243450e-14 -3.037838e+01 1.281565e+02 1.667618e+01 7.105427e-15   </DataArray>
  <DataArray type="Float64" Name="IST_StrainTensor" NumberOfComponents="9" format="ascii">1.473486e-04 -5.494775e-05 0.000000e+00 -5.494775e-05 -8.141700e-04 0.000000e+00 0.000000e+00 0.000000e+00 0.000000e+00 1.925126e-04 -2.493337e-05 0.000000e+00 -2.493337e-05 -7.458819e-04 0.000000e+00 0.000000e+00 0.000000e+00 0.000000e+00 2.056026e-04 -1.820641e-05 0.000000e+00 -1.820641e-05 -6.752985e-04 0.000000e+00 0.000000e+00 0.000000e+00 0.000000e+00 2.070422e-04 -1.622583e-05 0.000000e+00 -1.622583e-05 -6.051600e-04 0.000000e+00 0.000000e+00 0.000000e+00 0.000000e+00 2.089643e-04 -1.609416e-05 0.000000e+00 -1.609416e-05 -5.410346e-04 0.000000e+00 0.000000e+00 0.000000e+00 0.000000e+00 2.123883e-04 -1.644721e-05 0.000000e+00 -1.644721e-05 -4.789506e-04 0.000000e+00 0.000000e+00 0.000000e+00 0.000000e+00 2.204892e-04 -1.553395e-05 0.000000e+00 -1.553395e-05 -4.239247e-04 0.000000e+00 0.000000e+00 0.000000e+00 0.000000e+00 2.314847e-04 -1.612967e-05 0.000000e+00 -1.612967e-05 -3.724578e-04 0.000000e+00 0.000000e+00 0.000000e+00 0.000000e+00 2.463238e-04 -1.691056e-05 0.000000e+00 -1.691056e-05 -3.246831e-04 0.000000e+00 0.000000e+00 0.000000e+00 0.000000e+00 2.643487e-04 -1.799170e-05 0.000000e+00 -1.799170e-05 -2.798795e-04 0.000000e+00 0.000000e+00 0.000000e+00 0.000000e+00 2.841271e-04 -1.939910e-05 0.000000e+00 -1.939910e-05 -2.343565e-04 0.000000e+00 0.000000e+00 0.000000e+00 0.000000e+00 3.091434e-04 -1.970756e-05 0.000000e+00 -1.970756e-05 -1.935639e-04 0.000000e+00 0.000000e+00 0.000000e+00 0.000000e+00 3.374360e-04 -2.147260e-05 0.000000e+00 -2.147260e-05 -1.539744e-04 0.000000e+00 0.000000e+00 0.000000e+00 0.000000e+00 3.672262e-04 -2.277804e-05 0.000000e+00 -2.277804e-05 -1.105543e-04 0.000000e+00 0.000000e+00 0.000000e+00 0.000000e+00 4.026839e-04 -2.391841e-05 0.000000e+00 -2.391841e-05 -6.947723e-05 0.000000e+00 0.000000e+00 0.000000e+00 0.000000e+00 4.393622e-04 -2.689505e-05 0.000000e+00 -2.689505e-05 -2.152422e-05 0.000000e+00 0.000000e+00 0.000000e+00 0.000000e+00 4.809391e-04 -3.071299e-05 0.000000e+00 -3.071299e-05 2.947821e-05 0.000000e+00 0.000000e+00 0.000000e+00 0.000000e+00 5.320919e-04 -3.450802e-05 0.000000e+00 -3.450802e-05 7.935026e-05 0.000000e+00 0.000000e+00 0.000000e+00 0.000000e+00 5.871504e-04 -3.528309e-05 0.000000e+00 -3.528309e-05 1.444443e-04 0.000000e+00 0.000000e+00 0.000000e+00 0.000000e+00 6.545837e-04 -4.694576e-05 0.000000e+00 -4.694576e-05 2.152690e-04 0.000000e+00 0.000000e+00 0.000000e+00 0.000000e+00 7.410035e-04 -6.081959e-05 0.000000e+00 -6.081959e-05 2.996844e-04 0.000000e+00 0.000000e+00 0.000000e+00 0.000000e+00 8.599842e-04 -8.013347e-05 0.000000e+00 -8.013347e-05 4.128043e-04 0.000000e+00 0.000000e+00 0.000000e+00 0.000000e+00 1.046713e-03 -1.392218e-04 0.000000e+00 -1.392218e-04 5.683452e-04 0.000000e+00 0.000000e+00 0.000000e+00 0.000000e+00 1.402822e-03 -3.384401e-04 0.000000e+00 -3.384401e-04 8.664898e-04 0.000000e+00 0.000000e+00 0.000000e+00 0.000000e+00 1.920837e-03 -1.078075e-03 0.000000e+00 -1.078075e-03 2.016959e-03 0.000000e+00 0.000000e+00 0.000000e+00 0.000000e+00 3.049671e-04 2.068178e-05 0.000000e+00 2.068178e-05 -8.194039e-05 0.000000e+00 0.000000e+00 0.000000e+00 0.000000e+00 2.714295e-04 2.370748e-05 0.000000e+00 2.370748e-05 -8.549447e-05 0.000000e+00 0.000000e+00 0.000000e+00 0.000000e+00 2.093078e-04 3.192300e-05 0.000000e+00 3.192300e-05 -6.531528e-05 0.000000e+00 0.000000e+00 0.000000e+00 0.000000e+00 1.059311e-04 4.272407e-05 0.000000e+00 4.272407e-05 -2.691371e-05 0.000000e+00 0.000000e+00 0.000000e+00 0.000000e+00 1.270122e-04 4.992064e-05 0.000000e+00 4.992064e-05 -2.449880e-05 0.000000e+00 0.000000e+00 0.000000e+00 0.000000e+00 2.175550e-04 1.112821e-04 0.000000e+00 1.112821e-04 -2.738626e-05 0.000000e+00 0.000000e+00 0.000000e+00 0.000000e+00 2.602383e-04 7.772278e-05 0.000000e+00 7.772278e-05 -5.021233e-05 0.000000e+00 0.000000e+00 0.000000e+00 0.000000e+00 6.419269e-05 4.141075e-05 0.000000e+00 4.141075e-05 -1.427695e-05 0.000000e+00 0.000000e+00 0.000000e+00 0.000000e+00 -5.681812e-05 2.218916e-05 0.000000e+00 2.218916e-05 3.425484e-05 0.000000e+00 0.000000e+00 0.000000e+00 0.000000e+00 -4.776745e-05 -1.283384e-05 0.000000e+00 -1.283384e-05 1.984819e-05 0.000000e+00 0.000000e+00 0.000000e+00 0.000000e+00 -2.810955e-06 -5.528379e-06 0.000000e+00 -5.528379e-06 -3.145407e-06 0.000000e+00 0.000000e+00 0.000000e+00 0.000000e+00 4.038953e-06 -6.042354e-06 0.000000e+00 -6.042354e-06 -1.696379e-05 0.000000e+00 0.000000e+00 0.000000e+00 0.000000e+00 1.233608e-05 5.438299e-06 0.000000e+00 5.438299e-06 -2.738649e-05 0.000000e+00 0.000000e+00 0.000000e+00 0.000000e+00 -1.200180e-06 1.058689e-05 0.000000e+00 1.058689e-05 2.991558e-06 0.000000e+00 0.000000e+00 0.000000e+00 0.000000e+00 -1.134898e-05 3.853588e-06 0.000000e+00 3.853588e-06 2.734849e-05 0.000000e+00 0.000000e+00 0.000000e+00 0.000000e+00 -6.378717e-06 -5.949887e-06 0.000000e+00 -5.949887e-06 1.582396e-05 0.000000e+00 0.000000e+00 0.000000e+00 0.000000e+00 3.249387e-07 -5.079869e-06 0.000000e+00 -5.079869e-06 3.654504e-06 0.000000e+00 0.000000e+00 0.000000e+00 0.000000e+00 -3.176442e-07 -6.440703e-06 0.000000e+00 -6.440703e-06 2.240262e-06 0.000000e+00 0.000000e+00 0.000000e+00 0.000000e+00 4.729309e-06 -6.032764e-06 0.000000e+00 -6.032764e-06 -2.782927e-06 0.000000e+00 0.000000e+00 0.000000e+00 0.000000e+00 1.322833e-05 -3.356920e-06 0.000000e+00 -3.356920e-06 -3.858227e-06 0.000000e+00 0.000000e+00 0.000000e+00 0.000000e+00 2.263370e-05 1.046369e-06 0.000000e+00 1.046369e-06 -1.398561e-05 0.000000e+00 0.000000e+00 0.000000e+00 0.000000e+00 -1.950616e-05 2.507081e-05 0.000000e+00 2.507081e-05 -2.842096e-06 0.000000e+00 0.000000e+00 0.000000e+00 0.000000e+00 -1.698399e-04 5.197692e-05 0.000000e+00 5.197692e-05 4.668917e-05 0.000000e+00 0.000000e+00 0.000000e+00 0.000000e+00 -3.699781e-04 5.635616e-05 0.000000e+00 5.635616e-05 1.179910e-04 0.000000e+00 0.000000e+00 0.000000e+00 0.000000e+00 -5.158121e-04 2.812767e-05 0.000000e+00 2.812767e-05 1.809223e-04 0.000000e+00 0.000000e+00 0.000000e+00 0.000000e+00 -4.003946e-04 -6.320798e-05 0.000000e+00 -6.320798e-05 1.556811e-04 0.000000e+00 0.000000e+00 0.000000e+00 0.000000e+00 -1.835031e-04 -9.584770e-05 0.000000e+00 -9.584770e-05 6.274048e-05 0.000000e+00 0.000000e+00 0.000000e+00 0.000000e+00 -2.228404e-05 -3.608334e-05 0.000000e+00 -3.608334e-05 -1.540135e-05 0.000000e+00 0.000000e+00 0.000000e+00 0.000000e+00 -1.286539e-04 -8.518336e-05 0.000000e+00 -8.518336e-05 2.028944e-05 0.000000e+00 0.000000e+00 0.000000e+00 0.000000e+00 -1.620997e-05 -3.460274e-05 0.000000e+00 -3.460274e-05 -1.923743e-05 0.000000e+00 0.000000e+00 0.000000e+00 0.000000e+00 4.100568e-05 -9.306430e-05 0.000000e+00 -9.306430e-05 -1.587061e-04 0.000000e+00 0.000000e+00 0.000000e+00 0.000000e+00 1.775429e-05 2.802409e-05 0.000000e+00 2.802409e-05 -2.086902e-05 0.000000e+00 0.000000e+00 0.000000e+00 0.000000e+00 3.187191e-05 1.421687e-05 0.000000e+00 1.421687e-05 -2.506477e-05 0.000000e+00 0.000000e+00 0.000000e+00 0.000000e+00 3.605670e-05 -3.966208e-06 0.000000e+00 -3.966208e-06 -1.899769e-05 0.000000e+00 0.000000e+00 0.000000e+00 0.000000e+00 2.786253e-05 -1.598530e-05 0.000000e+00 -1.598530e-05 -2.187713e-06 0.000000e+00 0.000000e+00 0.000000e+00 0.000000e+00 7.918437e-06 -1.431496e-05 0.000000e+00 -1.431496e-05 2.128827e-05 0.000000e+00 0.000000e+00 0.000000e+00 0.000000e+00 -1.262330e-05 1.093130e-05 0.000000e+00 1.093130e-05 4.360964e-05 0.000000e+00 0.000000e+00 0.000000e+00 0.000000e+00 -1.475088e-05 4.577041e-05 0.000000e+00 4.577041e-05 5.032301e-05 0.000000e+00 0.000000e+00 0.000000e+00 0.000000e+00 -1.054781e-05 9.468908e-05 0.000000e+00 9.468908e-05 4.674736e-05 0.000000e+00 0.000000e+00 0.000000e+00 0.000000e+00 4.376376e-06 1.416758e-04 0.000000e+00 1.416758e-04 3.672999e-05 0.000000e+00 0.000000e+00 0.000000e+00 0.000000e+00 5.241677e-05 1.849832e-04 0.000000e+00 1.849832e-04 1.278703e-05 0.000000e+00 0.000000e+00 0.000000e+00 0.000000e+00 8.073487e-05 2.042034e-04 0.000000e+00 2.042034e-04 -1.064618e-05 0.000000e+00 0.000000e+00 0.000000e+00 0.000000e+00 9.370616e-05 2.099791e-04 0.000000e+00 2.099791e-04 -2.744048e-05 0.000000e+00 0.000000e+00 0.000000e+00 0.000000e+00 8.777360e-05 2.063866e-04 0.000000e+00 2.063866e-04 -3.172864e-05 0.000000e+00 0.000000e+00 0.000000e+00 0.000000e+00 6.079445e-05 2.006339e-04 0.000000e+00 2.006339e-04 -2.508827e-05 0.000000e+00 0.000000e+00 0.000000e+00 0.000000e+00 2.212486e-05 2.000979e-04 0.000000e+00 2.000979e-04 -1.263934e-05 0.000000e+00 0.000000e+00 0.000000e+00 0.000000e+00 -1.758224e-05 2.104689e-04 0.000000e+00 2.104689e-04 9.762718e-07 0.000000e+00 0.000000e+00 0.000000e+00 0.000000e+00 -3.428733e-05 2.274727e-04 0.000000e+00 2.274727e-04 -2.930537e-06 0.000000e+00 0.000000e+00 0.000000e+00 0.000000e+00 -2.650536e-05 2.320952e-04 0.000000e+00 2.320952e-04 -2.565897e-05 0.000000e+00 0.000000e+00 0.000000e+00 0.000000e+00 -1.117175e-06 2.148370e-04 0.000000e+00 2.148370e-04 -5.611571e-05 0.000000e+00 0.000000e+00 0.000000e+00 0.000000e+00 2.415898e-05 1.790746e-04 0.000000e+00 1.790746e-04 -7.946580e-05 0.000000e+00 0.000000e+00 0.000000e+00 0.000000e+00 4.020655e-05 1.394362e-04 0.000000e+00 1.394362e-04 -9.357606e-05 0.000000e+00 0.000000e+00 0.000000e+00 0.000000e+00 4.804556e-05 9.180492e-05 0.000000e+00 9.180492e-05 -1.003297e-04 0.000000e+00 0.000000e+00 0.000000e+00 0.000000e+00 4.115163e-05 4.571320e-05 0.000000e+00 4.571320e-05 -9.046249e-05 0.000000e+00 0.000000e+00 0.000000e+00 0.000000e+00 2.299555e-05 1.256188e-05 0.000000e+00 1.256188e-05 -6.983470e-05 0.000000e+00 0.000000e+00 0.000000e+00 0.000000e+00 -2.906058e-06 5.913919e-06 0.000000e+00 5.913919e-06 -3.704867e-05 0.000000e+00 0.000000e+00 0.000000e+00 0.000000e+00 -1.208861e-05 1.495200e-05 0.000000e+00 1.495200e-05 -1.930436e-05 0.000000e+00 0.000000e+00 0.000000e+00 0.000000e+00 -7.863303e-06 2.536663e-05 0.000000e+00 2.536663e-05 -1.344863e-05 0.000000e+00 0.000000e+00 0.000000e+00 0.000000e+00 2.958374e-06 3.084617e-05 0.000000e+00 3.084617e-05 -1.563194e-05 0.000000e+00 0.000000e+00 0.000000e+00 0.000000e+00 1.401782e-06 -6.902121e-06 0.000000e+00 -6.902121e-06 -4.445242e-06 0.000000e+00 0.000000e+00 0.000000e+00 0.000000e+00 8.247696e-05 -4.747424e-05 0.000000e+00 -4.747424e-05 -8.141700e-04 0.000000e+00 0.000000e+00 0.000000e+00 0.000000e+00 1.781123e-04 -3.508229e-05 0.000000e+00 -3.508229e-05 -7.839361e-04 0.000000e+00 0.000000e+00 0.000000e+00 0.000000e+00 1.950268e-04 -2.462298e-05 0.000000e+00 -2.462298e-05 -7.950277e-04 0.000000e+00 0.000000e+00 0.000000e+00 0.000000e+00 2.035768e-04 -1.006301e-05 0.000000e+00 -1.006301e-05 -7.634730e-04 0.000000e+00 0.000000e+00 0.000000e+00 0.000000e+00 2.016327e-04 -2.032745e-05 0.000000e+00 -2.032745e-05 -7.108685e-04 0.000000e+00 0.000000e+00 0.000000e+00 0.000000e+00 2.076611e-04 -1.250202e-06 0.000000e+00 -1.250202e-06 -6.920208e-04 0.000000e+00 0.000000e+00 0.000000e+00 0.000000e+00 2.061408e-04 -1.722485e-05 0.000000e+00 -1.722485e-05 -6.386091e-04 0.000000e+00 0.000000e+00 0.000000e+00 0.000000e+00 2.072910e-04 -1.592586e-05 0.000000e+00 -1.592586e-05 -5.717943e-04 0.000000e+00 0.000000e+00 0.000000e+00 0.000000e+00 2.100053e-04 -1.690529e-05 0.000000e+00 -1.690529e-05 -5.090592e-04 0.000000e+00 0.000000e+00 0.000000e+00 0.000000e+00 2.077796e-04 1.350000e-07 0.000000e+00 1.350000e-07 -5.241931e-04 0.000000e+00 0.000000e+00 0.000000e+00 0.000000e+00 2.121633e-04 -6.689704e-07 0.000000e+00 -6.689704e-07 -4.941263e-04 0.000000e+00 0.000000e+00 0.000000e+00 0.000000e+00 2.154129e-04 -1.580239e-05 0.000000e+00 -1.580239e-05 -4.497263e-04 0.000000e+00 0.000000e+00 0.000000e+00 0.000000e+00 2.266681e-04 -1.572997e-05 0.000000e+00 -1.572997e-05 -3.996619e-04 0.000000e+00 0.000000e+00 0.000000e+00 0.000000e+00 2.379382e-04 -1.659365e-05 0.000000e+00 -1.659365e-05 -3.472603e-04 0.000000e+00 0.000000e+00 0.000000e+00 0.000000e+00 2.543727e-04 -1.763050e-05 0.000000e+00 -1.763050e-05 -3.010654e-04 0.000000e+00 0.000000e+00 0.000000e+00 0.000000e+00 2.486790e-04 -4.610727e-06 0.000000e+00 -4.610727e-06 -3.121508e-04 0.000000e+00 0.000000e+00 0.000000e+00 0.000000e+00 2.583555e-04 -5.758409e-06 0.000000e+00 -5.758409e-06 -2.899089e-04 0.000000e+00 0.000000e+00 0.000000e+00 0.000000e+00 2.743870e-04 -1.878591e-05 0.000000e+00 -1.878591e-05 -2.578831e-04 0.000000e+00 0.000000e+00 0.000000e+00 0.000000e+00 2.958410e-04 -1.943029e-05 0.000000e+00 -1.943029e-05 -2.131068e-04 0.000000e+00 0.000000e+00 0.000000e+00 0.000000e+00 3.229603e-04 -2.043185e-05 0.000000e+00 -2.043185e-05 -1.739123e-04 0.000000e+00 0.000000e+00 0.000000e+00 0.000000e+00 3.143113e-04 -8.283655e-06 0.000000e+00 -8.283655e-06 -1.833855e-04 0.000000e+00 0.000000e+00 0.000000e+00 0.000000e+00 3.274804e-04 -8.853493e-06 0.000000e+00 -8.853493e-06 -1.631954e-04 0.000000e+00 0.000000e+00 0.000000e+00 0.000000e+00 3.526404e-04 -2.208804e-05 0.000000e+00 -2.208804e-05 -1.336041e-04 0.000000e+00 0.000000e+00 0.000000e+00 0.000000e+00 3.837163e-04 -2.303202e-05 0.000000e+00 -2.303202e-05 -8.882582e-05 0.000000e+00 0.000000e+00 0.000000e+00 0.000000e+00 4.212448e-04 -2.543036e-05 0.000000e+00 -2.543036e-05 -4.719414e-05 0.000000e+00 0.000000e+00 0.000000e+00 0.000000e+00 4.085148e-04 -1.165906e-05 0.000000e+00 -1.165906e-05 -5.766140e-05 0.000000e+00 0.000000e+00 0.000000e+00 0.000000e+00 4.275870e-04 -1.144393e-05 0.000000e+00 -1.144393e-05 -3.450676e-05 0.000000e+00 0.000000e+00 0.000000e+00 0.000000e+00 4.590971e-04 -2.869794e-05 0.000000e+00 -2.869794e-05 4.261722e-06 0.000000e+00 0.000000e+00 0.000000e+00 0.000000e+00 4.663366e-04 -1.406427e-05 0.000000e+00 -1.406427e-05 1.634351e-05 0.000000e+00 0.000000e+00 0.000000e+00 0.000000e+00 5.063519e-04 -3.279820e-05 0.000000e+00 -3.279820e-05 5.253384e-05 0.000000e+00 0.000000e+00 0.000000e+00 0.000000e+00 5.574829e-04 -3.504997e-05 0.000000e+00 -3.504997e-05 1.121442e-04 0.000000e+00 0.000000e+00 0.000000e+00 0.000000e+00 6.214741e-04 -3.835032e-05 0.000000e+00 -3.835032e-05 1.757578e-04 0.000000e+00 0.000000e+00 0.000000e+00 0.000000e+00 5.981966e-04 -1.845912e-05 0.000000e+00 -1.845912e-05 1.608722e-04 0.000000e+00 0.000000e+00 0.000000e+00 0.000000e+00 6.220414e-04 -2.065083e-05 0.000000e+00 -2.065083e-05 1.963857e-04 0.000000e+00 0.000000e+00 0.000000e+00 0.000000e+00 6.952615e-04 -5.333702e-05 0.000000e+00 -5.333702e-05 2.547829e-04 0.000000e+00 0.000000e+00 0.000000e+00 0.000000e+00 7.965076e-04 -7.025749e-05 0.000000e+00 -7.025749e-05 3.485941e-04 0.000000e+00 0.000000e+00 0.000000e+00 0.000000e+00 9.418653e-04 -9.906990e-05 0.000000e+00 -9.906990e-05 4.834404e-04 0.000000e+00 0.000000e+00 0.000000e+00 0.000000e+00 1.189921e-03 -2.087755e-04 0.000000e+00 -2.087755e-04 6.896489e-04 0.000000e+00 0.000000e+00 0.000000e+00 0.000000e+00 9.789067e-04 -9.751054e-05 0.000000e+00 -9.751054e-05 6.312803e-04 0.000000e+00 0.000000e+00 0.000000e+00 0.000000e+00 1.026181e-03 -1.550800e-04 0.000000e+00 -1.550800e-04 7.772314e-04 0.000000e+00 0.000000e+00 0.000000e+00 0.000000e+00 1.694878e-03 -5.999819e-04 0.000000e+00 -5.999819e-04 1.205095e-03 0.000000e+00 0.000000e+00 0.000000e+00 0.000000e+00 4.841631e-04 1.495499e-05 0.000000e+00 1.495499e-05 -1.470490e-04 0.000000e+00 0.000000e+00 0.000000e+00 0.000000e+00 2.942286e-04 2.720790e-06 0.000000e+00 2.720790e-06 -1.039474e-04 0.000000e+00 0.000000e+00 0.000000e+00 0.000000e+00 2.912227e-04 1.880133e-05 0.000000e+00 1.880133e-05 -8.921935e-05 0.000000e+00 0.000000e+00 0.000000e+00 0.000000e+00 2.431948e-04 2.803362e-05 0.000000e+00 2.803362e-05 -7.547853e-05 0.000000e+00 0.000000e+00 0.000000e+00 0.000000e+00 1.670509e-04 3.738771e-05 0.000000e+00 3.738771e-05 -5.371212e-05 0.000000e+00 0.000000e+00 0.000000e+00 0.000000e+00 1.453918e-04 8.289350e-05 0.000000e+00 8.289350e-05 -3.828523e-05 0.000000e+00 0.000000e+00 0.000000e+00 0.000000e+00 1.820885e-04 7.052914e-05 0.000000e+00 7.052914e-05 -2.641038e-05 0.000000e+00 0.000000e+00 0.000000e+00 0.000000e+00 1.626059e-04 9.345546e-05 0.000000e+00 9.345546e-05 -1.582644e-05 0.000000e+00 0.000000e+00 0.000000e+00 0.000000e+00 1.460481e-04 4.925555e-05 0.000000e+00 4.925555e-05 -3.828213e-05 0.000000e+00 0.000000e+00 0.000000e+00 0.000000e+00 -5.141589e-06 3.505153e-05 0.000000e+00 3.505153e-05 1.506350e-05 0.000000e+00 0.000000e+00 0.000000e+00 0.000000e+00 -7.543908e-06 1.502186e-05 0.000000e+00 1.502186e-05 -4.416738e-06 0.000000e+00 0.000000e+00 0.000000e+00 0.000000e+00 -2.830091e-05 -7.177543e-06 0.000000e+00 -7.177543e-06 3.945831e-06 0.000000e+00 0.000000e+00 0.000000e+00 0.000000e+00 -6.861377e-05 4.241732e-07 0.000000e+00 4.241732e-07 3.243030e-05 0.000000e+00 0.000000e+00 0.000000e+00 0.000000e+00 -1.925786e-05 -1.255527e-05 0.000000e+00 -1.255527e-05 5.022682e-06 0.000000e+00 0.000000e+00 0.000000e+00 0.000000e+00 4.975748e-06 -7.182543e-06 0.000000e+00 -7.182543e-06 -1.558434e-05 0.000000e+00 0.000000e+00 0.000000e+00 0.000000e+00 1.262299e-05 -2.037132e-06 0.000000e+00 -2.037132e-06 -2.888847e-05 0.000000e+00 0.000000e+00 0.000000e+00 0.000000e+00 6.463892e-06 -5.574598e-07 0.000000e+00 -5.574598e-07 -2.083014e-05 0.000000e+00 0.000000e+00 0.000000e+00 0.000000e+00 6.873709e-06 9.404017e-06 0.000000e+00 9.404017e-06 -1.503457e-05 0.000000e+00 0.000000e+00 0.000000e+00 0.000000e+00 -7.821532e-06 7.707322e-06 0.000000e+00 7.707322e-06 1.764782e-05 0.000000e+00 0.000000e+00 0.000000e+00 0.000000e+00 -1.004366e-05 -1.401640e-06 0.000000e+00 -1.401640e-06 2.534320e-05 0.000000e+00 0.000000e+00 0.000000e+00 0.000000e+00 -1.697284e-04 5.503493e-05 0.000000e+00 5.503493e-05 5.093722e-05 0.000000e+00 0.000000e+00 0.000000e+00 0.000000e+00 -2.693218e-04 5.643367e-05 0.000000e+00 5.643367e-05 7.989376e-05 0.000000e+00 0.000000e+00 0.000000e+00 0.000000e+00 4.145246e-06 -5.075360e-06 0.000000e+00 -5.075360e-06 1.964098e-07 0.000000e+00 0.000000e+00 0.000000e+00 0.000000e+00 -3.209038e-07 3.736964e-06 0.000000e+00 3.736964e-06 2.178233e-06 0.000000e+00 0.000000e+00 0.000000e+00 0.000000e+00 1.356701e-05 1.201121e-05 0.000000e+00 1.201121e-05 -1.342822e-05 0.000000e+00 0.000000e+00 0.000000e+00 0.000000e+00 -2.182474e-05 1.689191e-05 0.000000e+00 1.689191e-05 7.962452e-06 0.000000e+00 0.000000e+00 0.000000e+00 0.000000e+00 -8.033223e-05 3.984646e-05 0.000000e+00 3.984646e-05 1.571043e-05 0.000000e+00 0.000000e+00 0.000000e+00 0.000000e+00 -2.417004e-04 5.584923e-05 0.000000e+00 5.584923e-05 6.944860e-05 0.000000e+00 0.000000e+00 0.000000e+00 0.000000e+00 -4.594075e-04 4.681359e-05 0.000000e+00 4.681359e-05 1.532992e-04 0.000000e+00 0.000000e+00 0.000000e+00 0.000000e+00 -3.152979e-04 -6.818539e-05 0.000000e+00 -6.818539e-05 8.589104e-05 0.000000e+00 0.000000e+00 0.000000e+00 0.000000e+00 -5.037820e-04 -1.399660e-05 0.000000e+00 -1.399660e-05 1.865510e-04 0.000000e+00 0.000000e+00 0.000000e+00 0.000000e+00 -2.269557e-04 -7.447359e-05 0.000000e+00 -7.447359e-05 5.380576e-05 0.000000e+00 0.000000e+00 0.000000e+00 0.000000e+00 2.762396e-05 1.505693e-05 0.000000e+00 1.505693e-05 -1.980474e-05 0.000000e+00 0.000000e+00 0.000000e+00 0.000000e+00 1.156102e-05 2.478653e-05 0.000000e+00 2.478653e-05 -1.565072e-05 0.000000e+00 0.000000e+00 0.000000e+00 0.000000e+00 3.626600e-05 -2.972698e-06 0.000000e+00 -2.972698e-06 -1.788996e-05 0.000000e+00 0.000000e+00 0.000000e+00 0.000000e+00 3.160098e-05 -2.002228e-05 0.000000e+00 -2.002228e-05 -4.530053e-06 0.000000e+00 0.000000e+00 0.000000e+00 0.000000e+00 1.894044e-05 -2.816692e-05 0.000000e+00 -2.816692e-05 2.048343e-05 0.000000e+00 0.000000e+00 0.000000e+00 0.000000e+00 -2.880558e-06 -1.318557e-05 0.000000e+00 -1.318557e-05 5.316688e-05 0.000000e+00 0.000000e+00 0.000000e+00 0.000000e+00 -1.093243e-05 2.381718e-05 0.000000e+00 2.381718e-05 6.886325e-05 0.000000e+00 0.000000e+00 0.000000e+00 0.000000e+00 -5.868147e-06 7.203789e-05 0.000000e+00 7.203789e-05 7.997920e-05 0.000000e+00 0.000000e+00 0.000000e+00 0.000000e+00 1.786607e-05 1.222716e-04 0.000000e+00 1.222716e-04 6.422421e-05 0.000000e+00 0.000000e+00 0.000000e+00 0.000000e+00 5.700489e-05 1.706207e-04 0.000000e+00 1.706207e-04 4.696690e-05 0.000000e+00 0.000000e+00 0.000000e+00 0.000000e+00 8.498691e-05 1.939541e-04 0.000000e+00 1.939541e-04 1.232852e-05 0.000000e+00 0.000000e+00 0.000000e+00 0.000000e+00 9.506277e-05 2.019935e-04 0.000000e+00 2.019935e-04 -1.072496e-05 0.000000e+00 0.000000e+00 0.000000e+00 0.000000e+00 8.800573e-05 2.078044e-04 0.000000e+00 2.078044e-04 -2.318444e-05 0.000000e+00 0.000000e+00 0.000000e+00 0.000000e+00 6.796287e-05 2.105595e-04 0.000000e+00 2.105595e-04 -2.206473e-05 0.000000e+00 0.000000e+00 0.000000e+00 0.000000e+00 3.897363e-05 2.134844e-04 0.000000e+00 2.134844e-04 -1.350345e-05 0.000000e+00 0.000000e+00 0.000000e+00 0.000000e+00 4.749071e-06 2.196959e-04 0.000000e+00 2.196959e-04 -2.720218e-06 0.000000e+00 0.000000e+00 0.000000e+00 0.000000e+00 -2.209782e-05 2.292736e-04 0.000000e+00 2.292736e-04 -4.382077e-06 0.000000e+00 0.000000e+00 0.000000e+00 0.000000e+00 -3.284866e-05 2.336566e-04 0.000000e+00 2.336566e-04 -2.435804e-05 0.000000e+00 0.000000e+00 0.000000e+00 0.000000e+00 -2.826746e-05 2.246139e-04 0.000000e+00 2.246139e-04 -5.498698e-05 0.000000e+00 0.000000e+00 0.000000e+00 0.000000e+00 -1.232237e-05 1.971121e-04 0.000000e+00 1.971121e-04 -8.362197e-05 0.000000e+00 0.000000e+00 0.000000e+00 0.000000e+00 6.152190e-06 1.582993e-04 0.000000e+00 1.582993e-04 -1.033766e-04 0.000000e+00 0.000000e+00 0.000000e+00 0.000000e+00 2.484943e-05 1.143866e-04 0.000000e+00 1.143866e-04 -1.202465e-04 0.000000e+00 0.000000e+00 0.000000e+00 0.000000e+00 3.122633e-05 6.414044e-05 0.000000e+00 6.414044e-05 -1.205749e-04 0.000000e+00 0.000000e+00 0.000000e+00 0.000000e+00 2.190662e-05 2.189253e-05 0.000000e+00 2.189253e-05 -9.964881e-05 0.000000e+00 0.000000e+00 0.000000e+00 0.000000e+00 2.277156e-06 -1.867877e-06 0.000000e+00 -1.867877e-06 -6.537394e-05 0.000000e+00 0.000000e+00 0.000000e+00 0.000000e+00 -1.118252e-05 5.504102e-07 0.000000e+00 5.504102e-07 -3.284268e-05 0.000000e+00 0.000000e+00 0.000000e+00 0.000000e+00 -1.187307e-05 1.253139e-05 0.000000e+00 1.253139e-05 -1.678950e-05 0.000000e+00 0.000000e+00 0.000000e+00 0.000000e+00 -3.849010e-06 2.264625e-05 0.000000e+00 2.264625e-05 -1.205126e-05 0.000000e+00 0.000000e+00 0.000000e+00 0.000000e+00 -9.038034e-05 4.654387e-05 0.000000e+00 4.654387e-05 5.403923e-04 0.000000e+00 0.000000e+00 0.000000e+00 0.000000e+00 2.057812e-04 -4.390043e-06 0.000000e+00 -4.390043e-06 -7.275519e-04 0.000000e+00 0.000000e+00 0.000000e+00 0.000000e+00 2.078180e-04 6.387817e-07 0.000000e+00 6.387817e-07 -6.563458e-04 0.000000e+00 0.000000e+00 0.000000e+00 0.000000e+00 2.077655e-04 7.679632e-07 0.000000e+00 7.679632e-07 -5.877384e-04 0.000000e+00 0.000000e+00 0.000000e+00 0.000000e+00 2.185397e-04 -2.284665e-06 0.000000e+00 -2.284665e-06 -4.371215e-04 0.000000e+00 0.000000e+00 0.000000e+00 0.000000e+00 2.152347e-04 -1.164384e-06 0.000000e+00 -1.164384e-06 -4.647850e-04 0.000000e+00 0.000000e+00 0.000000e+00 0.000000e+00 2.231510e-04 -2.721853e-06 0.000000e+00 -2.721853e-06 -4.116546e-04 0.000000e+00 0.000000e+00 0.000000e+00 0.000000e+00 2.337853e-04 -3.417211e-06 0.000000e+00 -3.417211e-06 -3.597248e-04 0.000000e+00 0.000000e+00 0.000000e+00 0.000000e+00 2.774518e-04 -6.045454e-06 0.000000e+00 -6.045454e-06 -2.447546e-04 0.000000e+00 0.000000e+00 0.000000e+00 0.000000e+00 2.670963e-04 -5.485538e-06 0.000000e+00 -5.485538e-06 -2.676358e-04 0.000000e+00 0.000000e+00 0.000000e+00 0.000000e+00 2.896829e-04 -7.466119e-06 0.000000e+00 -7.466119e-06 -2.232968e-04 0.000000e+00 0.000000e+00 0.000000e+00 0.000000e+00 3.581664e-04 -9.376264e-06 0.000000e+00 -9.376264e-06 -1.214079e-04 0.000000e+00 0.000000e+00 0.000000e+00 0.000000e+00 3.430089e-04 -9.340919e-06 0.000000e+00 -9.340919e-06 -1.427984e-04 0.000000e+00 0.000000e+00 0.000000e+00 0.000000e+00 3.747281e-04 -9.856279e-06 0.000000e+00 -9.856279e-06 -9.938996e-05 0.000000e+00 0.000000e+00 0.000000e+00 0.000000e+00 4.459487e-04 -1.212498e-05 0.000000e+00 -1.212498e-05 -9.180366e-06 0.000000e+00 0.000000e+00 0.000000e+00 0.000000e+00 4.893561e-04 -1.627139e-05 0.000000e+00 -1.627139e-05 4.077980e-05 0.000000e+00 0.000000e+00 0.000000e+00 0.000000e+00 5.447096e-04 -1.542623e-05 0.000000e+00 -1.542623e-05 9.447117e-05 0.000000e+00 0.000000e+00 0.000000e+00 0.000000e+00 7.043085e-04 -2.888038e-05 0.000000e+00 -2.888038e-05 2.762253e-04 0.000000e+00 0.000000e+00 0.000000e+00 0.000000e+00 6.625651e-04 -2.496237e-05 0.000000e+00 -2.496237e-05 2.344090e-04 0.000000e+00 0.000000e+00 0.000000e+00 0.000000e+00 7.504614e-04 -3.345177e-05 0.000000e+00 -3.345177e-05 3.231448e-04 0.000000e+00 0.000000e+00 0.000000e+00 0.000000e+00 8.665616e-04 -4.650580e-05 0.000000e+00 -4.650580e-05 4.483598e-04 0.000000e+00 0.000000e+00 0.000000e+00 0.000000e+00 8.249041e-04 -3.252580e-04 0.000000e+00 -3.252580e-04 1.510018e-03 0.000000e+00 0.000000e+00 0.000000e+00 0.000000e+00 1.005455e-03 -2.452520e-04 0.000000e+00 -2.452520e-04 1.022603e-03 0.000000e+00 0.000000e+00 0.000000e+00 0.000000e+00 3.842271e-04 2.684467e-05 0.000000e+00 2.684467e-05 -1.169615e-04 0.000000e+00 0.000000e+00 0.000000e+00 0.000000e+00 2.782156e-04 2.828619e-05 0.000000e+00 2.828619e-05 -8.241360e-05 0.000000e+00 0.000000e+00 0.000000e+00 0.000000e+00 2.060858e-04 3.481794e-05 0.000000e+00 3.481794e-05 -6.132047e-05 0.000000e+00 0.000000e+00 0.000000e+00 0.000000e+00 1.588726e-04 5.493943e-05 0.000000e+00 5.493943e-05 -5.130221e-05 0.000000e+00 0.000000e+00 0.000000e+00 0.000000e+00 5.458999e-05 3.324426e-05 0.000000e+00 3.324426e-05 -2.067780e-05 0.000000e+00 0.000000e+00 0.000000e+00 0.000000e+00 -2.926523e-05 -1.568867e-06 0.000000e+00 -1.568867e-06 1.377595e-06 0.000000e+00 0.000000e+00 0.000000e+00 0.000000e+00 -1.822041e-05 -1.084101e-05 0.000000e+00 -1.084101e-05 3.357340e-06 0.000000e+00 0.000000e+00 0.000000e+00 0.000000e+00 4.865416e-06 6.554635e-06 0.000000e+00 6.554635e-06 -1.722322e-05 0.000000e+00 0.000000e+00 0.000000e+00 0.000000e+00 -6.230755e-07 1.108185e-05 0.000000e+00 1.108185e-05 -6.270257e-07 0.000000e+00 0.000000e+00 0.000000e+00 0.000000e+00 -2.750321e-06 -3.722119e-08 0.000000e+00 -3.722119e-08 8.268072e-06 0.000000e+00 0.000000e+00 0.000000e+00 0.000000e+00 -5.760565e-05 3.127738e-05 0.000000e+00 3.127738e-05 1.740478e-05 0.000000e+00 0.000000e+00 0.000000e+00 0.000000e+00 -3.011133e-04 4.840717e-05 0.000000e+00 4.840717e-05 8.453964e-05 0.000000e+00 0.000000e+00 0.000000e+00 0.000000e+00 -3.561767e-04 -1.237269e-06 0.000000e+00 -1.237269e-06 1.010539e-04 0.000000e+00 0.000000e+00 0.000000e+00 0.000000e+00 7.133293e-05 -8.182043e-05 0.000000e+00 -8.182043e-05 -2.112457e-04 0.000000e+00 0.000000e+00 0.000000e+00 0.000000e+00 2.413158e-04 -4.151224e-06 0.000000e+00 -4.151224e-06 -3.355284e-04 0.000000e+00 0.000000e+00 0.000000e+00 0.000000e+00 9.124533e-04 -6.536724e-05 0.000000e+00 -6.536724e-05 5.283801e-04 0.000000e+00 0.000000e+00 0.000000e+00 0.000000e+00 2.394196e-04 3.073050e-05 0.000000e+00 3.073050e-05 -7.087151e-05 0.000000e+00 0.000000e+00 0.000000e+00 0.000000e+00 1.728142e-04 3.930237e-05 0.000000e+00 3.930237e-05 -5.319186e-05 0.000000e+00 0.000000e+00 0.000000e+00 0.000000e+00 -2.541470e-06 -3.960497e-06 0.000000e+00 -3.960497e-06 5.886999e-06 0.000000e+00 0.000000e+00 0.000000e+00 0.000000e+00 2.077365e-04 1.879006e-07 0.000000e+00 1.879006e-07 -5.556614e-04 0.000000e+00 0.000000e+00 0.000000e+00 0.000000e+00 2.087057e-04 1.202814e-06 0.000000e+00 1.202814e-06 -6.213936e-04 0.000000e+00 0.000000e+00 0.000000e+00 0.000000e+00 2.282190e-04 -2.208582e-06 0.000000e+00 -2.208582e-06 -3.855667e-04 0.000000e+00 0.000000e+00 0.000000e+00 0.000000e+00 3.018316e-04 -8.074744e-06 0.000000e+00 -8.074744e-06 -2.031858e-04 0.000000e+00 0.000000e+00 0.000000e+00 0.000000e+00 3.906696e-04 -1.131295e-05 0.000000e+00 -1.131295e-05 -7.841884e-05 0.000000e+00 0.000000e+00 0.000000e+00 0.000000e+00 5.722984e-04 -1.542428e-05 0.000000e+00 -1.542428e-05 1.278113e-04 0.000000e+00 0.000000e+00 0.000000e+00 0.000000e+00 5.161033e-04 -1.685361e-05 0.000000e+00 -1.685361e-05 6.557533e-05 0.000000e+00 0.000000e+00 0.000000e+00 0.000000e+00 8.094165e-04 -3.559557e-05 0.000000e+00 -3.559557e-05 3.801951e-04 0.000000e+00 0.000000e+00 0.000000e+00 0.000000e+00 3.263056e-04 2.786914e-05 0.000000e+00 2.786914e-05 -9.637227e-05 0.000000e+00 0.000000e+00 0.000000e+00 0.000000e+00 1.119685e-04 4.319352e-05 0.000000e+00 4.319352e-05 -3.478551e-05 0.000000e+00 0.000000e+00 0.000000e+00 0.000000e+00 -2.399504e-06 4.113646e-06 0.000000e+00 4.113646e-06 7.678099e-06 0.000000e+00 0.000000e+00 0.000000e+00 0.000000e+00 2.681031e-06 1.101520e-05 0.000000e+00 1.101520e-05 -8.941338e-06 0.000000e+00 0.000000e+00 0.000000e+00 0.000000e+00 -1.065622e-04 4.435528e-05 0.000000e+00 4.435528e-05 3.161432e-05 0.000000e+00 0.000000e+00 0.000000e+00 0.000000e+00 -3.451698e-04 3.129105e-05 0.000000e+00 3.129105e-05 9.434517e-05 0.000000e+00 0.000000e+00 0.000000e+00 0.000000e+00 2.098892e-04 -3.445485e-05 0.000000e+00 -3.445485e-05 -6.601747e-04 0.000000e+00 0.000000e+00 0.000000e+00 0.000000e+00 2.074678e-04 -3.242370e-05 0.000000e+00 -3.242370e-05 -5.897304e-04 0.000000e+00 0.000000e+00 0.000000e+00 0.000000e+00 2.285818e-04 -3.586593e-05 0.000000e+00 -3.586593e-05 -3.857158e-04 0.000000e+00 0.000000e+00 0.000000e+00 0.000000e+00 2.177549e-04 -3.429772e-05 0.000000e+00 -3.429772e-05 -4.374261e-04 0.000000e+00 0.000000e+00 0.000000e+00 0.000000e+00 2.082989e-04 -3.350274e-05 0.000000e+00 -3.350274e-05 -6.254548e-04 0.000000e+00 0.000000e+00 0.000000e+00 0.000000e+00 2.125262e-04 -1.306286e-05 0.000000e+00 -1.306286e-05 -6.073694e-04 0.000000e+00 0.000000e+00 0.000000e+00 0.000000e+00 2.226154e-04 -3.454605e-05 0.000000e+00 -3.454605e-05 -4.101111e-04 0.000000e+00 0.000000e+00 0.000000e+00 0.000000e+00 2.208370e-04 -2.061162e-05 0.000000e+00 -2.061162e-05 -4.239626e-04 0.000000e+00 0.000000e+00 0.000000e+00 0.000000e+00 2.205872e-04 -2.141125e-05 0.000000e+00 -2.141125e-05 -3.970768e-04 0.000000e+00 0.000000e+00 0.000000e+00 0.000000e+00 2.123189e-04 -3.504805e-05 0.000000e+00 -3.504805e-05 -4.630996e-04 0.000000e+00 0.000000e+00 0.000000e+00 0.000000e+00 2.210653e-04 -1.986702e-05 0.000000e+00 -1.986702e-05 -4.518005e-04 0.000000e+00 0.000000e+00 0.000000e+00 0.000000e+00 3.017849e-04 -4.770320e-05 0.000000e+00 -4.770320e-05 -2.031961e-04 0.000000e+00 0.000000e+00 0.000000e+00 0.000000e+00 2.774396e-04 -4.649945e-05 0.000000e+00 -4.649945e-05 -2.458626e-04 0.000000e+00 0.000000e+00 0.000000e+00 0.000000e+00 9.415559e-04 -2.523753e-04 0.000000e+00 -2.523753e-04 5.594948e-04 0.000000e+00 0.000000e+00 0.000000e+00 0.000000e+00 2.876805e-04 -4.702077e-05 0.000000e+00 -4.702077e-05 -2.227913e-04 0.000000e+00 0.000000e+00 0.000000e+00 0.000000e+00 2.844381e-04 -3.294387e-05 0.000000e+00 -3.294387e-05 -2.347605e-04 0.000000e+00 0.000000e+00 0.000000e+00 0.000000e+00 2.941589e-04 -3.527698e-05 0.000000e+00 -3.527698e-05 -2.126591e-04 0.000000e+00 0.000000e+00 0.000000e+00 0.000000e+00 2.684757e-04 -4.450399e-05 0.000000e+00 -4.450399e-05 -2.683330e-04 0.000000e+00 0.000000e+00 0.000000e+00 0.000000e+00 2.677629e-04 -3.179952e-05 0.000000e+00 -3.179952e-05 -2.560072e-04 0.000000e+00 0.000000e+00 0.000000e+00 0.000000e+00 3.566653e-04 -5.729546e-05 0.000000e+00 -5.729546e-05 -1.201564e-04 0.000000e+00 0.000000e+00 0.000000e+00 0.000000e+00 3.904871e-04 -5.828651e-05 0.000000e+00 -5.828651e-05 -7.792876e-05 0.000000e+00 0.000000e+00 0.000000e+00 0.000000e+00 3.732868e-04 -5.793450e-05 0.000000e+00 -5.793450e-05 -9.956353e-05 0.000000e+00 0.000000e+00 0.000000e+00 0.000000e+00 3.638600e-04 -4.445876e-05 0.000000e+00 -4.445876e-05 -1.097637e-04 0.000000e+00 0.000000e+00 0.000000e+00 0.000000e+00 3.837174e-04 -4.406213e-05 0.000000e+00 -4.406213e-05 -8.935384e-05 0.000000e+00 0.000000e+00 0.000000e+00 0.000000e+00 3.421602e-04 -5.523709e-05 0.000000e+00 -5.523709e-05 -1.430374e-04 0.000000e+00 0.000000e+00 0.000000e+00 0.000000e+00 3.430540e-04 -4.182833e-05 0.000000e+00 -4.182833e-05 -1.306235e-04 0.000000e+00 0.000000e+00 0.000000e+00 0.000000e+00 4.480466e-04 -7.104909e-05 0.000000e+00 -7.104909e-05 -5.060982e-06 0.000000e+00 0.000000e+00 0.000000e+00 0.000000e+00 5.596211e-04 -8.971026e-05 0.000000e+00 -8.971026e-05 1.368612e-04 0.000000e+00 0.000000e+00 0.000000e+00 0.000000e+00 4.908627e-04 -8.131593e-05 0.000000e+00 -8.131593e-05 4.659419e-05 0.000000e+00 0.000000e+00 0.000000e+00 0.000000e+00 5.354904e-04 -9.022180e-05 0.000000e+00 -9.022180e-05 1.045715e-04 0.000000e+00 0.000000e+00 0.000000e+00 0.000000e+00 5.519209e-04 -6.952053e-05 0.000000e+00 -6.952053e-05 1.165317e-04 0.000000e+00 0.000000e+00 0.000000e+00 0.000000e+00 7.903887e-04 -1.804482e-04 0.000000e+00 -1.804482e-04 4.046007e-04 0.000000e+00 0.000000e+00 0.000000e+00 0.000000e+00 7.033395e-04 -1.455497e-04 0.000000e+00 -1.455497e-04 2.934755e-04 0.000000e+00 0.000000e+00 0.000000e+00 0.000000e+00 5.120412e-04 -8.685212e-05 0.000000e+00 -8.685212e-05 7.436271e-05 0.000000e+00 0.000000e+00 0.000000e+00 0.000000e+00 4.883120e-04 -6.640054e-05 0.000000e+00 -6.640054e-05 5.942820e-05 0.000000e+00 0.000000e+00 0.000000e+00 0.000000e+00 5.121991e-04 -6.832154e-05 0.000000e+00 -6.832154e-05 8.802456e-05 0.000000e+00 0.000000e+00 0.000000e+00 0.000000e+00 7.461258e-04 -1.649264e-04 0.000000e+00 -1.649264e-04 3.474602e-04 0.000000e+00 0.000000e+00 0.000000e+00 0.000000e+00 6.783330e-04 -1.216573e-04 0.000000e+00 -1.216573e-04 3.213597e-04 0.000000e+00 0.000000e+00 0.000000e+00 0.000000e+00 7.240704e-04 -1.340800e-04 0.000000e+00 -1.340800e-04 3.736546e-04 0.000000e+00 0.000000e+00 0.000000e+00 0.000000e+00 6.680438e-04 -1.266674e-04 0.000000e+00 -1.266674e-04 2.442958e-04 0.000000e+00 0.000000e+00 0.000000e+00 0.000000e+00 6.375871e-04 -1.069336e-04 0.000000e+00 -1.069336e-04 2.729542e-04 0.000000e+00 0.000000e+00 0.000000e+00 0.000000e+00 8.631366e-04 -2.030102e-04 0.000000e+00 -2.030102e-04 4.771282e-04 0.000000e+00 0.000000e+00 0.000000e+00 0.000000e+00 7.880737e-04 -1.434006e-04 0.000000e+00 -1.434006e-04 4.331591e-04 0.000000e+00 0.000000e+00 0.000000e+00 0.000000e+00 7.724628e-04 -1.854305e-04 0.000000e+00 -1.854305e-04 5.332963e-04 0.000000e+00 0.000000e+00 0.000000e+00 0.000000e+00 3.191320e-04 8.313689e-05 0.000000e+00 8.313689e-05 -8.975500e-05 0.000000e+00 0.000000e+00 0.000000e+00 0.000000e+00 8.588428e-04 -4.918782e-04 0.000000e+00 -4.918782e-04 1.606483e-03 0.000000e+00 0.000000e+00 0.000000e+00 0.000000e+00 2.420055e-04 7.365927e-05 0.000000e+00 7.365927e-05 -7.474336e-05 0.000000e+00 0.000000e+00 0.000000e+00 0.000000e+00 3.771840e-04 1.076440e-04 0.000000e+00 1.076440e-04 -8.956875e-05 0.000000e+00 0.000000e+00 0.000000e+00 0.000000e+00 3.692580e-04 9.056287e-05 0.000000e+00 9.056287e-05 -1.083871e-04 0.000000e+00 0.000000e+00 0.000000e+00 0.000000e+00 4.566227e-04 1.697913e-04 0.000000e+00 1.697913e-04 -7.491342e-05 0.000000e+00 0.000000e+00 0.000000e+00 0.000000e+00 4.360121e-04 1.224188e-04 0.000000e+00 1.224188e-04 -1.227920e-04 0.000000e+00 0.000000e+00 0.000000e+00 0.000000e+00 1.041129e-03 -5.285880e-04 0.000000e+00 -5.285880e-04 1.189368e-03 0.000000e+00 0.000000e+00 0.000000e+00 0.000000e+00 4.749886e-04 -2.878578e-04 0.000000e+00 -2.878578e-04 1.499066e-03 0.000000e+00 0.000000e+00 0.000000e+00 0.000000e+00 2.782156e-04 7.638762e-05 0.000000e+00 7.638762e-05 -8.202351e-05 0.000000e+00 0.000000e+00 0.000000e+00 0.000000e+00 2.634908e-04 7.322067e-05 0.000000e+00 7.322067e-05 -8.055804e-05 0.000000e+00 0.000000e+00 0.000000e+00 0.000000e+00 6.610400e-04 -5.619543e-05 0.000000e+00 -5.619543e-05 -3.946886e-04 0.000000e+00 0.000000e+00 0.000000e+00 0.000000e+00 9.438927e-05 1.037111e-04 0.000000e+00 1.037111e-04 -1.950823e-05 0.000000e+00 0.000000e+00 0.000000e+00 0.000000e+00 1.820698e-04 7.641914e-05 0.000000e+00 7.641914e-05 -6.006024e-05 0.000000e+00 0.000000e+00 0.000000e+00 0.000000e+00 1.377479e-04 1.091229e-04 0.000000e+00 1.091229e-04 -2.090702e-05 0.000000e+00 0.000000e+00 0.000000e+00 0.000000e+00 1.284265e-04 1.040592e-04 0.000000e+00 1.040592e-04 -2.174558e-05 0.000000e+00 0.000000e+00 0.000000e+00 0.000000e+00 -6.641557e-06 -5.963239e-06 0.000000e+00 -5.963239e-06 5.266011e-06 0.000000e+00 0.000000e+00 0.000000e+00 0.000000e+00 1.956033e-04 7.510948e-05 0.000000e+00 7.510948e-05 -6.251700e-05 0.000000e+00 0.000000e+00 0.000000e+00 0.000000e+00 4.329324e-05 9.047460e-05 0.000000e+00 9.047460e-05 5.728059e-07 0.000000e+00 0.000000e+00 0.000000e+00 0.000000e+00 -9.883994e-06 1.141993e-05 0.000000e+00 1.141993e-05 6.203893e-06 0.000000e+00 0.000000e+00 0.000000e+00 0.000000e+00 1.559406e-05 1.168723e-05 0.000000e+00 1.168723e-05 -1.781546e-05 0.000000e+00 0.000000e+00 0.000000e+00 0.000000e+00 -2.746251e-05 -1.264122e-05 0.000000e+00 -1.264122e-05 2.386603e-05 0.000000e+00 0.000000e+00 0.000000e+00 0.000000e+00 -1.394853e-05 -2.251924e-05 0.000000e+00 -2.251924e-05 6.876950e-06 0.000000e+00 0.000000e+00 0.000000e+00 0.000000e+00 -6.311810e-06 -1.297824e-05 0.000000e+00 -1.297824e-05 -1.883336e-06 0.000000e+00 0.000000e+00 0.000000e+00 0.000000e+00 2.063156e-04 -4.308724e-05 0.000000e+00 -4.308724e-05 -7.367190e-04 0.000000e+00 0.000000e+00 0.000000e+00 0.000000e+00 1.207063e-05 -1.219788e-05 0.000000e+00 -1.219788e-05 -1.506279e-05 0.000000e+00 0.000000e+00 0.000000e+00 0.000000e+00 1.990845e-05 -8.292450e-07 0.000000e+00 -8.292450e-07 -2.083224e-05 0.000000e+00 0.000000e+00 0.000000e+00 0.000000e+00 8.913241e-06 -9.783241e-06 0.000000e+00 -9.783241e-06 -1.575524e-05 0.000000e+00 0.000000e+00 0.000000e+00 0.000000e+00 1.050433e-05 7.501591e-06 0.000000e+00 7.501591e-06 -1.952045e-05 0.000000e+00 0.000000e+00 0.000000e+00 0.000000e+00 -1.193261e-04 1.062629e-04 0.000000e+00 1.062629e-04 1.617836e-05 0.000000e+00 0.000000e+00 0.000000e+00 0.000000e+00 -9.375818e-06 -1.015409e-07 0.000000e+00 -1.015409e-07 8.412643e-06 0.000000e+00 0.000000e+00 0.000000e+00 0.000000e+00 -2.128012e-06 5.240481e-06 0.000000e+00 5.240481e-06 -3.161843e-06 0.000000e+00 0.000000e+00 0.000000e+00 0.000000e+00 -1.747418e-06 6.972832e-07 0.000000e+00 6.972832e-07 -7.531120e-06 0.000000e+00 0.000000e+00 0.000000e+00 0.000000e+00 5.234392e-06 1.913060e-05 0.000000e+00 1.913060e-05 -8.342145e-06 0.000000e+00 0.000000e+00 0.000000e+00 0.000000e+00 -6.132108e-05 7.857951e-05 0.000000e+00 7.857951e-05 -4.325702e-06 0.000000e+00 0.000000e+00 0.000000e+00 0.000000e+00 -1.809137e-04 1.224149e-04 0.000000e+00 1.224149e-04 4.852364e-05 0.000000e+00 0.000000e+00 0.000000e+00 0.000000e+00 -1.932911e-06 -6.587305e-06 0.000000e+00 -6.587305e-06 2.314779e-06 0.000000e+00 0.000000e+00 0.000000e+00 0.000000e+00 4.370002e-07 -3.418626e-06 0.000000e+00 -3.418626e-06 -1.037969e-05 0.000000e+00 0.000000e+00 0.000000e+00 0.000000e+00 4.558719e-06 -2.528439e-06 0.000000e+00 -2.528439e-06 -1.351496e-05 0.000000e+00 0.000000e+00 0.000000e+00 0.000000e+00 -3.079826e-04 1.072013e-04 0.000000e+00 1.072013e-04 1.199204e-04 0.000000e+00 0.000000e+00 0.000000e+00 0.000000e+00 -3.201730e-04 -1.002667e-04 0.000000e+00 -1.002667e-04 1.656977e-04 0.000000e+00 0.000000e+00 0.000000e+00 0.000000e+00 -2.046988e-05 4.659764e-05 0.000000e+00 4.659764e-05 -1.890997e-05 0.000000e+00 0.000000e+00 0.000000e+00 0.000000e+00 -3.217236e-05 6.190231e-05 0.000000e+00 6.190231e-05 5.193896e-06 0.000000e+00 0.000000e+00 0.000000e+00 0.000000e+00 -2.475512e-04 1.267576e-04 0.000000e+00 1.267576e-04 8.638623e-05 0.000000e+00 0.000000e+00 0.000000e+00 0.000000e+00 -1.558353e-04 1.296425e-04 0.000000e+00 1.296425e-04 4.408660e-05 0.000000e+00 0.000000e+00 0.000000e+00 0.000000e+00 -1.990367e-04 1.223704e-04 0.000000e+00 1.223704e-04 6.109296e-05 0.000000e+00 0.000000e+00 0.000000e+00 0.000000e+00 -2.258405e-04 -1.760306e-04 0.000000e+00 -1.760306e-04 1.011953e-04 0.000000e+00 0.000000e+00 0.000000e+00 0.000000e+00 4.526864e-05 -1.923463e-04 0.000000e+00 -1.923463e-04 -2.086643e-04 0.000000e+00 0.000000e+00 0.000000e+00 0.000000e+00 -8.724171e-05 -1.761037e-04 0.000000e+00 -1.761037e-04 1.101441e-05 0.000000e+00 0.000000e+00 0.000000e+00 0.000000e+00 1.904724e-05 -8.811536e-05 0.000000e+00 -8.811536e-05 -1.251386e-04 0.000000e+00 0.000000e+00 0.000000e+00 0.000000e+00 2.100231e-04 -3.688275e-05 0.000000e+00 -3.688275e-05 -6.987441e-04 0.000000e+00 0.000000e+00 0.000000e+00 0.000000e+00 2.191282e-04 -2.059602e-05 0.000000e+00 -2.059602e-05 -7.159210e-04 0.000000e+00 0.000000e+00 0.000000e+00 0.000000e+00 2.136772e-04 -1.407940e-05 0.000000e+00 -1.407940e-05 -6.769352e-04 0.000000e+00 0.000000e+00 0.000000e+00 0.000000e+00 4.685370e-04 -7.583825e-05 0.000000e+00 -7.583825e-05 2.164373e-05 0.000000e+00 0.000000e+00 0.000000e+00 0.000000e+00 4.490265e-04 -5.632744e-05 0.000000e+00 -5.632744e-05 7.374843e-06 0.000000e+00 0.000000e+00 0.000000e+00 0.000000e+00 4.683067e-04 -6.157396e-05 0.000000e+00 -6.157396e-05 3.344463e-05 0.000000e+00 0.000000e+00 0.000000e+00 0.000000e+00 3.381205e-04 2.356064e-04 0.000000e+00 2.356064e-04 2.573817e-03 0.000000e+00 0.000000e+00 0.000000e+00 0.000000e+00 4.139222e-07 1.775296e-05 0.000000e+00 1.775296e-05 -2.359382e-05 0.000000e+00 0.000000e+00 0.000000e+00 0.000000e+00 -1.287210e-06 4.817019e-06 0.000000e+00 4.817019e-06 -1.151761e-06 0.000000e+00 0.000000e+00 0.000000e+00 0.000000e+00 -1.195991e-05 3.245243e-05 0.000000e+00 3.245243e-05 -1.083590e-06 0.000000e+00 0.000000e+00 0.000000e+00 0.000000e+00 9.176618e-05 -6.403282e-05 0.000000e+00 -6.403282e-05 -3.889331e-04 0.000000e+00 0.000000e+00 0.000000e+00 0.000000e+00 1.578127e-05 1.858018e-05 0.000000e+00 1.858018e-05 -2.067148e-05 0.000000e+00 0.000000e+00 0.000000e+00 0.000000e+00 2.424043e-04 -3.785043e-05 0.000000e+00 -3.785043e-05 -3.369802e-04 0.000000e+00 0.000000e+00 0.000000e+00 0.000000e+00 2.683260e-05 -1.302123e-05 0.000000e+00 -1.302123e-05 -1.368667e-05 0.000000e+00 0.000000e+00 0.000000e+00 0.000000e+00 1.300897e-05 -1.739499e-05 0.000000e+00 -1.739499e-05 2.870009e-06 0.000000e+00 0.000000e+00 0.000000e+00 0.000000e+00 -3.954451e-06 -2.738271e-06 0.000000e+00 -2.738271e-06 1.799132e-05 0.000000e+00 0.000000e+00 0.000000e+00 0.000000e+00 -7.942540e-06 1.979276e-05 0.000000e+00 1.979276e-05 2.013912e-05 0.000000e+00 0.000000e+00 0.000000e+00 0.000000e+00 1.188691e-05 1.019489e-04 0.000000e+00 1.019489e-04 1.591441e-05 0.000000e+00 0.000000e+00 0.000000e+00 0.000000e+00 3.989686e-05 1.410542e-04 0.000000e+00 1.410542e-04 5.808400e-06 0.000000e+00 0.000000e+00 0.000000e+00 0.000000e+00 7.338128e-05 1.778179e-04 0.000000e+00 1.778179e-04 -9.863736e-06 0.000000e+00 0.000000e+00 0.000000e+00 0.000000e+00 1.068311e-04 2.021999e-04 0.000000e+00 2.021999e-04 -3.250967e-05 0.000000e+00 0.000000e+00 0.000000e+00 0.000000e+00 4.312526e-05 2.007297e-04 0.000000e+00 2.007297e-04 -1.353060e-05 0.000000e+00 0.000000e+00 0.000000e+00 0.000000e+00 -3.897214e-05 2.169026e-04 0.000000e+00 2.169026e-04 1.111947e-05 0.000000e+00 0.000000e+00 0.000000e+00 0.000000e+00 -4.835394e-05 2.229401e-04 0.000000e+00 2.229401e-04 2.451115e-06 0.000000e+00 0.000000e+00 0.000000e+00 0.000000e+00 -3.361072e-05 2.141491e-04 0.000000e+00 2.141491e-04 -1.927959e-05 0.000000e+00 0.000000e+00 0.000000e+00 0.000000e+00 -1.069316e-05 1.858045e-04 0.000000e+00 1.858045e-04 -4.060044e-05 0.000000e+00 0.000000e+00 0.000000e+00 0.000000e+00 2.451844e-05 1.054582e-04 0.000000e+00 1.054582e-04 -6.835162e-05 0.000000e+00 0.000000e+00 0.000000e+00 0.000000e+00 2.800803e-05 6.152887e-05 0.000000e+00 6.152887e-05 -6.722160e-05 0.000000e+00 0.000000e+00 0.000000e+00 0.000000e+00 1.854443e-05 2.675947e-05 0.000000e+00 2.675947e-05 -5.394825e-05 0.000000e+00 0.000000e+00 0.000000e+00 0.000000e+00 -7.121915e-06 1.163896e-05 0.000000e+00 1.163896e-05 -1.888290e-05 0.000000e+00 0.000000e+00 0.000000e+00 0.000000e+00 -8.338336e-06 1.995290e-05 0.000000e+00 1.995290e-05 -1.044592e-05 0.000000e+00 0.000000e+00 0.000000e+00 0.000000e+00 1.150544e-03 5.338970e-04 0.000000e+00 5.338970e-04 -5.229232e-04 0.000000e+00 0.000000e+00 0.000000e+00 0.000000e+00 6.473765e-04 3.667180e-04 0.000000e+00 3.667180e-04 -2.343338e-05 0.000000e+00 0.000000e+00 0.000000e+00 0.000000e+00 5.158828e-04 2.201327e-04 0.000000e+00 2.201327e-04 -1.460454e-04 0.000000e+00 0.000000e+00 0.000000e+00 0.000000e+00 1.528656e-06 -1.776897e-05 0.000000e+00 -1.776897e-05 -7.005843e-06 0.000000e+00 0.000000e+00 0.000000e+00 0.000000e+00 1.141696e-04 -1.587674e-04 0.000000e+00 -1.587674e-04 -2.917102e-04 0.000000e+00 0.000000e+00 0.000000e+00 0.000000e+00 6.327649e-04 7.044811e-04 0.000000e+00 7.044811e-04 3.491832e-04 0.000000e+00 0.000000e+00 0.000000e+00 0.000000e+00 1.884804e-04 -8.335623e-05 0.000000e+00 -8.335623e-05 -8.254344e-04 0.000000e+00 0.000000e+00 0.000000e+00 0.000000e+00 9.498705e-05 1.066134e-04 0.000000e+00 1.066134e-04 -1.497604e-05 0.000000e+00 0.000000e+00 0.000000e+00 0.000000e+00 2.126998e-04 -1.354870e-05 0.000000e+00 -1.354870e-05 -6.406351e-04 0.000000e+00 0.000000e+00 0.000000e+00 0.000000e+00 2.103230e-04 -3.432821e-05 0.000000e+00 -3.432821e-05 -5.243711e-04 0.000000e+00 0.000000e+00 0.000000e+00 0.000000e+00 3.018113e-04 -3.616105e-05 0.000000e+00 -3.616105e-05 -1.913176e-04 0.000000e+00 0.000000e+00 0.000000e+00 0.000000e+00 3.150920e-04 -5.005147e-05 0.000000e+00 -5.005147e-05 -1.824005e-04 0.000000e+00 0.000000e+00 0.000000e+00 0.000000e+00 2.341039e-04 -3.711537e-05 0.000000e+00 -3.711537e-05 -3.582519e-04 0.000000e+00 0.000000e+00 0.000000e+00 0.000000e+00 4.283307e-06 -1.950510e-05 0.000000e+00 -1.950510e-05 -6.386188e-06 0.000000e+00 0.000000e+00 0.000000e+00 0.000000e+00 3.917887e-04 -4.662932e-05 0.000000e+00 -4.662932e-05 -6.597029e-05 0.000000e+00 0.000000e+00 0.000000e+00 0.000000e+00 4.087166e-04 -6.152920e-05 0.000000e+00 -6.152920e-05 -5.514909e-05 0.000000e+00 0.000000e+00 0.000000e+00 0.000000e+00 2.308273e-04 -2.140610e-05 0.000000e+00 -2.140610e-05 -3.724965e-04 0.000000e+00 0.000000e+00 0.000000e+00 0.000000e+00 5.847311e-04 -7.174170e-05 0.000000e+00 -7.174170e-05 1.458216e-04 0.000000e+00 0.000000e+00 0.000000e+00 0.000000e+00 5.969552e-04 -9.229458e-05 0.000000e+00 -9.229458e-05 1.662833e-04 0.000000e+00 0.000000e+00 0.000000e+00 0.000000e+00 2.410570e-04 5.275529e-04 0.000000e+00 5.275529e-04 1.695910e-03 0.000000e+00 0.000000e+00 0.000000e+00 0.000000e+00 3.098449e-04 7.804895e-05 0.000000e+00 7.804895e-05 -9.246957e-05 0.000000e+00 0.000000e+00 0.000000e+00 0.000000e+00 1.760180e-04 2.747980e-05 0.000000e+00 2.747980e-05 2.207508e-03 0.000000e+00 0.000000e+00 0.000000e+00 0.000000e+00 2.314124e-04 7.264887e-05 0.000000e+00 7.264887e-05 -7.315842e-05 0.000000e+00 0.000000e+00 0.000000e+00 0.000000e+00 2.107180e-04 7.463806e-05 0.000000e+00 7.463806e-05 -6.870680e-05 0.000000e+00 0.000000e+00 0.000000e+00 0.000000e+00 6.652983e-04 4.928320e-04 0.000000e+00 4.928320e-04 -1.109227e-04 0.000000e+00 0.000000e+00 0.000000e+00 0.000000e+00 7.777493e-04 -2.293640e-04 0.000000e+00 -2.293640e-04 6.479170e-04 0.000000e+00 0.000000e+00 0.000000e+00 0.000000e+00 9.995206e-04 -3.303057e-04 0.000000e+00 -3.303057e-04 6.934972e-04 0.000000e+00 0.000000e+00 0.000000e+00 0.000000e+00 2.081574e-04 7.340320e-05 0.000000e+00 7.340320e-05 -6.929396e-05 0.000000e+00 0.000000e+00 0.000000e+00 0.000000e+00 1.593292e-04 8.966268e-05 0.000000e+00 8.966268e-05 -1.730608e-05 0.000000e+00 0.000000e+00 0.000000e+00 0.000000e+00 -2.330934e-04 9.854209e-05 0.000000e+00 9.854209e-05 7.351892e-05 0.000000e+00 0.000000e+00 0.000000e+00 0.000000e+00 -3.502727e-04 6.291545e-05 0.000000e+00 6.291545e-05 1.542634e-04 0.000000e+00 0.000000e+00 0.000000e+00 0.000000e+00 1.976005e-04 8.032914e-05 0.000000e+00 8.032914e-05 -4.961959e-05 0.000000e+00 0.000000e+00 0.000000e+00 0.000000e+00 1.690492e-04 8.609443e-05 0.000000e+00 8.609443e-05 -4.461686e-05 0.000000e+00 0.000000e+00 0.000000e+00 0.000000e+00 4.073661e-05 9.130043e-05 0.000000e+00 9.130043e-05 4.416681e-06 0.000000e+00 0.000000e+00 0.000000e+00 0.000000e+00 -6.274923e-05 9.166684e-05 0.000000e+00 9.166684e-05 1.693482e-05 0.000000e+00 0.000000e+00 0.000000e+00 0.000000e+00 -3.080300e-05 1.250204e-05 0.000000e+00 1.250204e-05 3.688955e-05 0.000000e+00 0.000000e+00 0.000000e+00 0.000000e+00 -1.114469e-05 -4.387708e-07 0.000000e+00 -4.387708e-07 4.083566e-06 0.000000e+00 0.000000e+00 0.000000e+00 0.000000e+00 -3.493847e-06 -1.960347e-05 0.000000e+00 -1.960347e-05 5.759039e-07 0.000000e+00 0.000000e+00 0.000000e+00 0.000000e+00 1.240417e-04 -1.379283e-04 0.000000e+00 -1.379283e-04 -4.322224e-04 0.000000e+00 0.000000e+00 0.000000e+00 0.000000e+00 7.574954e-05 -1.928312e-04 0.000000e+00 -1.928312e-04 -3.065558e-04 0.000000e+00 0.000000e+00 0.000000e+00 0.000000e+00 -1.018853e-04 1.228670e-04 0.000000e+00 1.228670e-04 3.197407e-05 0.000000e+00 0.000000e+00 0.000000e+00 0.000000e+00 2.085814e-04 -3.266451e-05 0.000000e+00 -3.266451e-05 -5.564270e-04 0.000000e+00 0.000000e+00 0.000000e+00 0.000000e+00 -2.597438e-04 -1.147594e-04 0.000000e+00 -1.147594e-04 1.254847e-04 0.000000e+00 0.000000e+00 0.000000e+00 0.000000e+00 5.899018e-04 6.464153e-04 0.000000e+00 6.464153e-04 3.800385e-04 0.000000e+00 0.000000e+00 0.000000e+00 0.000000e+00 2.091833e-04 -1.446558e-05 0.000000e+00 -1.446558e-05 -5.724214e-04 0.000000e+00 0.000000e+00 0.000000e+00 0.000000e+00 4.990357e-05 -2.019897e-04 0.000000e+00 -2.019897e-04 -1.909553e-04 0.000000e+00 0.000000e+00 0.000000e+00 0.000000e+00 2.045045e-04 -1.549134e-05 0.000000e+00 -1.549134e-05 -5.391676e-04 0.000000e+00 0.000000e+00 0.000000e+00 0.000000e+00 -1.441637e-04 -1.844650e-04 0.000000e+00 -1.844650e-04 2.533022e-05 0.000000e+00 0.000000e+00 0.000000e+00 0.000000e+00 -1.516531e-05 -1.560437e-04 0.000000e+00 -1.560437e-04 -4.606864e-05 0.000000e+00 0.000000e+00 0.000000e+00 0.000000e+00 1.580406e-04 -9.697114e-05 0.000000e+00 -9.697114e-05 -4.451479e-04 0.000000e+00 0.000000e+00 0.000000e+00 0.000000e+00 6.943031e-06 2.709057e-05 0.000000e+00 2.709057e-05 -1.553686e-05 0.000000e+00 0.000000e+00 0.000000e+00 0.000000e+00 2.429675e-04 -2.461542e-05 0.000000e+00 -2.461542e-05 -3.239918e-04 0.000000e+00 0.000000e+00 0.000000e+00 0.000000e+00 2.497632e-04 -3.929863e-05 0.000000e+00 -3.929863e-05 -3.113365e-04 0.000000e+00 0.000000e+00 0.000000e+00 0.000000e+00 -7.536934e-06 1.705715e-05 0.000000e+00 1.705715e-05 -6.405831e-06 0.000000e+00 0.000000e+00 0.000000e+00 0.000000e+00 -2.887556e-06 2.673556e-05 0.000000e+00 2.673556e-05 -1.018176e-05 0.000000e+00 0.000000e+00 0.000000e+00 0.000000e+00 -1.219005e-05 7.077755e-06 0.000000e+00 7.077755e-06 -1.309502e-05 0.000000e+00 0.000000e+00 0.000000e+00 0.000000e+00 6.813216e-06 8.835623e-06 0.000000e+00 8.835623e-06 -5.884367e-05 0.000000e+00 0.000000e+00 0.000000e+00 0.000000e+00 2.171946e-06 9.185959e-06 0.000000e+00 9.185959e-06 -3.464930e-05 0.000000e+00 0.000000e+00 0.000000e+00 0.000000e+00 1.572289e-05 3.935594e-05 0.000000e+00 3.935594e-05 -8.266429e-05 0.000000e+00 0.000000e+00 0.000000e+00 0.000000e+00 1.321712e-05 8.118077e-05 0.000000e+00 8.118077e-05 -9.107372e-05 0.000000e+00 0.000000e+00 0.000000e+00 0.000000e+00 -2.805462e-05 1.654134e-04 0.000000e+00 1.654134e-04 -6.430385e-05 0.000000e+00 0.000000e+00 0.000000e+00 0.000000e+00 9.184494e-06 1.462201e-04 0.000000e+00 1.462201e-04 -5.585503e-05 0.000000e+00 0.000000e+00 0.000000e+00 0.000000e+00 -4.590044e-05 1.956765e-04 0.000000e+00 1.956765e-04 -4.200048e-05 0.000000e+00 0.000000e+00 0.000000e+00 0.000000e+00 -4.621146e-05 1.859891e-04 0.000000e+00 1.859891e-04 -7.126530e-06 0.000000e+00 0.000000e+00 0.000000e+00 0.000000e+00 -5.022294e-05 2.155443e-04 0.000000e+00 2.155443e-04 -1.863979e-05 0.000000e+00 0.000000e+00 0.000000e+00 0.000000e+00 -4.033069e-05 2.252178e-04 0.000000e+00 2.252178e-04 2.915357e-06 0.000000e+00 0.000000e+00 0.000000e+00 0.000000e+00 1.954617e-05 2.197152e-04 0.000000e+00 2.197152e-04 1.378774e-06 0.000000e+00 0.000000e+00 0.000000e+00 0.000000e+00 -3.926221e-06 2.062762e-04 0.000000e+00 2.062762e-04 2.842783e-06 0.000000e+00 0.000000e+00 0.000000e+00 0.000000e+00 8.454684e-05 2.037803e-04 0.000000e+00 2.037803e-04 -2.353816e-05 0.000000e+00 0.000000e+00 0.000000e+00 0.000000e+00 8.332657e-05 2.012344e-04 0.000000e+00 2.012344e-04 -2.738449e-05 0.000000e+00 0.000000e+00 0.000000e+00 0.000000e+00 1.068999e-04 1.786999e-04 0.000000e+00 1.786999e-04 -1.023568e-05 0.000000e+00 0.000000e+00 0.000000e+00 0.000000e+00 1.006064e-04 1.953518e-04 0.000000e+00 1.953518e-04 -2.553226e-05 0.000000e+00 0.000000e+00 0.000000e+00 0.000000e+00 8.551779e-05 1.592201e-04 0.000000e+00 1.592201e-04 9.582485e-06 0.000000e+00 0.000000e+00 0.000000e+00 0.000000e+00 4.339354e-05 1.269266e-04 0.000000e+00 1.269266e-04 3.178103e-05 0.000000e+00 0.000000e+00 0.000000e+00 0.000000e+00 -9.706297e-06 4.144404e-05 0.000000e+00 4.144404e-05 5.219870e-05 0.000000e+00 0.000000e+00 0.000000e+00 0.000000e+00 -7.725397e-06 2.383477e-05 0.000000e+00 2.383477e-05 2.442366e-06 0.000000e+00 0.000000e+00 0.000000e+00 0.000000e+00 -6.873257e-06 5.735924e-05 0.000000e+00 5.735924e-05 2.696342e-05 0.000000e+00 0.000000e+00 0.000000e+00 0.000000e+00 -1.264307e-05 -1.224506e-06 0.000000e+00 -1.224506e-06 4.107414e-05 0.000000e+00 0.000000e+00 0.000000e+00 0.000000e+00 1.708038e-05 -2.485617e-05 0.000000e+00 -2.485617e-05 2.250182e-06 0.000000e+00 0.000000e+00 0.000000e+00 0.000000e+00 -7.073160e-05 -1.811792e-04 0.000000e+00 -1.811792e-04 -5.565292e-05 0.000000e+00 0.000000e+00 0.000000e+00 0.000000e+00 2.596122e-05 5.754662e-06 0.000000e+00 5.754662e-06 -1.950513e-05 0.000000e+00 0.000000e+00 0.000000e+00 0.000000e+00 2.377329e-04 -2.553949e-05 0.000000e+00 -2.553949e-05 -3.477387e-04 0.000000e+00 0.000000e+00 0.000000e+00 0.000000e+00 1.413743e-05 8.580970e-05 0.000000e+00 8.580970e-05 4.690243e-05 0.000000e+00 0.000000e+00 0.000000e+00 0.000000e+00 1.035820e-04 1.913629e-04 0.000000e+00 1.913629e-04 -2.268044e-05 0.000000e+00 0.000000e+00 0.000000e+00 0.000000e+00 5.519122e-05 2.118485e-04 0.000000e+00 2.118485e-04 -1.340097e-05 0.000000e+00 0.000000e+00 0.000000e+00 0.000000e+00 -1.549787e-05 2.250625e-04 0.000000e+00 2.250625e-04 9.460334e-06 0.000000e+00 0.000000e+00 0.000000e+00 0.000000e+00 -5.232857e-06 1.252959e-04 0.000000e+00 1.252959e-04 -8.135497e-05 0.000000e+00 0.000000e+00 0.000000e+00 0.000000e+00 -6.419336e-06 -9.389034e-07 0.000000e+00 -9.389034e-07 -2.810345e-05 0.000000e+00 0.000000e+00 0.000000e+00 0.000000e+00 2.521688e-05 3.794737e-06 0.000000e+00 3.794737e-06 -2.195270e-05 0.000000e+00 0.000000e+00 0.000000e+00 0.000000e+00 1.987902e-04 -5.512818e-05 0.000000e+00 -5.512818e-05 -7.771059e-04 0.000000e+00 0.000000e+00 0.000000e+00 0.000000e+00 2.467043e-04 -4.378750e-05 0.000000e+00 -4.378750e-05 -8.041532e-04 0.000000e+00 0.000000e+00 0.000000e+00 0.000000e+00 2.265220e-04 -2.834589e-05 0.000000e+00 -2.834589e-05 -7.567330e-04 0.000000e+00 0.000000e+00 0.000000e+00 0.000000e+00 2.094636e-04 -3.534882e-05 0.000000e+00 -3.534882e-05 -4.921229e-04 0.000000e+00 0.000000e+00 0.000000e+00 0.000000e+00 2.093357e-04 -1.687258e-05 0.000000e+00 -1.687258e-05 -5.085558e-04 0.000000e+00 0.000000e+00 0.000000e+00 0.000000e+00 2.142574e-04 -1.838729e-05 0.000000e+00 -1.838729e-05 -4.789861e-04 0.000000e+00 0.000000e+00 0.000000e+00 0.000000e+00 2.589456e-04 -4.171305e-05 0.000000e+00 -4.171305e-05 -2.893693e-04 0.000000e+00 0.000000e+00 0.000000e+00 0.000000e+00 2.507871e-04 -2.849410e-05 0.000000e+00 -2.849410e-05 -2.998181e-04 0.000000e+00 0.000000e+00 0.000000e+00 0.000000e+00 2.541467e-04 -3.031993e-05 0.000000e+00 -3.031993e-05 -2.765509e-04 0.000000e+00 0.000000e+00 0.000000e+00 0.000000e+00 3.290018e-04 -5.304210e-05 0.000000e+00 -5.304210e-05 -1.628774e-04 0.000000e+00 0.000000e+00 0.000000e+00 0.000000e+00 3.137847e-04 -3.930387e-05 0.000000e+00 -3.930387e-05 -1.712514e-04 0.000000e+00 0.000000e+00 0.000000e+00 0.000000e+00 3.289541e-04 -4.103260e-05 0.000000e+00 -4.103260e-05 -1.517396e-04 0.000000e+00 0.000000e+00 0.000000e+00 0.000000e+00 4.290117e-04 -6.596561e-05 0.000000e+00 -6.596561e-05 -3.269734e-05 0.000000e+00 0.000000e+00 0.000000e+00 0.000000e+00 4.041888e-04 -4.931530e-05 0.000000e+00 -4.931530e-05 -4.212508e-05 0.000000e+00 0.000000e+00 0.000000e+00 0.000000e+00 4.252578e-04 -5.203711e-05 0.000000e+00 -5.203711e-05 -1.730155e-05 0.000000e+00 0.000000e+00 0.000000e+00 0.000000e+00 6.399250e-04 -1.063955e-04 0.000000e+00 -1.063955e-04 1.980616e-04 0.000000e+00 0.000000e+00 0.000000e+00 0.000000e+00 5.762328e-04 -8.092633e-05 0.000000e+00 -8.092633e-05 1.879397e-04 0.000000e+00 0.000000e+00 0.000000e+00 0.000000e+00 6.034639e-04 -9.319348e-05 0.000000e+00 -9.319348e-05 2.287049e-04 0.000000e+00 0.000000e+00 0.000000e+00 0.000000e+00 1.053804e-03 -4.290488e-04 0.000000e+00 -4.290488e-04 8.907047e-04 0.000000e+00 0.000000e+00 0.000000e+00 0.000000e+00 7.581721e-04 -2.832778e-04 0.000000e+00 -2.832778e-04 8.201247e-04 0.000000e+00 0.000000e+00 0.000000e+00 0.000000e+00 6.620329e-04 -3.280958e-04 0.000000e+00 -3.280958e-04 1.084979e-03 0.000000e+00 0.000000e+00 0.000000e+00 0.000000e+00 -2.459014e-06 5.568686e-05 0.000000e+00 5.568686e-05 2.904527e-05 0.000000e+00 0.000000e+00 0.000000e+00 0.000000e+00 -4.178587e-06 1.690083e-05 0.000000e+00 1.690083e-05 1.308711e-06 0.000000e+00 0.000000e+00 0.000000e+00 0.000000e+00 -3.526517e-04 -1.968462e-05 0.000000e+00 -1.968462e-05 1.712472e-04 0.000000e+00 0.000000e+00 0.000000e+00 0.000000e+00 1.306455e-04 -1.106548e-04 0.000000e+00 -1.106548e-04 -4.187579e-04 0.000000e+00 0.000000e+00 0.000000e+00 0.000000e+00 8.679036e-05 -1.349014e-05 0.000000e+00 -1.349014e-05 -5.267280e-04 0.000000e+00 0.000000e+00 0.000000e+00 0.000000e+00 1.244680e-04 -1.472002e-04 0.000000e+00 -1.472002e-04 -4.443640e-04 0.000000e+00 0.000000e+00 0.000000e+00 0.000000e+00 2.841623e-04 4.219224e-04 0.000000e+00 4.219224e-04 1.429253e-03 0.000000e+00 0.000000e+00 0.000000e+00 0.000000e+00 -2.602423e-04 5.916584e-05 0.000000e+00 5.916584e-05 9.083587e-05 0.000000e+00 0.000000e+00 0.000000e+00 0.000000e+00 1.767105e-06 2.351151e-05 0.000000e+00 2.351151e-05 -8.779322e-06 0.000000e+00 0.000000e+00 0.000000e+00 0.000000e+00 3.083886e-06 -1.841461e-04 0.000000e+00 -1.841461e-04 -1.274603e-04 0.000000e+00 0.000000e+00 0.000000e+00 0.000000e+00 1.592483e-04 -1.524714e-04 0.000000e+00 -1.524714e-04 -4.611414e-04 0.000000e+00 0.000000e+00 0.000000e+00 0.000000e+00 2.366252e-05 -1.401363e-05 0.000000e+00 -1.401363e-05 -1.397088e-05 0.000000e+00 0.000000e+00 0.000000e+00 0.000000e+00 1.128247e-04 -2.026559e-04 0.000000e+00 -2.026559e-04 -3.328611e-04 0.000000e+00 0.000000e+00 0.000000e+00 0.000000e+00 1.223512e-04 -1.878452e-04 0.000000e+00 -1.878452e-04 -3.762499e-04 0.000000e+00 0.000000e+00 0.000000e+00 0.000000e+00 1.751490e-04 -1.711044e-04 0.000000e+00 -1.711044e-04 -4.814709e-04 0.000000e+00 0.000000e+00 0.000000e+00 0.000000e+00 1.235114e-04 -1.083841e-04 0.000000e+00 -1.083841e-04 -4.852415e-04 0.000000e+00 0.000000e+00 0.000000e+00 0.000000e+00 7.180172e-05 1.430107e-04 0.000000e+00 1.430107e-04 -9.028192e-06 0.000000e+00 0.000000e+00 0.000000e+00 0.000000e+00 2.137243e-04 -4.858133e-05 0.000000e+00 -4.858133e-05 -6.460973e-04 0.000000e+00 0.000000e+00 0.000000e+00 0.000000e+00 2.714798e-04 -7.568299e-05 0.000000e+00 -7.568299e-05 -2.561921e-04 0.000000e+00 0.000000e+00 0.000000e+00 0.000000e+00 6.916956e-06 -2.212488e-05 0.000000e+00 -2.212488e-05 -5.319604e-06 0.000000e+00 0.000000e+00 0.000000e+00 0.000000e+00 6.461368e-04 -2.088719e-04 0.000000e+00 -2.088719e-04 2.886448e-04 0.000000e+00 0.000000e+00 0.000000e+00 0.000000e+00 3.437726e-04 -9.389990e-05 0.000000e+00 -9.389990e-05 -1.274260e-04 0.000000e+00 0.000000e+00 0.000000e+00 0.000000e+00 -2.606797e-04 5.570692e-05 0.000000e+00 5.570692e-05 1.797657e-04 0.000000e+00 0.000000e+00 0.000000e+00 0.000000e+00 5.197312e-04 -1.483906e-04 0.000000e+00 -1.483906e-04 1.471059e-04 0.000000e+00 0.000000e+00 0.000000e+00 0.000000e+00 3.058561e-04 1.416220e-04 0.000000e+00 1.416220e-04 -7.172434e-05 0.000000e+00 0.000000e+00 0.000000e+00 0.000000e+00 2.277209e-04 -6.238770e-05 0.000000e+00 -6.238770e-05 -3.675849e-04 0.000000e+00 0.000000e+00 0.000000e+00 0.000000e+00 3.540525e-04 1.770116e-04 0.000000e+00 1.770116e-04 -6.121309e-05 0.000000e+00 0.000000e+00 0.000000e+00 0.000000e+00 3.025673e-04 1.481677e-04 0.000000e+00 1.481677e-04 -7.736585e-05 0.000000e+00 0.000000e+00 0.000000e+00 0.000000e+00 1.337630e-04 1.121978e-04 0.000000e+00 1.121978e-04 -2.686908e-05 0.000000e+00 0.000000e+00 0.000000e+00 0.000000e+00 2.385469e-04 1.082844e-04 0.000000e+00 1.082844e-04 -7.124529e-05 0.000000e+00 0.000000e+00 0.000000e+00 0.000000e+00 1.514345e-04 1.917313e-04 0.000000e+00 1.917313e-04 1.430602e-03 0.000000e+00 0.000000e+00 0.000000e+00 0.000000e+00 2.156309e-04 9.667800e-05 0.000000e+00 9.667800e-05 -6.497827e-05 0.000000e+00 0.000000e+00 0.000000e+00 0.000000e+00 2.099886e-04 1.030217e-04 0.000000e+00 1.030217e-04 -7.133321e-05 0.000000e+00 0.000000e+00 0.000000e+00 0.000000e+00 1.884186e-04 9.315765e-05 0.000000e+00 9.315765e-05 -6.456723e-05 0.000000e+00 0.000000e+00 0.000000e+00 0.000000e+00 4.220261e-04 2.457998e-04 0.000000e+00 2.457998e-04 -2.720123e-05 0.000000e+00 0.000000e+00 0.000000e+00 0.000000e+00 3.453942e-04 1.875225e-04 0.000000e+00 1.875225e-04 -6.902529e-05 0.000000e+00 0.000000e+00 0.000000e+00 0.000000e+00 4.815448e-04 -3.007030e-04 0.000000e+00 -3.007030e-04 1.359159e-03 0.000000e+00 0.000000e+00 0.000000e+00 0.000000e+00 1.127959e-04 -1.493866e-05 0.000000e+00 -1.493866e-05 1.694706e-03 0.000000e+00 0.000000e+00 0.000000e+00 0.000000e+00 2.676597e-04 1.217475e-04 0.000000e+00 1.217475e-04 -7.178427e-05 0.000000e+00 0.000000e+00 0.000000e+00 0.000000e+00 2.334653e-04 1.117902e-04 0.000000e+00 1.117902e-04 -7.365717e-05 0.000000e+00 0.000000e+00 0.000000e+00 0.000000e+00 9.469378e-04 7.925588e-04 0.000000e+00 7.925588e-04 4.854280e-04 0.000000e+00 0.000000e+00 0.000000e+00 0.000000e+00 3.503051e-04 7.560877e-04 0.000000e+00 7.560877e-04 8.399141e-04 0.000000e+00 0.000000e+00 0.000000e+00 0.000000e+00 -2.595873e-04 -1.088297e-04 0.000000e+00 -1.088297e-04 2.196252e-04 0.000000e+00 0.000000e+00 0.000000e+00 0.000000e+00 -7.313576e-05 1.258900e-04 0.000000e+00 1.258900e-04 -1.318349e-05 0.000000e+00 0.000000e+00 0.000000e+00 0.000000e+00 -2.390109e-04 1.192577e-04 0.000000e+00 1.192577e-04 1.338173e-04 0.000000e+00 0.000000e+00 0.000000e+00 0.000000e+00 8.917781e-05 -2.527328e-04 0.000000e+00 -2.527328e-04 -2.214365e-04 0.000000e+00 0.000000e+00 0.000000e+00 0.000000e+00 1.151868e-04 4.745250e-04 0.000000e+00 4.745250e-04 1.598691e-03 0.000000e+00 0.000000e+00 0.000000e+00 0.000000e+00 2.128063e-04 -5.185967e-05 0.000000e+00 -5.185967e-05 -5.401692e-04 0.000000e+00 0.000000e+00 0.000000e+00 0.000000e+00 -1.165267e-04 1.524828e-04 0.000000e+00 1.524828e-04 1.127007e-05 0.000000e+00 0.000000e+00 0.000000e+00 0.000000e+00 2.144908e-05 -1.195863e-05 0.000000e+00 -1.195863e-05 -1.586452e-05 0.000000e+00 0.000000e+00 0.000000e+00 0.000000e+00 2.085016e-04 -5.544510e-05 0.000000e+00 -5.544510e-05 -4.480461e-04 0.000000e+00 0.000000e+00 0.000000e+00 0.000000e+00 -1.382782e-04 -2.417517e-04 0.000000e+00 -2.417517e-04 6.517023e-05 0.000000e+00 0.000000e+00 0.000000e+00 0.000000e+00 -3.183523e-06 2.673502e-07 0.000000e+00 2.673502e-07 -6.677804e-06 0.000000e+00 0.000000e+00 0.000000e+00 0.000000e+00 -2.091428e-04 -1.576744e-04 0.000000e+00 -1.576744e-04 7.037794e-05 0.000000e+00 0.000000e+00 0.000000e+00 0.000000e+00 1.165727e-04 1.469476e-04 0.000000e+00 1.469476e-04 -9.760793e-06 0.000000e+00 0.000000e+00 0.000000e+00 0.000000e+00 1.063652e-04 1.371466e-04 0.000000e+00 1.371466e-04 -1.807313e-05 0.000000e+00 0.000000e+00 0.000000e+00 0.000000e+00 9.986389e-05 1.695188e-04 0.000000e+00 1.695188e-04 -2.210434e-05 0.000000e+00 0.000000e+00 0.000000e+00 0.000000e+00 1.540528e-05 2.015598e-05 0.000000e+00 2.015598e-05 -1.586958e-05 0.000000e+00 0.000000e+00 0.000000e+00 0.000000e+00 5.002699e-04 3.964200e-04 0.000000e+00 3.964200e-04 6.813765e-05 0.000000e+00 0.000000e+00 0.000000e+00 0.000000e+00 3.672755e-04 2.620872e-04 0.000000e+00 2.620872e-04 -3.038814e-05 0.000000e+00 0.000000e+00 0.000000e+00 0.000000e+00 7.818064e-05 -3.153660e-04 0.000000e+00 -3.153660e-04 3.394391e-04 0.000000e+00 0.000000e+00 0.000000e+00 0.000000e+00 -3.530528e-06 1.101544e-04 0.000000e+00 1.101544e-04 -3.508972e-05 0.000000e+00 0.000000e+00 0.000000e+00 0.000000e+00 -3.574474e-05 2.109946e-04 0.000000e+00 2.109946e-04 1.960283e-05 0.000000e+00 0.000000e+00 0.000000e+00 0.000000e+00 7.175440e-05 2.007158e-04 0.000000e+00 2.007158e-04 -1.604223e-05 0.000000e+00 0.000000e+00 0.000000e+00 0.000000e+00 5.992180e-06 -2.672615e-05 0.000000e+00 -2.672615e-05 1.637241e-05 0.000000e+00 0.000000e+00 0.000000e+00 0.000000e+00 4.461142e-05 -2.608116e-04 0.000000e+00 -2.608116e-04 -1.740544e-04 0.000000e+00 0.000000e+00 0.000000e+00 0.000000e+00 1.036137e-04 -2.174092e-04 0.000000e+00 -2.174092e-04 -3.393935e-04 0.000000e+00 0.000000e+00 0.000000e+00 0.000000e+00 -3.953048e-05 -2.263767e-04 0.000000e+00 -2.263767e-04 -2.962051e-05 0.000000e+00 0.000000e+00 0.000000e+00 0.000000e+00 -8.096539e-05 -2.559727e-04 0.000000e+00 -2.559727e-04 -7.708921e-06 0.000000e+00 0.000000e+00 0.000000e+00 0.000000e+00 -1.680267e-05 -2.424181e-04 0.000000e+00 -2.424181e-04 -9.322713e-05 0.000000e+00 0.000000e+00 0.000000e+00 0.000000e+00 1.246082e-04 1.863118e-04 0.000000e+00 1.863118e-04 -3.366369e-05 0.000000e+00 0.000000e+00 0.000000e+00 0.000000e+00 1.138482e-04 2.002369e-04 0.000000e+00 2.002369e-04 -3.115629e-05 0.000000e+00 0.000000e+00 0.000000e+00 0.000000e+00 1.492507e-05 2.054679e-04 0.000000e+00 2.054679e-04 3.377291e-06 0.000000e+00 0.000000e+00 0.000000e+00 0.000000e+00 3.739731e-05 2.207465e-04 0.000000e+00 2.207465e-04 3.254484e-06 0.000000e+00 0.000000e+00 0.000000e+00 0.000000e+00 -5.668997e-06 2.253077e-04 0.000000e+00 2.253077e-04 1.882906e-05 0.000000e+00 0.000000e+00 0.000000e+00 0.000000e+00 -6.778122e-05 2.166846e-04 0.000000e+00 2.166846e-04 2.463697e-05 0.000000e+00 0.000000e+00 0.000000e+00 0.000000e+00 -6.759001e-05 2.100193e-04 0.000000e+00 2.100193e-04 1.240354e-05 0.000000e+00 0.000000e+00 0.000000e+00 0.000000e+00 -6.754528e-05 2.099050e-04 0.000000e+00 2.099050e-04 1.233335e-05 0.000000e+00 0.000000e+00 0.000000e+00 0.000000e+00 -7.915321e-05 1.864646e-04 0.000000e+00 1.864646e-04 -7.132489e-06 0.000000e+00 0.000000e+00 0.000000e+00 0.000000e+00 -2.231764e-05 1.493703e-04 0.000000e+00 1.493703e-04 -2.114552e-05 0.000000e+00 0.000000e+00 0.000000e+00 0.000000e+00 9.574553e-06 7.185856e-05 0.000000e+00 7.185856e-05 -4.606450e-05 0.000000e+00 0.000000e+00 0.000000e+00 0.000000e+00 1.241857e-05 3.721975e-05 0.000000e+00 3.721975e-05 -4.033748e-05 0.000000e+00 0.000000e+00 0.000000e+00 0.000000e+00 7.936834e-05 -3.092442e-04 0.000000e+00 -3.092442e-04 2.482847e-04 0.000000e+00 0.000000e+00 0.000000e+00 0.000000e+00 1.362283e-04 -1.556265e-04 0.000000e+00 -1.556265e-04 -4.448795e-04 0.000000e+00 0.000000e+00 0.000000e+00 0.000000e+00 -4.554159e-06 2.001759e-05 0.000000e+00 2.001759e-05 -4.544025e-06 0.000000e+00 0.000000e+00 0.000000e+00 0.000000e+00 1.487653e-04 -2.206484e-04 0.000000e+00 -2.206484e-04 -3.816071e-04 0.000000e+00 0.000000e+00 0.000000e+00 0.000000e+00 -2.142566e-04 -1.935076e-04 0.000000e+00 -1.935076e-04 1.615025e-04 0.000000e+00 0.000000e+00 0.000000e+00 0.000000e+00 -1.972263e-04 -1.658809e-04 0.000000e+00 -1.658809e-04 1.268358e-04 0.000000e+00 0.000000e+00 0.000000e+00 0.000000e+00 -1.387281e-04 -2.445590e-04 0.000000e+00 -2.445590e-04 6.870371e-05 0.000000e+00 0.000000e+00 0.000000e+00 0.000000e+00 2.160842e-04 -2.607489e-05 0.000000e+00 -2.607489e-05 -6.280685e-04 0.000000e+00 0.000000e+00 0.000000e+00 0.000000e+00 2.077819e-04 -4.759520e-05 0.000000e+00 -4.759520e-05 -6.073274e-04 0.000000e+00 0.000000e+00 0.000000e+00 0.000000e+00 4.293186e-04 -1.159359e-04 0.000000e+00 -1.159359e-04 -1.266559e-05 0.000000e+00 0.000000e+00 0.000000e+00 0.000000e+00 2.666043e-04 -7.053934e-05 0.000000e+00 -7.053934e-05 -2.793912e-04 0.000000e+00 0.000000e+00 0.000000e+00 0.000000e+00 2.539145e-04 -5.924296e-05 0.000000e+00 -5.924296e-05 -2.655962e-04 0.000000e+00 0.000000e+00 0.000000e+00 0.000000e+00 2.290809e-04 -5.828583e-05 0.000000e+00 -5.828583e-05 -3.962939e-04 0.000000e+00 0.000000e+00 0.000000e+00 0.000000e+00 2.164075e-04 -4.511444e-05 0.000000e+00 -4.511444e-05 -3.798573e-04 0.000000e+00 0.000000e+00 0.000000e+00 0.000000e+00 3.061313e-04 -7.836745e-05 0.000000e+00 -7.836745e-05 -1.904374e-04 0.000000e+00 0.000000e+00 0.000000e+00 0.000000e+00 5.108052e-04 -1.473712e-04 0.000000e+00 -1.473712e-04 1.075358e-04 0.000000e+00 0.000000e+00 0.000000e+00 0.000000e+00 5.045776e-04 -1.237596e-04 0.000000e+00 -1.237596e-04 1.200465e-04 0.000000e+00 0.000000e+00 0.000000e+00 0.000000e+00 6.247603e-04 -1.785355e-04 0.000000e+00 -1.785355e-04 2.287524e-04 0.000000e+00 0.000000e+00 0.000000e+00 0.000000e+00 5.591282e-04 -1.693818e-04 0.000000e+00 -1.693818e-04 2.729094e-04 0.000000e+00 0.000000e+00 0.000000e+00 0.000000e+00 -1.762722e-04 1.207399e-04 0.000000e+00 1.207399e-04 9.276636e-05 0.000000e+00 0.000000e+00 0.000000e+00 0.000000e+00 6.885776e-04 -4.322072e-04 0.000000e+00 -4.322072e-04 1.102921e-03 0.000000e+00 0.000000e+00 0.000000e+00 0.000000e+00 3.013466e-04 -2.601799e-04 0.000000e+00 -2.601799e-04 1.355749e-03 0.000000e+00 0.000000e+00 0.000000e+00 0.000000e+00 1.754707e-04 9.749180e-05 0.000000e+00 9.749180e-05 -2.847018e-05 0.000000e+00 0.000000e+00 0.000000e+00 0.000000e+00 6.943797e-04 -2.674001e-04 0.000000e+00 -2.674001e-04 4.330896e-04 0.000000e+00 0.000000e+00 0.000000e+00 0.000000e+00 3.701295e-04 -9.494098e-05 0.000000e+00 -9.494098e-05 -8.434963e-05 0.000000e+00 0.000000e+00 0.000000e+00 0.000000e+00 4.911425e-04 -1.360891e-04 0.000000e+00 -1.360891e-04 7.491580e-05 0.000000e+00 0.000000e+00 0.000000e+00 0.000000e+00 4.689668e-04 -1.199611e-04 0.000000e+00 -1.199611e-04 8.996894e-05 0.000000e+00 0.000000e+00 0.000000e+00 0.000000e+00 1.451742e-04 1.249568e-04 0.000000e+00 1.249568e-04 -1.724072e-05 0.000000e+00 0.000000e+00 0.000000e+00 0.000000e+00 2.894963e-04 -7.534765e-05 0.000000e+00 -7.534765e-05 -2.122502e-04 0.000000e+00 0.000000e+00 0.000000e+00 0.000000e+00 2.870310e-04 -6.321944e-05 0.000000e+00 -6.321944e-05 -1.982581e-04 0.000000e+00 0.000000e+00 0.000000e+00 0.000000e+00 8.133450e-04 -2.767528e-04 0.000000e+00 -2.767528e-04 5.168129e-04 0.000000e+00 0.000000e+00 0.000000e+00 0.000000e+00 2.661516e-04 1.261969e-04 0.000000e+00 1.261969e-04 -7.648021e-05 0.000000e+00 0.000000e+00 0.000000e+00 0.000000e+00 -2.771343e-04 4.326412e-06 0.000000e+00 4.326412e-06 1.272197e-04 0.000000e+00 0.000000e+00 0.000000e+00 0.000000e+00 2.128967e-06 5.743882e-05 0.000000e+00 5.743882e-05 1.444197e-05 0.000000e+00 0.000000e+00 0.000000e+00 0.000000e+00 2.141699e-04 -2.712049e-05 0.000000e+00 -2.712049e-05 -5.922952e-04 0.000000e+00 0.000000e+00 0.000000e+00 0.000000e+00 2.084257e-04 -4.798178e-05 0.000000e+00 -4.798178e-05 -5.725032e-04 0.000000e+00 0.000000e+00 0.000000e+00 0.000000e+00 3.925274e-04 5.578142e-04 0.000000e+00 5.578142e-04 3.945525e-04 0.000000e+00 0.000000e+00 0.000000e+00 0.000000e+00 5.840830e-04 -1.903262e-04 0.000000e+00 -1.903262e-04 3.317919e-04 0.000000e+00 0.000000e+00 0.000000e+00 0.000000e+00 6.681612e-04 -2.395203e-04 0.000000e+00 -2.395203e-04 3.585378e-04 0.000000e+00 0.000000e+00 0.000000e+00 0.000000e+00 -1.470089e-04 1.622591e-04 0.000000e+00 1.622591e-04 6.618119e-05 0.000000e+00 0.000000e+00 0.000000e+00 0.000000e+00 3.549322e-05 -2.421798e-04 0.000000e+00 -2.421798e-04 -2.006232e-04 0.000000e+00 0.000000e+00 0.000000e+00 0.000000e+00 -6.737224e-06 8.474010e-06 0.000000e+00 8.474010e-06 -1.263620e-06 0.000000e+00 0.000000e+00 0.000000e+00 0.000000e+00 2.009382e-04 -3.440312e-05 0.000000e+00 -3.440312e-05 -5.204167e-04 0.000000e+00 0.000000e+00 0.000000e+00 0.000000e+00 2.095102e-04 -5.618930e-05 0.000000e+00 -5.618930e-05 -5.066538e-04 0.000000e+00 0.000000e+00 0.000000e+00 0.000000e+00 4.689443e-04 -1.262754e-04 0.000000e+00 -1.262754e-04 4.377811e-05 0.000000e+00 0.000000e+00 0.000000e+00 0.000000e+00 4.598528e-04 -1.115725e-04 0.000000e+00 -1.115725e-04 5.745989e-05 0.000000e+00 0.000000e+00 0.000000e+00 0.000000e+00 8.253570e-07 6.226510e-06 0.000000e+00 6.226510e-06 -2.981135e-05 0.000000e+00 0.000000e+00 0.000000e+00 0.000000e+00 1.110548e-04 1.849389e-04 0.000000e+00 1.849389e-04 -2.633774e-05 0.000000e+00 0.000000e+00 0.000000e+00 0.000000e+00 5.412390e-04 -1.377034e-04 0.000000e+00 -1.377034e-04 1.755351e-04 0.000000e+00 0.000000e+00 0.000000e+00 0.000000e+00 5.623558e-04 -1.355734e-04 0.000000e+00 -1.355734e-04 1.495248e-04 0.000000e+00 0.000000e+00 0.000000e+00 0.000000e+00 6.129126e-04 -1.405025e-04 0.000000e+00 -1.405025e-04 1.756317e-04 0.000000e+00 0.000000e+00 0.000000e+00 0.000000e+00 -6.975139e-06 -8.578250e-07 0.000000e+00 -8.578250e-07 -7.986516e-06 0.000000e+00 0.000000e+00 0.000000e+00 0.000000e+00 1.338153e-04 1.591654e-04 0.000000e+00 1.591654e-04 -2.194642e-05 0.000000e+00 0.000000e+00 0.000000e+00 0.000000e+00 1.230559e-04 1.469746e-04 0.000000e+00 1.469746e-04 -3.132570e-05 0.000000e+00 0.000000e+00 0.000000e+00 0.000000e+00 1.171257e-04 1.738582e-04 0.000000e+00 1.738582e-04 -3.104695e-05 0.000000e+00 0.000000e+00 0.000000e+00 0.000000e+00 3.544043e-04 5.836794e-04 0.000000e+00 5.836794e-04 3.943302e-04 0.000000e+00 0.000000e+00 0.000000e+00 0.000000e+00 -2.077446e-04 1.574273e-04 0.000000e+00 1.574273e-04 9.275462e-05 0.000000e+00 0.000000e+00 0.000000e+00 0.000000e+00 3.310055e-04 -8.942299e-05 0.000000e+00 -8.942299e-05 -1.500451e-04 0.000000e+00 0.000000e+00 0.000000e+00 0.000000e+00 3.227859e-04 -7.696560e-05 0.000000e+00 -7.696560e-05 -1.374716e-04 0.000000e+00 0.000000e+00 0.000000e+00 0.000000e+00 4.487976e-04 -1.209420e-04 0.000000e+00 -1.209420e-04 1.336129e-05 0.000000e+00 0.000000e+00 0.000000e+00 0.000000e+00 4.255638e-04 -1.006003e-04 0.000000e+00 -1.006003e-04 5.576354e-07 0.000000e+00 0.000000e+00 0.000000e+00 0.000000e+00 4.480693e-04 -1.035868e-04 0.000000e+00 -1.035868e-04 2.769704e-05 0.000000e+00 0.000000e+00 0.000000e+00 0.000000e+00 -4.171934e-05 2.232816e-04 0.000000e+00 2.232816e-04 2.257541e-05 0.000000e+00 0.000000e+00 0.000000e+00 0.000000e+00 -7.688536e-05 2.077824e-04 0.000000e+00 2.077824e-04 3.968113e-05 0.000000e+00 0.000000e+00 0.000000e+00 0.000000e+00 2.247994e-04 -4.010144e-05 0.000000e+00 -4.010144e-05 -4.394994e-04 0.000000e+00 0.000000e+00 0.000000e+00 0.000000e+00 2.189071e-04 -5.375886e-05 0.000000e+00 -5.375886e-05 -4.232979e-04 0.000000e+00 0.000000e+00 0.000000e+00 0.000000e+00 2.244940e-04 -4.763570e-05 0.000000e+00 -4.763570e-05 -6.906022e-04 0.000000e+00 0.000000e+00 0.000000e+00 0.000000e+00 2.440559e-04 -6.185026e-05 0.000000e+00 -6.185026e-05 -3.216705e-04 0.000000e+00 0.000000e+00 0.000000e+00 0.000000e+00 2.081681e-04 -5.763755e-05 0.000000e+00 -5.763755e-05 -4.740900e-04 0.000000e+00 0.000000e+00 0.000000e+00 0.000000e+00 2.226253e-04 -4.157501e-05 0.000000e+00 -4.157501e-05 -4.651620e-04 0.000000e+00 0.000000e+00 0.000000e+00 0.000000e+00 2.772511e-04 -6.757298e-05 0.000000e+00 -6.757298e-05 -8.881768e-04 0.000000e+00 0.000000e+00 0.000000e+00 0.000000e+00 -3.630143e-05 1.296440e-04 0.000000e+00 1.296440e-04 -4.665708e-05 0.000000e+00 0.000000e+00 0.000000e+00 0.000000e+00 -6.565373e-05 1.644534e-04 0.000000e+00 1.644534e-04 -2.637305e-05 0.000000e+00 0.000000e+00 0.000000e+00 0.000000e+00 7.783515e-05 2.071132e-04 0.000000e+00 2.071132e-04 -1.536357e-05 0.000000e+00 0.000000e+00 0.000000e+00 0.000000e+00 -4.216081e-07 1.246291e-05 0.000000e+00 1.246291e-05 -2.693327e-05 0.000000e+00 0.000000e+00 0.000000e+00 0.000000e+00 9.857597e-07 2.205986e-05 0.000000e+00 2.205986e-05 -9.148801e-06 0.000000e+00 0.000000e+00 0.000000e+00 0.000000e+00 -2.625792e-04 -3.435908e-05 0.000000e+00 -3.435908e-05 2.091863e-04 0.000000e+00 0.000000e+00 0.000000e+00 0.000000e+00 -2.077324e-04 4.719491e-05 0.000000e+00 4.719491e-05 1.327678e-04 0.000000e+00 0.000000e+00 0.000000e+00 0.000000e+00 -2.188608e-04 -5.926303e-05 0.000000e+00 -5.926303e-05 1.458544e-04 0.000000e+00 0.000000e+00 0.000000e+00 0.000000e+00 2.008648e-04 -3.030749e-05 0.000000e+00 -3.030749e-05 -5.518520e-04 0.000000e+00 0.000000e+00 0.000000e+00 0.000000e+00 3.830986e-04 -7.962894e-05 0.000000e+00 -7.962894e-05 -7.527730e-05 0.000000e+00 0.000000e+00 0.000000e+00 0.000000e+00 3.962047e-04 -9.758578e-05 0.000000e+00 -9.758578e-05 -6.131007e-05 0.000000e+00 0.000000e+00 0.000000e+00 0.000000e+00 6.217386e-04 -2.911799e-04 0.000000e+00 -2.911799e-04 6.535615e-04 0.000000e+00 0.000000e+00 0.000000e+00 0.000000e+00 8.037835e-04 -3.566952e-04 0.000000e+00 -3.566952e-04 6.754341e-04 0.000000e+00 0.000000e+00 0.000000e+00 0.000000e+00 3.848698e-04 5.124668e-04 0.000000e+00 5.124668e-04 2.480736e-04 0.000000e+00 0.000000e+00 0.000000e+00 0.000000e+00 2.934837e-04 3.515469e-04 0.000000e+00 3.515469e-04 1.747870e-04 0.000000e+00 0.000000e+00 0.000000e+00 0.000000e+00 2.224612e-04 -2.358844e-05 0.000000e+00 -2.358844e-05 -6.645457e-04 0.000000e+00 0.000000e+00 0.000000e+00 0.000000e+00 2.868889e-04 -4.089206e-05 0.000000e+00 -4.089206e-05 -8.585856e-04 0.000000e+00 0.000000e+00 0.000000e+00 0.000000e+00 2.367373e-04 -7.314304e-05 0.000000e+00 -7.314304e-05 -8.233663e-04 0.000000e+00 0.000000e+00 0.000000e+00 0.000000e+00 -7.374902e-06 1.388597e-05 0.000000e+00 1.388597e-05 -6.755639e-06 0.000000e+00 0.000000e+00 0.000000e+00 0.000000e+00 -3.487273e-05 9.003771e-05 0.000000e+00 9.003771e-05 -2.987361e-05 0.000000e+00 0.000000e+00 0.000000e+00 0.000000e+00 2.337968e-04 -6.139361e-05 0.000000e+00 -6.139361e-05 -3.459956e-04 0.000000e+00 0.000000e+00 0.000000e+00 0.000000e+00 -8.817292e-05 1.830545e-04 0.000000e+00 1.830545e-04 2.400263e-05 0.000000e+00 0.000000e+00 0.000000e+00 0.000000e+00 -1.214293e-05 -2.497485e-04 0.000000e+00 -2.497485e-04 -9.767358e-05 0.000000e+00 0.000000e+00 0.000000e+00 0.000000e+00 2.261607e-04 -5.095322e-05 0.000000e+00 -5.095322e-05 -7.318442e-04 0.000000e+00 0.000000e+00 0.000000e+00 0.000000e+00 2.249142e-04 -2.628390e-05 0.000000e+00 -2.628390e-05 -7.007434e-04 0.000000e+00 0.000000e+00 0.000000e+00 0.000000e+00 6.451339e-06 5.085262e-05 0.000000e+00 5.085262e-05 -6.268798e-05 0.000000e+00 0.000000e+00 0.000000e+00 0.000000e+00 2.757111e-06 9.473607e-06 0.000000e+00 9.473607e-06 -2.775204e-05 0.000000e+00 0.000000e+00 0.000000e+00 0.000000e+00 2.112240e-04 -1.563851e-04 0.000000e+00 -1.563851e-04 -5.478186e-04 0.000000e+00 0.000000e+00 0.000000e+00 0.000000e+00 2.216407e-04 -6.020024e-05 0.000000e+00 -6.020024e-05 -7.657413e-04 0.000000e+00 0.000000e+00 0.000000e+00 0.000000e+00 2.631858e-04 -3.963779e-05 0.000000e+00 -3.963779e-05 -8.042491e-04 0.000000e+00 0.000000e+00 0.000000e+00 0.000000e+00 2.437796e-04 -3.588479e-05 0.000000e+00 -3.588479e-05 -7.481601e-04 0.000000e+00 0.000000e+00 0.000000e+00 0.000000e+00 2.441897e-04 -5.032332e-05 0.000000e+00 -5.032332e-05 -3.621283e-04 0.000000e+00 0.000000e+00 0.000000e+00 0.000000e+00 3.479112e-04 -7.932683e-05 0.000000e+00 -7.932683e-05 -1.165617e-04 0.000000e+00 0.000000e+00 0.000000e+00 0.000000e+00 3.544630e-04 -9.574028e-05 0.000000e+00 -9.574028e-05 -1.030215e-04 0.000000e+00 0.000000e+00 0.000000e+00 0.000000e+00 2.726600e-04 -6.068453e-05 0.000000e+00 -6.068453e-05 -2.439752e-04 0.000000e+00 0.000000e+00 0.000000e+00 0.000000e+00 2.753707e-04 -7.666703e-05 0.000000e+00 -7.666703e-05 -2.301716e-04 0.000000e+00 0.000000e+00 0.000000e+00 0.000000e+00 2.336713e-04 -4.676185e-05 0.000000e+00 -4.676185e-05 -3.328837e-04 0.000000e+00 0.000000e+00 0.000000e+00 0.000000e+00 -3.050228e-05 1.078069e-04 0.000000e+00 1.078069e-04 -5.893688e-06 0.000000e+00 0.000000e+00 0.000000e+00 0.000000e+00 -1.067381e-04 1.759092e-04 0.000000e+00 1.759092e-04 2.215134e-05 0.000000e+00 0.000000e+00 0.000000e+00 0.000000e+00 -1.057085e-04 2.065123e-04 0.000000e+00 2.065123e-04 4.092808e-05 0.000000e+00 0.000000e+00 0.000000e+00 0.000000e+00 -1.614935e-04 1.781703e-04 0.000000e+00 1.781703e-04 6.154260e-05 0.000000e+00 0.000000e+00 0.000000e+00 0.000000e+00 1.959023e-04 -1.097515e-04 0.000000e+00 -1.097515e-04 -5.571895e-04 0.000000e+00 0.000000e+00 0.000000e+00 0.000000e+00 -1.177823e-05 2.726686e-06 0.000000e+00 2.726686e-06 -3.778070e-06 0.000000e+00 0.000000e+00 0.000000e+00 0.000000e+00 1.111458e-04 -2.124686e-04 0.000000e+00 -2.124686e-04 -3.332536e-04 0.000000e+00 0.000000e+00 0.000000e+00 0.000000e+00 1.849601e-04 -2.085939e-04 0.000000e+00 -2.085939e-04 -4.312943e-04 0.000000e+00 0.000000e+00 0.000000e+00 0.000000e+00 2.116548e-04 -9.531313e-05 0.000000e+00 -9.531313e-05 -6.205698e-04 0.000000e+00 0.000000e+00 0.000000e+00 0.000000e+00 -4.170397e-06 7.692771e-06 0.000000e+00 7.692771e-06 -1.727800e-05 0.000000e+00 0.000000e+00 0.000000e+00 0.000000e+00 2.251347e-04 -1.382713e-04 0.000000e+00 -1.382713e-04 -6.493002e-04 0.000000e+00 0.000000e+00 0.000000e+00 0.000000e+00 2.359993e-04 -7.765349e-05 0.000000e+00 -7.765349e-05 -6.872972e-04 0.000000e+00 0.000000e+00 0.000000e+00 0.000000e+00 1.566057e-04 -1.019252e-04 0.000000e+00 -1.019252e-04 -5.911786e-04 0.000000e+00 0.000000e+00 0.000000e+00 0.000000e+00 9.354311e-05 5.037702e-05 0.000000e+00 5.037702e-05 -7.398772e-04 0.000000e+00 0.000000e+00 0.000000e+00 0.000000e+00 2.166077e-04 -5.348797e-05 0.000000e+00 -5.348797e-05 -6.854263e-04 0.000000e+00 0.000000e+00 0.000000e+00 0.000000e+00 1.964817e-04 -6.696066e-05 0.000000e+00 -6.696066e-05 -6.243959e-04 0.000000e+00 0.000000e+00 0.000000e+00 0.000000e+00 2.362864e-04 -6.303864e-05 0.000000e+00 -6.303864e-05 -6.991771e-04 0.000000e+00 0.000000e+00 0.000000e+00 0.000000e+00 2.264079e-04 -9.490759e-05 0.000000e+00 -9.490759e-05 -6.223018e-04 0.000000e+00 0.000000e+00 0.000000e+00 0.000000e+00 1.923038e-04 -4.002830e-05 0.000000e+00 -4.002830e-05 -6.548683e-04 0.000000e+00 0.000000e+00 0.000000e+00 0.000000e+00 1.798280e-04 -7.998988e-06 0.000000e+00 -7.998988e-06 -7.047642e-04 0.000000e+00 0.000000e+00 0.000000e+00 0.000000e+00 2.206651e-04 -5.451009e-05 0.000000e+00 -5.451009e-05 -6.866282e-04 0.000000e+00 0.000000e+00 0.000000e+00 0.000000e+00 2.657031e-04 1.737833e-05 0.000000e+00 1.737833e-05 -8.460569e-04 0.000000e+00 0.000000e+00 0.000000e+00 0.000000e+00 2.202216e-04 -1.376488e-04 0.000000e+00 -1.376488e-04 -5.836606e-04 0.000000e+00 0.000000e+00 0.000000e+00 0.000000e+00 1.649480e-04 -1.330949e-04 0.000000e+00 -1.330949e-04 -5.062614e-04 0.000000e+00 0.000000e+00 0.000000e+00 0.000000e+00 1.662840e-04 -1.005205e-04 0.000000e+00 -1.005205e-04 -5.468879e-04 0.000000e+00 0.000000e+00 0.000000e+00 0.000000e+00 2.600716e-04 -2.517693e-05 0.000000e+00 -2.517693e-05 -7.476318e-04 0.000000e+00 0.000000e+00 0.000000e+00 0.000000e+00 2.539124e-04 -4.037829e-05 0.000000e+00 -4.037829e-05 -7.466419e-04 0.000000e+00 0.000000e+00 0.000000e+00 0.000000e+00 2.545388e-04 -6.486569e-05 0.000000e+00 -6.486569e-05 -2.995146e-04 0.000000e+00 0.000000e+00 0.000000e+00 0.000000e+00 2.481683e-04 -4.901586e-05 0.000000e+00 -4.901586e-05 -3.118587e-04 0.000000e+00 0.000000e+00 0.000000e+00 0.000000e+00 2.414319e-04 -5.656876e-05 0.000000e+00 -5.656876e-05 -2.849416e-04 0.000000e+00 0.000000e+00 0.000000e+00 0.000000e+00 3.203144e-04 -8.417924e-05 0.000000e+00 -8.417924e-05 -1.711627e-04 0.000000e+00 0.000000e+00 0.000000e+00 0.000000e+00 2.990383e-04 -6.972927e-05 0.000000e+00 -6.972927e-05 -1.785990e-04 0.000000e+00 0.000000e+00 0.000000e+00 0.000000e+00 3.087858e-04 -7.378836e-05 0.000000e+00 -7.378836e-05 -1.577923e-04 0.000000e+00 0.000000e+00 0.000000e+00 0.000000e+00 1.534664e-05 -2.078819e-05 0.000000e+00 -2.078819e-05 -6.190902e-06 0.000000e+00 0.000000e+00 0.000000e+00 0.000000e+00 -1.787262e-04 1.251137e-04 0.000000e+00 1.251137e-04 1.681664e-04 0.000000e+00 0.000000e+00 0.000000e+00 0.000000e+00 2.448586e-04 -8.325887e-05 0.000000e+00 -8.325887e-05 -3.339677e-04 0.000000e+00 0.000000e+00 0.000000e+00 0.000000e+00 8.803913e-05 -2.431119e-04 0.000000e+00 -2.431119e-04 -2.629017e-04 0.000000e+00 0.000000e+00 0.000000e+00 0.000000e+00 4.156912e-04 -1.070268e-04 0.000000e+00 -1.070268e-04 -3.959208e-05 0.000000e+00 0.000000e+00 0.000000e+00 0.000000e+00 3.738322e-04 -8.977503e-05 0.000000e+00 -8.977503e-05 -4.606884e-05 0.000000e+00 0.000000e+00 0.000000e+00 0.000000e+00 3.928458e-04 -9.500958e-05 0.000000e+00 -9.500958e-05 -2.326731e-05 0.000000e+00 0.000000e+00 0.000000e+00 0.000000e+00 6.631936e-04 -2.242050e-04 0.000000e+00 -2.242050e-04 4.615719e-04 0.000000e+00 0.000000e+00 0.000000e+00 0.000000e+00 7.801080e-04 -4.135437e-04 0.000000e+00 -4.135437e-04 8.563875e-04 0.000000e+00 0.000000e+00 0.000000e+00 0.000000e+00 5.610977e-04 -3.247563e-04 0.000000e+00 -3.247563e-04 8.216068e-04 0.000000e+00 0.000000e+00 0.000000e+00 0.000000e+00 4.714464e-04 -3.308833e-04 0.000000e+00 -3.308833e-04 1.056424e-03 0.000000e+00 0.000000e+00 0.000000e+00 0.000000e+00 1.560333e-04 1.165649e-04 0.000000e+00 1.165649e-04 -4.558964e-05 0.000000e+00 0.000000e+00 0.000000e+00 0.000000e+00 1.687934e-04 1.349746e-04 0.000000e+00 1.349746e-04 -3.344256e-05 0.000000e+00 0.000000e+00 0.000000e+00 0.000000e+00 1.134206e-04 -2.912447e-04 0.000000e+00 -2.912447e-04 -2.534919e-04 0.000000e+00 0.000000e+00 0.000000e+00 0.000000e+00 -3.637208e-06 -1.946744e-05 0.000000e+00 -1.946744e-05 1.114665e-05 0.000000e+00 0.000000e+00 0.000000e+00 0.000000e+00 3.640563e-04 -8.253348e-05 0.000000e+00 -8.253348e-05 -9.407864e-05 0.000000e+00 0.000000e+00 0.000000e+00 0.000000e+00 2.795070e-04 -3.824755e-05 0.000000e+00 -3.824755e-05 -8.350345e-04 0.000000e+00 0.000000e+00 0.000000e+00 0.000000e+00 2.682557e-04 1.809585e-04 0.000000e+00 1.809585e-04 -4.690723e-05 0.000000e+00 0.000000e+00 0.000000e+00 0.000000e+00 -5.713000e-05 1.455315e-04 0.000000e+00 1.455315e-04 1.075206e-05 0.000000e+00 0.000000e+00 0.000000e+00 0.000000e+00 9.717403e-05 9.467313e-05 0.000000e+00 9.467313e-05 1.269025e-03 0.000000e+00 0.000000e+00 0.000000e+00 0.000000e+00 -1.275574e-04 1.758770e-04 0.000000e+00 1.758770e-04 4.608671e-05 0.000000e+00 0.000000e+00 0.000000e+00 0.000000e+00 -1.503941e-04 1.683156e-04 0.000000e+00 1.683156e-04 1.008924e-04 0.000000e+00 0.000000e+00 0.000000e+00 0.000000e+00 6.027165e-04 -2.107178e-04 0.000000e+00 -2.107178e-04 3.990690e-04 0.000000e+00 0.000000e+00 0.000000e+00 0.000000e+00 5.231975e-05 -3.111359e-04 0.000000e+00 -3.111359e-04 -1.443832e-04 0.000000e+00 0.000000e+00 0.000000e+00 0.000000e+00 5.965201e-04 -3.458394e-04 0.000000e+00 -3.458394e-04 5.410510e-04 0.000000e+00 0.000000e+00 0.000000e+00 0.000000e+00 1.291626e-04 5.245539e-04 0.000000e+00 5.245539e-04 1.108899e-03 0.000000e+00 0.000000e+00 0.000000e+00 0.000000e+00 1.286858e-04 1.859665e-04 0.000000e+00 1.859665e-04 -3.820840e-05 0.000000e+00 0.000000e+00 0.000000e+00 0.000000e+00 2.094326e-04 -5.981128e-05 0.000000e+00 -5.981128e-05 -6.169318e-04 0.000000e+00 0.000000e+00 0.000000e+00 0.000000e+00 5.648394e-04 1.049242e-03 0.000000e+00 1.049242e-03 9.885193e-04 0.000000e+00 0.000000e+00 0.000000e+00 0.000000e+00 2.340332e-04 -9.832823e-05 0.000000e+00 -9.832823e-05 -6.220191e-04 0.000000e+00 0.000000e+00 0.000000e+00 0.000000e+00 2.439615e-04 -4.100371e-06 0.000000e+00 -4.100371e-06 -7.125157e-04 0.000000e+00 0.000000e+00 0.000000e+00 0.000000e+00 3.105616e-04 -3.937597e-05 0.000000e+00 -3.937597e-05 -8.752752e-04 0.000000e+00 0.000000e+00 0.000000e+00 0.000000e+00 3.675183e-04 3.505214e-04 0.000000e+00 3.505214e-04 9.384718e-05 0.000000e+00 0.000000e+00 0.000000e+00 0.000000e+00 1.677421e-04 4.841681e-04 0.000000e+00 4.841681e-04 7.875977e-04 0.000000e+00 0.000000e+00 0.000000e+00 0.000000e+00 -7.307983e-06 5.012732e-05 0.000000e+00 5.012732e-05 -3.690732e-05 0.000000e+00 0.000000e+00 0.000000e+00 0.000000e+00 2.331541e-04 -7.002705e-05 0.000000e+00 -7.002705e-05 -6.494669e-04 0.000000e+00 0.000000e+00 0.000000e+00 0.000000e+00 4.528294e-06 2.211678e-05 0.000000e+00 2.211678e-05 -5.229386e-05 0.000000e+00 0.000000e+00 0.000000e+00 0.000000e+00 1.849380e-04 -7.089680e-05 0.000000e+00 -7.089680e-05 -5.828233e-04 0.000000e+00 0.000000e+00 0.000000e+00 0.000000e+00 2.100710e-04 -7.283284e-05 0.000000e+00 -7.283284e-05 -3.368876e-04 0.000000e+00 0.000000e+00 0.000000e+00 0.000000e+00 -7.530451e-05 -2.810628e-04 0.000000e+00 -2.810628e-04 7.544985e-06 0.000000e+00 0.000000e+00 0.000000e+00 0.000000e+00 -1.920808e-05 -2.977028e-04 0.000000e+00 -2.977028e-04 -6.117696e-05 0.000000e+00 0.000000e+00 0.000000e+00 0.000000e+00 2.849947e-04 -4.876840e-05 0.000000e+00 -4.876840e-05 -8.324794e-04 0.000000e+00 0.000000e+00 0.000000e+00 0.000000e+00 -1.214003e-05 7.228402e-05 0.000000e+00 7.228402e-05 -1.603951e-05 0.000000e+00 0.000000e+00 0.000000e+00 0.000000e+00 1.970823e-04 -5.764009e-05 0.000000e+00 -5.764009e-05 -6.075395e-04 0.000000e+00 0.000000e+00 0.000000e+00 0.000000e+00 1.793341e-04 4.331658e-04 0.000000e+00 4.331658e-04 9.478617e-04 0.000000e+00 0.000000e+00 0.000000e+00 0.000000e+00 5.226922e-05 2.508193e-04 0.000000e+00 2.508193e-04 1.456569e-03 0.000000e+00 0.000000e+00 0.000000e+00 0.000000e+00 -1.123837e-05 8.866455e-05 0.000000e+00 8.866455e-05 -5.960926e-05 0.000000e+00 0.000000e+00 0.000000e+00 0.000000e+00 1.008978e-04 1.980866e-04 0.000000e+00 1.980866e-04 -1.829522e-05 0.000000e+00 0.000000e+00 0.000000e+00 0.000000e+00 2.235455e-04 -1.082030e-04 0.000000e+00 -1.082030e-04 -5.695834e-04 0.000000e+00 0.000000e+00 0.000000e+00 0.000000e+00 2.944682e-04 2.185907e-04 0.000000e+00 2.185907e-04 -2.438054e-05 0.000000e+00 0.000000e+00 0.000000e+00 0.000000e+00 2.237900e-04 1.851240e-04 0.000000e+00 1.851240e-04 -4.006716e-05 0.000000e+00 0.000000e+00 0.000000e+00 0.000000e+00 2.052856e-04 -1.071016e-04 0.000000e+00 -1.071016e-04 -7.025638e-04 0.000000e+00 0.000000e+00 0.000000e+00 0.000000e+00 -7.741730e-05 2.096107e-04 0.000000e+00 2.096107e-04 3.480428e-05 0.000000e+00 0.000000e+00 0.000000e+00 0.000000e+00 3.099988e-04 -1.111645e-04 0.000000e+00 -1.111645e-04 -1.820061e-04 0.000000e+00 0.000000e+00 0.000000e+00 0.000000e+00 2.230245e-04 -3.060903e-05 0.000000e+00 -3.060903e-05 -6.536931e-04 0.000000e+00 0.000000e+00 0.000000e+00 0.000000e+00 2.123662e-04 -4.106467e-05 0.000000e+00 -4.106467e-05 -4.054757e-04 0.000000e+00 0.000000e+00 0.000000e+00 0.000000e+00 1.543937e-04 4.214336e-04 0.000000e+00 4.214336e-04 5.284678e-04 0.000000e+00 0.000000e+00 0.000000e+00 0.000000e+00 1.344899e-04 3.842686e-04 0.000000e+00 3.842686e-04 5.070909e-04 0.000000e+00 0.000000e+00 0.000000e+00 0.000000e+00 2.377140e-04 -7.137349e-05 0.000000e+00 -7.137349e-05 -3.179545e-04 0.000000e+00 0.000000e+00 0.000000e+00 0.000000e+00 2.382753e-04 -8.572382e-05 0.000000e+00 -8.572382e-05 -3.020173e-04 0.000000e+00 0.000000e+00 0.000000e+00 0.000000e+00 -1.299067e-04 1.269886e-04 0.000000e+00 1.269886e-04 1.412630e-04 0.000000e+00 0.000000e+00 0.000000e+00 0.000000e+00 5.720264e-04 -2.461565e-04 0.000000e+00 -2.461565e-04 2.747113e-04 0.000000e+00 0.000000e+00 0.000000e+00 0.000000e+00 7.113075e-04 -2.765421e-04 0.000000e+00 -2.765421e-04 5.168938e-04 0.000000e+00 0.000000e+00 0.000000e+00 0.000000e+00 9.479593e-05 4.379686e-04 0.000000e+00 4.379686e-04 1.102664e-03 0.000000e+00 0.000000e+00 0.000000e+00 0.000000e+00 5.899011e-05 2.852423e-04 0.000000e+00 2.852423e-04 1.006751e-03 0.000000e+00 0.000000e+00 0.000000e+00 0.000000e+00 1.061692e-04 3.888288e-04 0.000000e+00 3.888288e-04 7.420804e-04 0.000000e+00 0.000000e+00 0.000000e+00 0.000000e+00 4.867174e-04 -1.998559e-04 0.000000e+00 -1.998559e-04 1.130296e-04 0.000000e+00 0.000000e+00 0.000000e+00 0.000000e+00 4.133789e-04 -1.669895e-04 0.000000e+00 -1.669895e-04 1.368720e-05 0.000000e+00 0.000000e+00 0.000000e+00 0.000000e+00 2.909597e-04 -2.164155e-04 0.000000e+00 -2.164155e-04 1.178781e-03 0.000000e+00 0.000000e+00 0.000000e+00 0.000000e+00 9.396719e-05 -6.748225e-05 0.000000e+00 -6.748225e-05 1.402336e-03 0.000000e+00 0.000000e+00 0.000000e+00 0.000000e+00 2.647327e-04 -1.100458e-04 0.000000e+00 -1.100458e-04 -2.351832e-04 0.000000e+00 0.000000e+00 0.000000e+00 0.000000e+00 5.392029e-04 -1.558971e-04 0.000000e+00 -1.558971e-04 2.230634e-04 0.000000e+00 0.000000e+00 0.000000e+00 0.000000e+00 2.701689e-04 2.641477e-04 0.000000e+00 2.641477e-04 2.585121e-05 0.000000e+00 0.000000e+00 0.000000e+00 0.000000e+00 3.244874e-04 2.683114e-04 0.000000e+00 2.683114e-04 1.753233e-05 0.000000e+00 0.000000e+00 0.000000e+00 0.000000e+00 1.554639e-04 1.777564e-04 0.000000e+00 1.777564e-04 -3.719762e-05 0.000000e+00 0.000000e+00 0.000000e+00 0.000000e+00 1.130836e-04 2.071548e-04 0.000000e+00 2.071548e-04 -1.815560e-05 0.000000e+00 0.000000e+00 0.000000e+00 0.000000e+00 2.984846e-04 -1.016332e-04 0.000000e+00 -1.016332e-04 -2.063275e-04 0.000000e+00 0.000000e+00 0.000000e+00 0.000000e+00 2.851833e-04 -9.398644e-05 0.000000e+00 -9.398644e-05 -1.889377e-04 0.000000e+00 0.000000e+00 0.000000e+00 0.000000e+00 5.588271e-04 8.565069e-04 0.000000e+00 8.565069e-04 1.597941e-03 0.000000e+00 0.000000e+00 0.000000e+00 0.000000e+00 3.128196e-04 4.167177e-04 0.000000e+00 4.167177e-04 2.395088e-04 0.000000e+00 0.000000e+00 0.000000e+00 0.000000e+00 2.167274e-04 3.145448e-04 0.000000e+00 3.145448e-04 1.738940e-04 0.000000e+00 0.000000e+00 0.000000e+00 0.000000e+00 2.196069e-04 1.313109e-04 0.000000e+00 1.313109e-04 -5.996417e-05 0.000000e+00 0.000000e+00 0.000000e+00 0.000000e+00 -2.386765e-05 -2.858824e-04 0.000000e+00 -2.858824e-04 -7.164359e-05 0.000000e+00 0.000000e+00 0.000000e+00 0.000000e+00 5.081085e-04 -2.805573e-04 0.000000e+00 -2.805573e-04 6.000960e-04 0.000000e+00 0.000000e+00 0.000000e+00 0.000000e+00 6.442584e-04 -3.591066e-04 0.000000e+00 -3.591066e-04 6.428672e-04 0.000000e+00 0.000000e+00 0.000000e+00 0.000000e+00 -1.331475e-04 1.917966e-04 0.000000e+00 1.917966e-04 6.486293e-05 0.000000e+00 0.000000e+00 0.000000e+00 0.000000e+00 2.439546e-04 1.529643e-04 0.000000e+00 1.529643e-04 -5.950649e-05 0.000000e+00 0.000000e+00 0.000000e+00 0.000000e+00 6.446466e-06 1.832153e-05 0.000000e+00 1.832153e-05 -1.561423e-05 0.000000e+00 0.000000e+00 0.000000e+00 0.000000e+00 -8.852953e-05 1.875282e-04 0.000000e+00 1.875282e-04 8.582105e-05 0.000000e+00 0.000000e+00 0.000000e+00 0.000000e+00 2.212732e-04 -5.764271e-05 0.000000e+00 -5.764271e-05 -5.736494e-04 0.000000e+00 0.000000e+00 0.000000e+00 0.000000e+00 -8.157952e-05 2.117958e-04 0.000000e+00 2.117958e-04 5.743656e-05 0.000000e+00 0.000000e+00 0.000000e+00 0.000000e+00 5.904942e-04 -3.178085e-04 0.000000e+00 -3.178085e-04 4.426342e-04 0.000000e+00 0.000000e+00 0.000000e+00 0.000000e+00 4.859066e-04 -2.777100e-04 0.000000e+00 -2.777100e-04 5.005157e-04 0.000000e+00 0.000000e+00 0.000000e+00 0.000000e+00 3.385469e-05 -2.836774e-04 0.000000e+00 -2.836774e-04 -1.503520e-04 0.000000e+00 0.000000e+00 0.000000e+00 0.000000e+00 1.999761e-04 -5.720139e-05 0.000000e+00 -5.720139e-05 -5.735565e-04 0.000000e+00 0.000000e+00 0.000000e+00 0.000000e+00 2.109688e-04 -3.611816e-05 0.000000e+00 -3.611816e-05 -4.915689e-04 0.000000e+00 0.000000e+00 0.000000e+00 0.000000e+00 3.481739e-04 -1.341976e-04 0.000000e+00 -1.341976e-04 -8.093091e-05 0.000000e+00 0.000000e+00 0.000000e+00 0.000000e+00 1.513752e-04 1.628358e-04 0.000000e+00 1.628358e-04 -3.515798e-05 0.000000e+00 0.000000e+00 0.000000e+00 0.000000e+00 4.647113e-04 -1.789897e-04 0.000000e+00 -1.789897e-04 7.442263e-05 0.000000e+00 0.000000e+00 0.000000e+00 0.000000e+00 4.233573e-04 -1.674223e-04 0.000000e+00 -1.674223e-04 9.684096e-05 0.000000e+00 0.000000e+00 0.000000e+00 0.000000e+00 2.134173e-04 -3.951659e-05 0.000000e+00 -3.951659e-05 -6.035966e-04 0.000000e+00 0.000000e+00 0.000000e+00 0.000000e+00 2.666713e-04 -1.037712e-04 0.000000e+00 -1.037712e-04 -2.680433e-04 0.000000e+00 0.000000e+00 0.000000e+00 0.000000e+00 2.501506e-04 -9.137245e-05 0.000000e+00 -9.137245e-05 -2.487016e-04 0.000000e+00 0.000000e+00 0.000000e+00 0.000000e+00 1.974041e-04 -5.829646e-05 0.000000e+00 -5.829646e-05 -5.625057e-04 0.000000e+00 0.000000e+00 0.000000e+00 0.000000e+00 1.958012e-04 -7.667496e-05 0.000000e+00 -7.667496e-05 -4.506363e-04 0.000000e+00 0.000000e+00 0.000000e+00 0.000000e+00 3.302005e-04 -1.314064e-04 0.000000e+00 -1.314064e-04 -1.326434e-04 0.000000e+00 0.000000e+00 0.000000e+00 0.000000e+00 2.945449e-04 -6.475105e-05 0.000000e+00 -6.475105e-05 -2.240070e-04 0.000000e+00 0.000000e+00 0.000000e+00 0.000000e+00 1.269423e-04 -3.039180e-04 0.000000e+00 -3.039180e-04 1.626483e-04 0.000000e+00 0.000000e+00 0.000000e+00 0.000000e+00 1.921385e-04 1.418974e-04 0.000000e+00 1.418974e-04 -6.059165e-05 0.000000e+00 0.000000e+00 0.000000e+00 0.000000e+00 2.230305e-04 -1.408607e-04 0.000000e+00 -1.408607e-04 -5.342878e-04 0.000000e+00 0.000000e+00 0.000000e+00 0.000000e+00 2.443771e-04 -9.557275e-05 0.000000e+00 -9.557275e-05 -3.575665e-04 0.000000e+00 0.000000e+00 0.000000e+00 0.000000e+00 3.744596e-06 1.541405e-05 0.000000e+00 1.541405e-05 -2.494866e-05 0.000000e+00 0.000000e+00 0.000000e+00 0.000000e+00 2.007358e-04 -6.577227e-05 0.000000e+00 -6.577227e-05 -4.218449e-04 0.000000e+00 0.000000e+00 0.000000e+00 0.000000e+00 2.242985e-04 -6.565394e-05 0.000000e+00 -6.565394e-05 -4.477868e-04 0.000000e+00 0.000000e+00 0.000000e+00 0.000000e+00 2.321532e-04 -6.660762e-05 0.000000e+00 -6.660762e-05 -4.219233e-04 0.000000e+00 0.000000e+00 0.000000e+00 0.000000e+00 2.164012e-04 1.591046e-04 0.000000e+00 1.591046e-04 -5.560274e-05 0.000000e+00 0.000000e+00 0.000000e+00 0.000000e+00 -2.190605e-04 -6.415498e-05 0.000000e+00 -6.415498e-05 2.760844e-04 0.000000e+00 0.000000e+00 0.000000e+00 0.000000e+00 3.346544e-04 -1.351822e-04 0.000000e+00 -1.351822e-04 -1.053716e-04 0.000000e+00 0.000000e+00 0.000000e+00 0.000000e+00 3.200019e-04 -1.171061e-04 0.000000e+00 -1.171061e-04 -1.190405e-04 0.000000e+00 0.000000e+00 0.000000e+00 0.000000e+00 3.534909e-04 -1.211589e-04 0.000000e+00 -1.211589e-04 -9.901002e-05 0.000000e+00 0.000000e+00 0.000000e+00 0.000000e+00 2.271142e-04 -5.825045e-05 0.000000e+00 -5.825045e-05 -6.792014e-04 0.000000e+00 0.000000e+00 0.000000e+00 0.000000e+00 1.998226e-04 1.126869e-04 0.000000e+00 1.126869e-04 -4.815681e-05 0.000000e+00 0.000000e+00 0.000000e+00 0.000000e+00 3.944540e-05 2.061121e-04 0.000000e+00 2.061121e-04 3.384621e-06 0.000000e+00 0.000000e+00 0.000000e+00 0.000000e+00 2.304160e-04 -3.115099e-05 0.000000e+00 -3.115099e-05 -6.912543e-04 0.000000e+00 0.000000e+00 0.000000e+00 0.000000e+00 1.714677e-04 -9.352325e-05 0.000000e+00 -9.352325e-05 -5.129159e-04 0.000000e+00 0.000000e+00 0.000000e+00 0.000000e+00 2.514710e-04 2.171437e-04 0.000000e+00 2.171437e-04 -1.802783e-05 0.000000e+00 0.000000e+00 0.000000e+00 0.000000e+00 2.179361e-04 -8.176576e-05 0.000000e+00 -8.176576e-05 -5.983802e-04 0.000000e+00 0.000000e+00 0.000000e+00 0.000000e+00 4.930336e-04 -2.281753e-04 0.000000e+00 -2.281753e-04 3.292137e-04 0.000000e+00 0.000000e+00 0.000000e+00 0.000000e+00 5.879556e-04 -2.809176e-04 0.000000e+00 -2.809176e-04 3.566199e-04 0.000000e+00 0.000000e+00 0.000000e+00 0.000000e+00 -2.092379e-04 4.378398e-05 0.000000e+00 4.378398e-05 2.373549e-04 0.000000e+00 0.000000e+00 0.000000e+00 0.000000e+00 1.924814e-04 -4.796859e-05 0.000000e+00 -4.796859e-05 -5.357753e-04 0.000000e+00 0.000000e+00 0.000000e+00 0.000000e+00 2.062432e-04 -9.132528e-05 0.000000e+00 -9.132528e-05 -5.328599e-04 0.000000e+00 0.000000e+00 0.000000e+00 0.000000e+00 2.146652e-04 -7.545208e-05 0.000000e+00 -7.545208e-05 -5.238066e-04 0.000000e+00 0.000000e+00 0.000000e+00 0.000000e+00 3.558117e-04 -1.180563e-04 0.000000e+00 -1.180563e-04 -7.308233e-05 0.000000e+00 0.000000e+00 0.000000e+00 0.000000e+00 3.603481e-04 -1.317831e-04 0.000000e+00 -1.317831e-04 -5.674744e-05 0.000000e+00 0.000000e+00 0.000000e+00 0.000000e+00 -7.333733e-07 4.336134e-05 0.000000e+00 4.336134e-05 -3.139301e-05 0.000000e+00 0.000000e+00 0.000000e+00 0.000000e+00 -1.827161e-04 -1.044882e-04 0.000000e+00 -1.044882e-04 1.834854e-04 0.000000e+00 0.000000e+00 0.000000e+00 0.000000e+00 5.919454e-05 2.230586e-04 0.000000e+00 2.230586e-04 9.219574e-06 0.000000e+00 0.000000e+00 0.000000e+00 0.000000e+00 1.644302e-04 -3.563519e-04 0.000000e+00 -3.563519e-04 1.387993e-04 0.000000e+00 0.000000e+00 0.000000e+00 0.000000e+00 2.112927e-04 -1.767004e-04 0.000000e+00 -1.767004e-04 -4.912680e-04 0.000000e+00 0.000000e+00 0.000000e+00 0.000000e+00 1.389625e-04 -1.726786e-04 0.000000e+00 -1.726786e-04 -4.083685e-04 0.000000e+00 0.000000e+00 0.000000e+00 0.000000e+00 3.183637e-04 4.332891e-05 0.000000e+00 4.332891e-05 -9.150402e-04 0.000000e+00 0.000000e+00 0.000000e+00 0.000000e+00 -1.953632e-04 -1.828472e-04 0.000000e+00 -1.828472e-04 2.484910e-04 0.000000e+00 0.000000e+00 0.000000e+00 0.000000e+00 2.849457e-04 -1.072355e-04 0.000000e+00 -1.072355e-04 -1.630605e-04 0.000000e+00 0.000000e+00 0.000000e+00 0.000000e+00 3.208317e-04 -1.210846e-04 0.000000e+00 -1.210846e-04 -1.592667e-04 0.000000e+00 0.000000e+00 0.000000e+00 0.000000e+00 -1.828537e-04 -1.102961e-04 0.000000e+00 -1.102961e-04 3.364424e-04 0.000000e+00 0.000000e+00 0.000000e+00 0.000000e+00 1.762436e-04 1.290284e-04 0.000000e+00 1.290284e-04 -5.807165e-05 0.000000e+00 0.000000e+00 0.000000e+00 0.000000e+00 2.387403e-04 -8.372616e-05 0.000000e+00 -8.372616e-05 -3.901711e-04 0.000000e+00 0.000000e+00 0.000000e+00 0.000000e+00 2.045454e-04 -6.949849e-05 0.000000e+00 -6.949849e-05 -3.927095e-04 0.000000e+00 0.000000e+00 0.000000e+00 0.000000e+00 2.033112e-04 -8.297678e-05 0.000000e+00 -8.297678e-05 -3.601409e-04 0.000000e+00 0.000000e+00 0.000000e+00 0.000000e+00 -7.711918e-05 -3.057515e-04 0.000000e+00 -3.057515e-04 3.916489e-05 0.000000e+00 0.000000e+00 0.000000e+00 0.000000e+00 3.825388e-04 -1.455979e-04 0.000000e+00 -1.455979e-04 1.582231e-06 0.000000e+00 0.000000e+00 0.000000e+00 0.000000e+00 4.096090e-04 -1.559751e-04 0.000000e+00 -1.559751e-04 -1.948725e-05 0.000000e+00 0.000000e+00 0.000000e+00 0.000000e+00 5.707945e-04 -1.999993e-04 0.000000e+00 -1.999993e-04 2.026322e-04 0.000000e+00 0.000000e+00 0.000000e+00 0.000000e+00 4.806294e-04 -2.201615e-04 0.000000e+00 -2.201615e-04 2.674775e-04 0.000000e+00 0.000000e+00 0.000000e+00 0.000000e+00 1.452169e-04 1.546825e-04 0.000000e+00 1.546825e-04 -4.383619e-05 0.000000e+00 0.000000e+00 0.000000e+00 0.000000e+00 8.081465e-05 -2.653476e-04 0.000000e+00 -2.653476e-04 -2.264309e-04 0.000000e+00 0.000000e+00 0.000000e+00 0.000000e+00 1.602808e-04 -1.342474e-04 0.000000e+00 -1.342474e-04 -4.685139e-04 0.000000e+00 0.000000e+00 0.000000e+00 0.000000e+00 -1.744005e-04 1.722771e-05 0.000000e+00 1.722771e-05 1.801100e-04 0.000000e+00 0.000000e+00 0.000000e+00 0.000000e+00 2.123216e-04 -9.521452e-05 0.000000e+00 -9.521452e-05 -3.282354e-04 0.000000e+00 0.000000e+00 0.000000e+00 0.000000e+00 6.080885e-05 -3.366885e-04 0.000000e+00 -3.366885e-04 -1.153251e-04 0.000000e+00 0.000000e+00 0.000000e+00 0.000000e+00 2.051919e-04 -8.242343e-05 0.000000e+00 -8.242343e-05 -4.841245e-04 0.000000e+00 0.000000e+00 0.000000e+00 0.000000e+00 1.976311e-04 -5.939292e-05 0.000000e+00 -5.939292e-05 -4.979799e-04 0.000000e+00 0.000000e+00 0.000000e+00 0.000000e+00 2.229701e-04 -6.684306e-05 0.000000e+00 -6.684306e-05 -4.769051e-04 0.000000e+00 0.000000e+00 0.000000e+00 0.000000e+00 2.311044e-04 2.353277e-04 0.000000e+00 2.353277e-04 2.573405e-06 0.000000e+00 0.000000e+00 0.000000e+00 0.000000e+00 2.200658e-04 3.130374e-04 0.000000e+00 3.130374e-04 1.496205e-04 0.000000e+00 0.000000e+00 0.000000e+00 0.000000e+00 1.616394e-04 -2.607609e-04 0.000000e+00 -2.607609e-04 -3.203013e-04 0.000000e+00 0.000000e+00 0.000000e+00 0.000000e+00 2.969761e-04 -1.124600e-04 0.000000e+00 -1.124600e-04 -1.414520e-04 0.000000e+00 0.000000e+00 0.000000e+00 0.000000e+00 2.633412e-04 -9.970588e-05 0.000000e+00 -9.970588e-05 -2.063017e-04 0.000000e+00 0.000000e+00 0.000000e+00 0.000000e+00 4.299323e-04 -1.698018e-04 0.000000e+00 -1.698018e-04 4.400523e-05 0.000000e+00 0.000000e+00 0.000000e+00 0.000000e+00 4.101738e-04 -1.485902e-04 0.000000e+00 -1.485902e-04 2.845651e-05 0.000000e+00 0.000000e+00 0.000000e+00 0.000000e+00 4.376922e-04 -1.531313e-04 0.000000e+00 -1.531313e-04 5.392228e-05 0.000000e+00 0.000000e+00 0.000000e+00 0.000000e+00 -1.592622e-04 -2.016366e-04 0.000000e+00 -2.016366e-04 1.651467e-04 0.000000e+00 0.000000e+00 0.000000e+00 0.000000e+00 2.029664e-04 1.724227e-04 0.000000e+00 1.724227e-04 -4.681098e-05 0.000000e+00 0.000000e+00 0.000000e+00 0.000000e+00 2.238258e-04 2.766349e-04 0.000000e+00 2.766349e-04 7.143562e-05 0.000000e+00 0.000000e+00 0.000000e+00 0.000000e+00 1.724160e-04 2.554384e-04 0.000000e+00 2.554384e-04 8.010078e-05 0.000000e+00 0.000000e+00 0.000000e+00 0.000000e+00 1.535823e-04 2.215729e-04 0.000000e+00 2.215729e-04 2.846237e-05 0.000000e+00 0.000000e+00 0.000000e+00 0.000000e+00 2.247515e-04 -1.334868e-04 0.000000e+00 -1.334868e-04 -4.974130e-04 0.000000e+00 0.000000e+00 0.000000e+00 0.000000e+00 -3.921924e-05 2.264652e-04 0.000000e+00 2.264652e-04 4.002471e-05 0.000000e+00 0.000000e+00 0.000000e+00 0.000000e+00 1.910601e-04 1.513867e-04 0.000000e+00 1.513867e-04 -4.544966e-05 0.000000e+00 0.000000e+00 0.000000e+00 0.000000e+00 3.828602e-04 -2.073215e-04 0.000000e+00 -2.073215e-04 1.297394e-05 0.000000e+00 0.000000e+00 0.000000e+00 0.000000e+00 3.528900e-04 -1.354687e-04 0.000000e+00 -1.354687e-04 -2.597125e-05 0.000000e+00 0.000000e+00 0.000000e+00 0.000000e+00 2.120194e-04 -1.837379e-04 0.000000e+00 -1.837379e-04 -4.411116e-04 0.000000e+00 0.000000e+00 0.000000e+00 0.000000e+00 1.125977e-04 -2.269318e-04 0.000000e+00 -2.269318e-04 -2.966915e-04 0.000000e+00 0.000000e+00 0.000000e+00 0.000000e+00 -2.262919e-05 2.074358e-04 0.000000e+00 2.074358e-04 2.395270e-05 0.000000e+00 0.000000e+00 0.000000e+00 0.000000e+00 1.502155e-04 1.708221e-04 0.000000e+00 1.708221e-04 -4.511768e-05 0.000000e+00 0.000000e+00 0.000000e+00 0.000000e+00 2.663618e-04 -8.310848e-05 0.000000e+00 -8.310848e-05 -3.018511e-04 0.000000e+00 0.000000e+00 0.000000e+00 0.000000e+00 1.124395e-04 -3.497164e-04 0.000000e+00 -3.497164e-04 3.717647e-04 0.000000e+00 0.000000e+00 0.000000e+00 0.000000e+00 2.354638e-04 -8.830545e-05 0.000000e+00 -8.830545e-05 -2.731320e-04 0.000000e+00 0.000000e+00 0.000000e+00 0.000000e+00 5.997102e-05 2.081382e-04 0.000000e+00 2.081382e-04 8.454015e-06 0.000000e+00 0.000000e+00 0.000000e+00 0.000000e+00 4.883358e-04 -2.142888e-04 0.000000e+00 -2.142888e-04 1.587827e-04 0.000000e+00 0.000000e+00 0.000000e+00 0.000000e+00 -1.332690e-04 1.353246e-04 0.000000e+00 1.353246e-04 2.397411e-04 0.000000e+00 0.000000e+00 0.000000e+00 0.000000e+00 2.486206e-04 -3.691712e-05 0.000000e+00 -3.691712e-05 -7.469603e-04 0.000000e+00 0.000000e+00 0.000000e+00 0.000000e+00 4.937680e-04 -1.974384e-04 0.000000e+00 -1.974384e-04 2.025630e-04 0.000000e+00 0.000000e+00 0.000000e+00 0.000000e+00 8.082173e-06 2.284913e-04 0.000000e+00 2.284913e-04 2.724402e-05 0.000000e+00 0.000000e+00 0.000000e+00 0.000000e+00 -8.870803e-05 1.836082e-04 0.000000e+00 1.836082e-04 1.278033e-04 0.000000e+00 0.000000e+00 0.000000e+00 0.000000e+00 -3.159472e-05 2.044883e-04 0.000000e+00 2.044883e-04 1.214414e-04 0.000000e+00 0.000000e+00 0.000000e+00 0.000000e+00 5.155584e-04 -1.953111e-04 0.000000e+00 -1.953111e-04 1.629312e-04 0.000000e+00 0.000000e+00 0.000000e+00 0.000000e+00 2.441980e-04 -5.574316e-05 0.000000e+00 -5.574316e-05 -7.572817e-04 0.000000e+00 0.000000e+00 0.000000e+00 0.000000e+00 -2.985480e-07 2.051003e-04 0.000000e+00 2.051003e-04 2.759307e-05 0.000000e+00 0.000000e+00 0.000000e+00 0.000000e+00 5.087921e-04 -2.715116e-04 0.000000e+00 -2.715116e-04 2.523337e-04 0.000000e+00 0.000000e+00 0.000000e+00 0.000000e+00 4.361507e-04 -1.802063e-04 0.000000e+00 -1.802063e-04 1.365927e-04 0.000000e+00 0.000000e+00 0.000000e+00 0.000000e+00 1.682224e-04 -3.185746e-04 0.000000e+00 -3.185746e-04 2.242516e-04 0.000000e+00 0.000000e+00 0.000000e+00 0.000000e+00 2.209379e-05 -2.675984e-04 0.000000e+00 -2.675984e-04 5.460725e-04 0.000000e+00 0.000000e+00 0.000000e+00 0.000000e+00 -1.751433e-04 2.930802e-05 0.000000e+00 2.930802e-05 3.279809e-04 0.000000e+00 0.000000e+00 0.000000e+00 0.000000e+00 -1.039679e-04 1.135818e-04 0.000000e+00 1.135818e-04 1.988170e-04 0.000000e+00 0.000000e+00 0.000000e+00 0.000000e+00 -1.554780e-04 -1.749049e-05 0.000000e+00 -1.749049e-05 2.475657e-04 0.000000e+00 0.000000e+00 0.000000e+00 0.000000e+00 1.967414e-04 -2.288785e-04 0.000000e+00 -2.288785e-04 -3.805908e-04 0.000000e+00 0.000000e+00 0.000000e+00 0.000000e+00 2.220307e-04 -9.470899e-05 0.000000e+00 -9.470899e-05 -8.905536e-04 0.000000e+00 0.000000e+00 0.000000e+00 0.000000e+00 -1.533499e-04 -1.474031e-04 0.000000e+00 -1.474031e-04 2.435566e-04 0.000000e+00 0.000000e+00 0.000000e+00 0.000000e+00 3.646309e-04 -1.868960e-04 0.000000e+00 -1.868960e-04 3.124936e-05 0.000000e+00 0.000000e+00 0.000000e+00 0.000000e+00 3.879576e-04 -2.127450e-04 0.000000e+00 -2.127450e-04 5.567730e-05 0.000000e+00 0.000000e+00 0.000000e+00 0.000000e+00 2.376996e-04 -1.075860e-04 0.000000e+00 -1.075860e-04 -3.860168e-04 0.000000e+00 0.000000e+00 0.000000e+00 0.000000e+00 1.356462e-04 4.084295e-04 0.000000e+00 4.084295e-04 4.788149e-04 0.000000e+00 0.000000e+00 0.000000e+00 0.000000e+00 1.054580e-04 3.092874e-04 0.000000e+00 3.092874e-04 3.731664e-04 0.000000e+00 0.000000e+00 0.000000e+00 0.000000e+00 2.636462e-05 2.339111e-04 0.000000e+00 2.339111e-04 5.048025e-05 0.000000e+00 0.000000e+00 0.000000e+00 0.000000e+00 7.728134e-05 2.156881e-05 0.000000e+00 2.156881e-05 1.064086e-03 0.000000e+00 0.000000e+00 0.000000e+00 0.000000e+00 1.507104e-04 -1.669587e-04 0.000000e+00 -1.669587e-04 -3.810868e-04 0.000000e+00 0.000000e+00 0.000000e+00 0.000000e+00 4.585012e-04 -2.477014e-04 0.000000e+00 -2.477014e-04 1.442733e-04 0.000000e+00 0.000000e+00 0.000000e+00 0.000000e+00 2.873820e-04 -9.735722e-05 0.000000e+00 -9.735722e-05 -2.296553e-04 0.000000e+00 0.000000e+00 0.000000e+00 0.000000e+00 4.771168e-04 -3.432930e-04 0.000000e+00 -3.432930e-04 9.818793e-04 0.000000e+00 0.000000e+00 0.000000e+00 0.000000e+00 2.329534e-04 -2.660286e-04 0.000000e+00 -2.660286e-04 1.207358e-03 0.000000e+00 0.000000e+00 0.000000e+00 0.000000e+00 3.142657e-04 -1.624221e-04 0.000000e+00 -1.624221e-04 -1.440378e-04 0.000000e+00 0.000000e+00 0.000000e+00 0.000000e+00 5.722350e-04 -3.791092e-04 0.000000e+00 -3.791092e-04 8.108620e-04 0.000000e+00 0.000000e+00 0.000000e+00 0.000000e+00 3.356798e-04 -2.979471e-04 0.000000e+00 -2.979471e-04 9.675333e-04 0.000000e+00 0.000000e+00 0.000000e+00 0.000000e+00 1.271052e-04 1.966832e-04 0.000000e+00 1.966832e-04 -1.863045e-05 0.000000e+00 0.000000e+00 0.000000e+00 0.000000e+00 8.643825e-05 2.326664e-04 0.000000e+00 2.326664e-04 2.080744e-05 0.000000e+00 0.000000e+00 0.000000e+00 0.000000e+00 1.584978e-05 1.158314e-04 0.000000e+00 1.158314e-04 1.211056e-03 0.000000e+00 0.000000e+00 0.000000e+00 0.000000e+00 1.712798e-04 -2.735624e-04 0.000000e+00 -2.735624e-04 -2.777417e-04 0.000000e+00 0.000000e+00 0.000000e+00 0.000000e+00 2.580806e-05 2.542561e-04 0.000000e+00 2.542561e-04 9.987510e-04 0.000000e+00 0.000000e+00 0.000000e+00 0.000000e+00 -8.207969e-06 -3.339427e-04 0.000000e+00 -3.339427e-04 -2.292659e-05 0.000000e+00 0.000000e+00 0.000000e+00 0.000000e+00 4.371499e-04 -3.206066e-04 0.000000e+00 -3.206066e-04 7.880432e-04 0.000000e+00 0.000000e+00 0.000000e+00 0.000000e+00 4.058884e-05 -3.065585e-04 0.000000e+00 -3.065585e-04 -9.670103e-05 0.000000e+00 0.000000e+00 0.000000e+00 0.000000e+00 2.434044e-04 -1.134741e-04 0.000000e+00 -1.134741e-04 -3.207751e-04 0.000000e+00 0.000000e+00 0.000000e+00 0.000000e+00 4.629486e-04 -3.644149e-04 0.000000e+00 -3.644149e-04 5.440030e-04 0.000000e+00 0.000000e+00 0.000000e+00 0.000000e+00 -1.452526e-05 -3.124801e-04 0.000000e+00 -3.124801e-04 -2.375986e-05 0.000000e+00 0.000000e+00 0.000000e+00 0.000000e+00 1.209413e-04 -3.174838e-04 0.000000e+00 -3.174838e-04 -1.963034e-04 0.000000e+00 0.000000e+00 0.000000e+00 0.000000e+00 3.153395e-04 -1.694853e-04 0.000000e+00 -1.694853e-04 -7.091782e-05 0.000000e+00 0.000000e+00 0.000000e+00 0.000000e+00 2.179357e-04 3.135032e-04 0.000000e+00 3.135032e-04 1.496745e-04 0.000000e+00 0.000000e+00 0.000000e+00 0.000000e+00 2.259285e-04 1.982411e-04 0.000000e+00 1.982411e-04 -3.279833e-05 0.000000e+00 0.000000e+00 0.000000e+00 0.000000e+00 -6.855388e-06 2.210325e-04 0.000000e+00 2.210325e-04 5.665012e-05 0.000000e+00 0.000000e+00 0.000000e+00 0.000000e+00 1.656661e-04 2.046058e-04 0.000000e+00 2.046058e-04 -1.176704e-05 0.000000e+00 0.000000e+00 0.000000e+00 0.000000e+00 2.601559e-04 -1.431430e-04 0.000000e+00 -1.431430e-04 -2.489118e-04 0.000000e+00 0.000000e+00 0.000000e+00 0.000000e+00 3.770095e-04 -1.915684e-04 0.000000e+00 -1.915684e-04 -2.745684e-05 0.000000e+00 0.000000e+00 0.000000e+00 0.000000e+00 3.429762e-04 -1.811380e-04 0.000000e+00 -1.811380e-04 -3.140496e-06 0.000000e+00 0.000000e+00 0.000000e+00 0.000000e+00 -1.554791e-04 -2.253719e-04 0.000000e+00 -2.253719e-04 2.936096e-04 0.000000e+00 0.000000e+00 0.000000e+00 0.000000e+00 4.755013e-04 -3.146241e-04 0.000000e+00 -3.146241e-04 3.747718e-04 0.000000e+00 0.000000e+00 0.000000e+00 0.000000e+00 1.658788e-04 -1.224946e-04 0.000000e+00 -1.224946e-04 -4.431501e-04 0.000000e+00 0.000000e+00 0.000000e+00 0.000000e+00 4.870047e-04 -2.660466e-04 0.000000e+00 -2.660466e-04 4.190180e-04 0.000000e+00 0.000000e+00 0.000000e+00 0.000000e+00 -1.448032e-04 -2.564458e-04 0.000000e+00 -2.564458e-04 1.117090e-04 0.000000e+00 0.000000e+00 0.000000e+00 0.000000e+00 -7.630554e-05 -2.960573e-04 0.000000e+00 -2.960573e-04 4.506296e-05 0.000000e+00 0.000000e+00 0.000000e+00 0.000000e+00 3.163651e-04 -1.761567e-04 0.000000e+00 -1.761567e-04 -1.065187e-04 0.000000e+00 0.000000e+00 0.000000e+00 0.000000e+00 3.237218e-04 -1.596209e-04 0.000000e+00 -1.596209e-04 -9.562253e-05 0.000000e+00 0.000000e+00 0.000000e+00 0.000000e+00 4.225414e-04 -2.520464e-04 0.000000e+00 -2.520464e-04 2.479448e-04 0.000000e+00 0.000000e+00 0.000000e+00 0.000000e+00 1.924872e-04 -8.422661e-05 0.000000e+00 -8.422661e-05 -4.186345e-04 0.000000e+00 0.000000e+00 0.000000e+00 0.000000e+00 2.293846e-04 -8.614408e-05 0.000000e+00 -8.614408e-05 -4.188131e-04 0.000000e+00 0.000000e+00 0.000000e+00 0.000000e+00 -6.521029e-05 -3.302213e-04 0.000000e+00 -3.302213e-04 9.446426e-05 0.000000e+00 0.000000e+00 0.000000e+00 0.000000e+00 3.980260e-04 -2.629642e-04 0.000000e+00 -2.629642e-04 3.403321e-04 0.000000e+00 0.000000e+00 0.000000e+00 0.000000e+00 1.992355e-04 -1.179570e-04 0.000000e+00 -1.179570e-04 -3.472319e-04 0.000000e+00 0.000000e+00 0.000000e+00 0.000000e+00 2.367468e-04 -1.335963e-04 0.000000e+00 -1.335963e-04 -3.445564e-04 0.000000e+00 0.000000e+00 0.000000e+00 0.000000e+00 9.698913e-05 -2.688749e-04 0.000000e+00 -2.688749e-04 -1.929256e-04 0.000000e+00 0.000000e+00 0.000000e+00 0.000000e+00 2.205865e-04 -1.023925e-04 0.000000e+00 -1.023925e-04 -4.397060e-04 0.000000e+00 0.000000e+00 0.000000e+00 0.000000e+00 2.530005e-04 -1.435369e-04 0.000000e+00 -1.435369e-04 -2.067635e-04 0.000000e+00 0.000000e+00 0.000000e+00 0.000000e+00 2.851318e-04 -1.545284e-04 0.000000e+00 -1.545284e-04 -1.190805e-04 0.000000e+00 0.000000e+00 0.000000e+00 0.000000e+00 2.539603e-05 2.375313e-04 0.000000e+00 2.375313e-04 7.136037e-04 0.000000e+00 0.000000e+00 0.000000e+00 0.000000e+00 3.942943e-05 3.113276e-04 0.000000e+00 3.113276e-04 7.649520e-04 0.000000e+00 0.000000e+00 0.000000e+00 0.000000e+00 3.429723e-04 -2.888719e-04 0.000000e+00 -2.888719e-04 6.169775e-04 0.000000e+00 0.000000e+00 0.000000e+00 0.000000e+00 4.327241e-04 -3.750344e-04 0.000000e+00 -3.750344e-04 6.996920e-04 0.000000e+00 0.000000e+00 0.000000e+00 0.000000e+00 1.213629e-04 -3.070642e-04 0.000000e+00 -3.070642e-04 8.732549e-05 0.000000e+00 0.000000e+00 0.000000e+00 0.000000e+00 3.593824e-04 -1.747744e-04 0.000000e+00 -1.747744e-04 -7.062464e-05 0.000000e+00 0.000000e+00 0.000000e+00 0.000000e+00 2.594108e-04 -1.259546e-04 0.000000e+00 -1.259546e-04 -2.316229e-04 0.000000e+00 0.000000e+00 0.000000e+00 0.000000e+00 -1.371624e-04 -2.831014e-04 0.000000e+00 -2.831014e-04 1.710643e-04 0.000000e+00 0.000000e+00 0.000000e+00 0.000000e+00 1.792093e-04 -9.324599e-05 0.000000e+00 -9.324599e-05 -4.414291e-04 0.000000e+00 0.000000e+00 0.000000e+00 0.000000e+00 3.098217e-04 -1.363956e-04 0.000000e+00 -1.363956e-04 -1.789989e-04 0.000000e+00 0.000000e+00 0.000000e+00 0.000000e+00 2.732918e-04 -1.397063e-04 0.000000e+00 -1.397063e-04 -1.792890e-04 0.000000e+00 0.000000e+00 0.000000e+00 0.000000e+00 2.667339e-04 -1.469731e-04 0.000000e+00 -1.469731e-04 -1.476169e-04 0.000000e+00 0.000000e+00 0.000000e+00 0.000000e+00 2.868312e-04 -1.316875e-04 0.000000e+00 -1.316875e-04 -2.029997e-04 0.000000e+00 0.000000e+00 0.000000e+00 0.000000e+00 -1.092998e-04 -2.512602e-04 0.000000e+00 -2.512602e-04 1.929838e-04 0.000000e+00 0.000000e+00 0.000000e+00 0.000000e+00 1.891454e-04 -2.224745e-04 0.000000e+00 -2.224745e-04 -3.331766e-04 0.000000e+00 0.000000e+00 0.000000e+00 0.000000e+00 1.283840e-05 1.592376e-04 0.000000e+00 1.592376e-04 8.977358e-04 0.000000e+00 0.000000e+00 0.000000e+00 0.000000e+00 2.961784e-04 -2.085669e-04 0.000000e+00 -2.085669e-04 -1.172425e-04 0.000000e+00 0.000000e+00 0.000000e+00 0.000000e+00 7.632978e-05 -3.469864e-04 0.000000e+00 -3.469864e-04 -7.082284e-05 0.000000e+00 0.000000e+00 0.000000e+00 0.000000e+00 3.227220e-06 2.037997e-04 0.000000e+00 2.037997e-04 5.140282e-05 0.000000e+00 0.000000e+00 0.000000e+00 0.000000e+00 1.408905e-04 -2.650717e-04 0.000000e+00 -2.650717e-04 -2.281074e-04 0.000000e+00 0.000000e+00 0.000000e+00 0.000000e+00 1.808149e-04 -2.030440e-04 0.000000e+00 -2.030440e-04 -3.173150e-04 0.000000e+00 0.000000e+00 0.000000e+00 0.000000e+00 4.419062e-04 -2.601581e-04 0.000000e+00 -2.601581e-04 2.091279e-04 0.000000e+00 0.000000e+00 0.000000e+00 0.000000e+00 2.243656e-04 -1.021989e-04 0.000000e+00 -1.021989e-04 -2.963390e-04 0.000000e+00 0.000000e+00 0.000000e+00 0.000000e+00 -3.273416e-05 -1.382714e-04 0.000000e+00 -1.382714e-04 5.772684e-04 0.000000e+00 0.000000e+00 0.000000e+00 0.000000e+00 1.338238e-06 -3.513288e-04 0.000000e+00 -3.513288e-04 1.488268e-05 0.000000e+00 0.000000e+00 0.000000e+00 0.000000e+00 -6.329913e-05 -3.086259e-04 0.000000e+00 -3.086259e-04 9.216979e-05 0.000000e+00 0.000000e+00 0.000000e+00 0.000000e+00 -6.553402e-06 -3.290199e-04 0.000000e+00 -3.290199e-04 3.174134e-05 0.000000e+00 0.000000e+00 0.000000e+00 0.000000e+00 1.756120e-04 -9.585396e-05 0.000000e+00 -9.585396e-05 -4.721449e-04 0.000000e+00 0.000000e+00 0.000000e+00 0.000000e+00 4.549097e-04 -2.079388e-04 0.000000e+00 -2.079388e-04 8.790115e-05 0.000000e+00 0.000000e+00 0.000000e+00 0.000000e+00 3.999341e-04 -2.074206e-04 0.000000e+00 -2.074206e-04 8.790460e-05 0.000000e+00 0.000000e+00 0.000000e+00 0.000000e+00 3.807834e-04 -2.260403e-04 0.000000e+00 -2.260403e-04 1.388918e-04 0.000000e+00 0.000000e+00 0.000000e+00 0.000000e+00 9.552710e-05 2.965687e-04 0.000000e+00 2.965687e-04 3.093138e-04 0.000000e+00 0.000000e+00 0.000000e+00 0.000000e+00 1.652685e-04 1.771348e-04 0.000000e+00 1.771348e-04 -3.845692e-05 0.000000e+00 0.000000e+00 0.000000e+00 0.000000e+00 -4.077671e-05 2.281506e-04 0.000000e+00 2.281506e-04 6.536221e-05 0.000000e+00 0.000000e+00 0.000000e+00 0.000000e+00 5.041081e-04 -2.952639e-04 0.000000e+00 -2.952639e-04 3.794984e-04 0.000000e+00 0.000000e+00 0.000000e+00 0.000000e+00 2.111547e-04 -1.687065e-04 0.000000e+00 -1.687065e-04 -4.096884e-04 0.000000e+00 0.000000e+00 0.000000e+00 0.000000e+00 3.676898e-04 -2.512718e-04 0.000000e+00 -2.512718e-04 2.084372e-04 0.000000e+00 0.000000e+00 0.000000e+00 0.000000e+00 4.718747e-06 -1.998611e-05 0.000000e+00 -1.998611e-05 1.039321e-03 0.000000e+00 0.000000e+00 0.000000e+00 0.000000e+00 3.445279e-04 -3.105553e-04 0.000000e+00 -3.105553e-04 3.094515e-04 0.000000e+00 0.000000e+00 0.000000e+00 0.000000e+00 1.554434e-04 2.152137e-04 0.000000e+00 2.152137e-04 -1.425407e-05 0.000000e+00 0.000000e+00 0.000000e+00 0.000000e+00 3.914246e-04 -2.949929e-04 0.000000e+00 -2.949929e-04 1.945438e-04 0.000000e+00 0.000000e+00 0.000000e+00 0.000000e+00 -1.540813e-04 -1.555882e-04 0.000000e+00 -1.555882e-04 4.022394e-04 0.000000e+00 0.000000e+00 0.000000e+00 0.000000e+00 1.982316e-04 -1.042555e-04 0.000000e+00 -1.042555e-04 -3.850479e-04 0.000000e+00 0.000000e+00 0.000000e+00 0.000000e+00 3.637873e-04 -3.073525e-04 0.000000e+00 -3.073525e-04 5.125753e-04 0.000000e+00 0.000000e+00 0.000000e+00 0.000000e+00 4.032187e-04 -1.318877e-04 0.000000e+00 -1.318877e-04 -5.684883e-05 0.000000e+00 0.000000e+00 0.000000e+00 0.000000e+00 2.253846e-04 -1.194586e-04 0.000000e+00 -1.194586e-04 -4.660217e-04 0.000000e+00 0.000000e+00 0.000000e+00 0.000000e+00 4.105569e-04 -3.070478e-04 0.000000e+00 -3.070478e-04 3.085337e-04 0.000000e+00 0.000000e+00 0.000000e+00 0.000000e+00 -3.078366e-05 1.988897e-04 0.000000e+00 1.988897e-04 1.556226e-04 0.000000e+00 0.000000e+00 0.000000e+00 0.000000e+00 1.114062e-04 -1.764274e-04 0.000000e+00 -1.764274e-04 1.136072e-03 0.000000e+00 0.000000e+00 0.000000e+00 0.000000e+00 7.934069e-05 -8.275498e-05 0.000000e+00 -8.275498e-05 8.705364e-04 0.000000e+00 0.000000e+00 0.000000e+00 0.000000e+00 3.702182e-04 -3.470090e-04 0.000000e+00 -3.470090e-04 4.670386e-04 0.000000e+00 0.000000e+00 0.000000e+00 0.000000e+00 1.266157e-04 -3.183142e-04 0.000000e+00 -3.183142e-04 -1.371247e-04 0.000000e+00 0.000000e+00 0.000000e+00 0.000000e+00 2.263068e-04 -1.898807e-04 0.000000e+00 -1.898807e-04 -2.038166e-04 0.000000e+00 0.000000e+00 0.000000e+00 0.000000e+00 2.045863e-04 -9.061994e-05 0.000000e+00 -9.061994e-05 -4.152572e-04 0.000000e+00 0.000000e+00 0.000000e+00 0.000000e+00 2.014868e-04 -1.398125e-04 0.000000e+00 -1.398125e-04 -3.883663e-04 0.000000e+00 0.000000e+00 0.000000e+00 0.000000e+00 3.511853e-04 -2.585237e-04 0.000000e+00 -2.585237e-04 6.466137e-05 0.000000e+00 0.000000e+00 0.000000e+00 0.000000e+00 1.583739e-04 -2.546645e-04 0.000000e+00 -2.546645e-04 -2.258257e-04 0.000000e+00 0.000000e+00 0.000000e+00 0.000000e+00 2.233289e-04 -1.244851e-04 0.000000e+00 -1.244851e-04 -2.550045e-04 0.000000e+00 0.000000e+00 0.000000e+00 0.000000e+00 -5.861512e-06 3.280001e-05 0.000000e+00 3.280001e-05 7.775002e-04 0.000000e+00 0.000000e+00 0.000000e+00 0.000000e+00 3.176403e-04 -2.741316e-04 0.000000e+00 -2.741316e-04 2.607215e-04 0.000000e+00 0.000000e+00 0.000000e+00 0.000000e+00 -1.138118e-04 -2.723451e-04 0.000000e+00 -2.723451e-04 1.216070e-04 0.000000e+00 0.000000e+00 0.000000e+00 0.000000e+00 2.763642e-04 -3.105825e-04 0.000000e+00 -3.105825e-04 4.536842e-04 0.000000e+00 0.000000e+00 0.000000e+00 0.000000e+00 2.790516e-04 -3.360110e-04 0.000000e+00 -3.360110e-04 4.011806e-04 0.000000e+00 0.000000e+00 0.000000e+00 0.000000e+00 2.634080e-04 -1.964352e-04 0.000000e+00 -1.964352e-04 -8.656516e-05 0.000000e+00 0.000000e+00 0.000000e+00 0.000000e+00 2.978338e-04 -2.242062e-04 0.000000e+00 -2.242062e-04 -6.896500e-05 0.000000e+00 0.000000e+00 0.000000e+00 0.000000e+00 1.830713e-04 -1.093771e-04 0.000000e+00 -1.093771e-04 -4.227537e-04 0.000000e+00 0.000000e+00 0.000000e+00 0.000000e+00 2.402619e-04 -1.734029e-04 0.000000e+00 -1.734029e-04 -1.663345e-04 0.000000e+00 0.000000e+00 0.000000e+00 0.000000e+00 2.961658e-04 -1.762233e-04 0.000000e+00 -1.762233e-04 -1.663719e-04 0.000000e+00 0.000000e+00 0.000000e+00 0.000000e+00 2.551770e-05 2.426347e-04 0.000000e+00 2.426347e-04 5.181057e-04 0.000000e+00 0.000000e+00 0.000000e+00 0.000000e+00 1.640239e-04 -3.522846e-04 0.000000e+00 -3.522846e-04 2.236298e-04 0.000000e+00 0.000000e+00 0.000000e+00 0.000000e+00 -1.092651e-04 -2.679650e-04 0.000000e+00 -2.679650e-04 3.158374e-04 0.000000e+00 0.000000e+00 0.000000e+00 0.000000e+00 3.255968e-05 2.388664e-04 0.000000e+00 2.388664e-04 7.433845e-05 0.000000e+00 0.000000e+00 0.000000e+00 0.000000e+00 8.151835e-05 2.092396e-04 0.000000e+00 2.092396e-04 1.922718e-05 0.000000e+00 0.000000e+00 0.000000e+00 0.000000e+00 4.451240e-04 -3.174957e-04 0.000000e+00 -3.174957e-04 6.995191e-04 0.000000e+00 0.000000e+00 0.000000e+00 0.000000e+00 1.672219e-04 2.065785e-04 0.000000e+00 2.065785e-04 -1.270783e-05 0.000000e+00 0.000000e+00 0.000000e+00 0.000000e+00 2.451061e-04 -1.852661e-04 0.000000e+00 -1.852661e-04 -1.258182e-04 0.000000e+00 0.000000e+00 0.000000e+00 0.000000e+00 1.698851e-04 -1.489382e-04 0.000000e+00 -1.489382e-04 -3.708081e-04 0.000000e+00 0.000000e+00 0.000000e+00 0.000000e+00 -3.866677e-05 8.303262e-05 0.000000e+00 8.303262e-05 8.774414e-04 0.000000e+00 0.000000e+00 0.000000e+00 0.000000e+00 3.199843e-04 -1.650417e-04 0.000000e+00 -1.650417e-04 -3.779799e-05 0.000000e+00 0.000000e+00 0.000000e+00 0.000000e+00 -6.882367e-05 1.951052e-04 0.000000e+00 1.951052e-04 5.083470e-05 0.000000e+00 0.000000e+00 0.000000e+00 0.000000e+00 4.053973e-04 -2.494251e-04 0.000000e+00 -2.494251e-04 1.123318e-04 0.000000e+00 0.000000e+00 0.000000e+00 0.000000e+00 4.044490e-04 -1.954601e-04 0.000000e+00 -1.954601e-04 6.027923e-05 0.000000e+00 0.000000e+00 0.000000e+00 0.000000e+00 -1.092380e-04 -2.007367e-04 0.000000e+00 -2.007367e-04 2.774365e-04 0.000000e+00 0.000000e+00 0.000000e+00 0.000000e+00 2.142145e-04 -1.919516e-04 0.000000e+00 -1.919516e-04 -2.550483e-04 0.000000e+00 0.000000e+00 0.000000e+00 0.000000e+00 7.027499e-05 2.423887e-04 0.000000e+00 2.423887e-04 7.258203e-05 0.000000e+00 0.000000e+00 0.000000e+00 0.000000e+00 1.100823e-04 2.430722e-04 0.000000e+00 2.430722e-04 5.074824e-05 0.000000e+00 0.000000e+00 0.000000e+00 0.000000e+00 -1.077508e-04 -2.993018e-04 0.000000e+00 -2.993018e-04 2.130628e-04 0.000000e+00 0.000000e+00 0.000000e+00 0.000000e+00 7.643256e-05 2.193417e-04 0.000000e+00 2.193417e-04 5.738352e-05 0.000000e+00 0.000000e+00 0.000000e+00 0.000000e+00 -1.009399e-04 1.431072e-04 0.000000e+00 1.431072e-04 3.465444e-04 0.000000e+00 0.000000e+00 0.000000e+00 0.000000e+00 2.706833e-04 -1.791797e-04 0.000000e+00 -1.791797e-04 -2.014557e-04 0.000000e+00 0.000000e+00 0.000000e+00 0.000000e+00 1.337402e-04 2.700161e-04 0.000000e+00 2.700161e-04 1.016822e-04 0.000000e+00 0.000000e+00 0.000000e+00 0.000000e+00 7.567810e-05 2.483875e-04 0.000000e+00 2.483875e-04 1.979459e-04 0.000000e+00 0.000000e+00 0.000000e+00 0.000000e+00 -4.502217e-05 -3.286931e-04 0.000000e+00 -3.286931e-04 1.100778e-04 0.000000e+00 0.000000e+00 0.000000e+00 0.000000e+00 3.171562e-04 -2.733686e-04 0.000000e+00 -2.733686e-04 1.884021e-04 0.000000e+00 0.000000e+00 0.000000e+00 0.000000e+00 1.126135e-04 2.900487e-04 0.000000e+00 2.900487e-04 2.020217e-04 0.000000e+00 0.000000e+00 0.000000e+00 0.000000e+00 2.779843e-04 -6.340106e-05 0.000000e+00 -6.340106e-05 -7.499856e-04 0.000000e+00 0.000000e+00 0.000000e+00 0.000000e+00 2.246559e-04 -1.359137e-04 0.000000e+00 -1.359137e-04 -3.877132e-04 0.000000e+00 0.000000e+00 0.000000e+00 0.000000e+00 2.261277e-04 -8.553751e-05 0.000000e+00 -8.553751e-05 -5.313416e-04 0.000000e+00 0.000000e+00 0.000000e+00 0.000000e+00 -2.935891e-05 1.740479e-04 0.000000e+00 1.740479e-04 2.058282e-04 0.000000e+00 0.000000e+00 0.000000e+00 0.000000e+00 3.435823e-04 -2.456364e-04 0.000000e+00 -2.456364e-04 1.826687e-05 0.000000e+00 0.000000e+00 0.000000e+00 0.000000e+00 3.070731e-04 -2.261483e-04 0.000000e+00 -2.261483e-04 4.121905e-05 0.000000e+00 0.000000e+00 0.000000e+00 0.000000e+00 -1.556202e-04 -5.531357e-06 0.000000e+00 -5.531357e-06 4.181311e-04 0.000000e+00 0.000000e+00 0.000000e+00 0.000000e+00 -1.030722e-04 8.170714e-05 0.000000e+00 8.170714e-05 2.839017e-04 0.000000e+00 0.000000e+00 0.000000e+00 0.000000e+00 -1.388635e-04 -7.081374e-05 0.000000e+00 -7.081374e-05 3.139765e-04 0.000000e+00 0.000000e+00 0.000000e+00 0.000000e+00 2.583258e-04 -3.811748e-05 0.000000e+00 -3.811748e-05 -7.732836e-04 0.000000e+00 0.000000e+00 0.000000e+00 0.000000e+00 2.448915e-04 -1.710466e-04 0.000000e+00 -1.710466e-04 -2.436977e-04 0.000000e+00 0.000000e+00 0.000000e+00 0.000000e+00 1.551106e-04 -2.839026e-04 0.000000e+00 -2.839026e-04 -1.513897e-04 0.000000e+00 0.000000e+00 0.000000e+00 0.000000e+00 3.321751e-04 -3.358962e-04 0.000000e+00 -3.358962e-04 9.176454e-04 0.000000e+00 0.000000e+00 0.000000e+00 0.000000e+00 -6.981893e-07 -1.222288e-04 0.000000e+00 -1.222288e-04 8.834823e-04 0.000000e+00 0.000000e+00 0.000000e+00 0.000000e+00 3.074502e-04 -3.374201e-04 0.000000e+00 -3.374201e-04 2.642169e-04 0.000000e+00 0.000000e+00 0.000000e+00 0.000000e+00 2.117988e-04 -2.924803e-04 0.000000e+00 -2.924803e-04 3.731326e-04 0.000000e+00 0.000000e+00 0.000000e+00 0.000000e+00 2.845110e-04 -2.043575e-04 0.000000e+00 -2.043575e-04 -4.996588e-05 0.000000e+00 0.000000e+00 0.000000e+00 0.000000e+00 2.725460e-04 -2.575287e-04 0.000000e+00 -2.575287e-04 -7.840512e-05 0.000000e+00 0.000000e+00 0.000000e+00 0.000000e+00 1.867568e-04 -1.713048e-04 0.000000e+00 -1.713048e-04 1.016760e-03 0.000000e+00 0.000000e+00 0.000000e+00 0.000000e+00 -4.784517e-05 -2.778312e-04 0.000000e+00 -2.778312e-04 2.068390e-04 0.000000e+00 0.000000e+00 0.000000e+00 0.000000e+00 3.345376e-04 -2.843115e-04 0.000000e+00 -2.843115e-04 1.441140e-04 0.000000e+00 0.000000e+00 0.000000e+00 0.000000e+00 1.730048e-04 -2.259329e-04 0.000000e+00 -2.259329e-04 -2.430421e-04 0.000000e+00 0.000000e+00 0.000000e+00 0.000000e+00 2.506031e-04 -3.005547e-04 0.000000e+00 -3.005547e-04 9.023335e-04 0.000000e+00 0.000000e+00 0.000000e+00 0.000000e+00 2.357438e-04 -1.512555e-04 0.000000e+00 -1.512555e-04 -2.973205e-04 0.000000e+00 0.000000e+00 0.000000e+00 0.000000e+00 2.066638e-04 -1.277964e-04 0.000000e+00 -1.277964e-04 -3.113046e-04 0.000000e+00 0.000000e+00 0.000000e+00 0.000000e+00 2.544870e-04 -1.354194e-04 0.000000e+00 -1.354194e-04 -2.876665e-04 0.000000e+00 0.000000e+00 0.000000e+00 0.000000e+00 2.744474e-05 -3.607104e-04 0.000000e+00 -3.607104e-04 5.677275e-05 0.000000e+00 0.000000e+00 0.000000e+00 0.000000e+00 3.573934e-04 -2.544526e-04 0.000000e+00 -2.544526e-04 1.125505e-04 0.000000e+00 0.000000e+00 0.000000e+00 0.000000e+00 3.537884e-04 -2.340440e-04 0.000000e+00 -2.340440e-04 7.359670e-05 0.000000e+00 0.000000e+00 0.000000e+00 0.000000e+00 2.732284e-04 -2.264870e-04 0.000000e+00 -2.264870e-04 -1.431663e-04 0.000000e+00 0.000000e+00 0.000000e+00 0.000000e+00 2.120316e-04 -2.092467e-04 0.000000e+00 -2.092467e-04 -1.471925e-04 0.000000e+00 0.000000e+00 0.000000e+00 0.000000e+00 1.057330e-04 3.076712e-04 0.000000e+00 3.076712e-04 3.148552e-04 0.000000e+00 0.000000e+00 0.000000e+00 0.000000e+00 2.928140e-04 -3.618490e-04 0.000000e+00 -3.618490e-04 7.049250e-04 0.000000e+00 0.000000e+00 0.000000e+00 0.000000e+00 2.938641e-04 -2.992850e-04 0.000000e+00 -2.992850e-04 1.426999e-04 0.000000e+00 0.000000e+00 0.000000e+00 0.000000e+00 2.177028e-04 -2.842843e-04 0.000000e+00 -2.842843e-04 6.249880e-04 0.000000e+00 0.000000e+00 0.000000e+00 0.000000e+00 2.134892e-04 -3.108304e-04 0.000000e+00 -3.108304e-04 5.605568e-04 0.000000e+00 0.000000e+00 0.000000e+00 0.000000e+00 2.296183e-04 -2.366452e-04 0.000000e+00 -2.366452e-04 7.382835e-04 0.000000e+00 0.000000e+00 0.000000e+00 0.000000e+00 -1.108231e-04 -2.093146e-04 0.000000e+00 -2.093146e-04 4.484457e-04 0.000000e+00 0.000000e+00 0.000000e+00 0.000000e+00 -3.948118e-05 1.143861e-04 0.000000e+00 1.143861e-04 6.943583e-04 0.000000e+00 0.000000e+00 0.000000e+00 0.000000e+00 6.138790e-05 -3.374483e-04 0.000000e+00 -3.374483e-04 -2.100165e-05 0.000000e+00 0.000000e+00 0.000000e+00 0.000000e+00 1.265129e-04 -2.988234e-04 0.000000e+00 -2.988234e-04 -1.298621e-04 0.000000e+00 0.000000e+00 0.000000e+00 0.000000e+00 1.232762e-04 -3.253906e-04 0.000000e+00 -3.253906e-04 -4.791728e-05 0.000000e+00 0.000000e+00 0.000000e+00 0.000000e+00 1.710738e-04 -2.682439e-04 0.000000e+00 -2.682439e-04 -1.489779e-04 0.000000e+00 0.000000e+00 0.000000e+00 0.000000e+00 -9.602590e-06 2.280716e-04 0.000000e+00 2.280716e-04 3.454806e-04 0.000000e+00 0.000000e+00 0.000000e+00 0.000000e+00 -3.262082e-05 1.794176e-04 0.000000e+00 1.794176e-04 3.217097e-04 0.000000e+00 0.000000e+00 0.000000e+00 0.000000e+00 -2.098278e-05 2.221622e-04 0.000000e+00 2.221622e-04 4.701330e-04 0.000000e+00 0.000000e+00 0.000000e+00 0.000000e+00 -1.009474e-04 1.052224e-04 0.000000e+00 1.052224e-04 4.631181e-04 0.000000e+00 0.000000e+00 0.000000e+00 0.000000e+00 3.125921e-04 -2.106188e-04 0.000000e+00 -2.106188e-04 -1.307783e-05 0.000000e+00 0.000000e+00 0.000000e+00 0.000000e+00 2.400200e-04 -3.061181e-04 0.000000e+00 -3.061181e-04 2.497018e-04 0.000000e+00 0.000000e+00 0.000000e+00 0.000000e+00 1.039336e-04 -2.771758e-04 0.000000e+00 -2.771758e-04 3.759457e-04 0.000000e+00 0.000000e+00 0.000000e+00 0.000000e+00 1.447688e-04 -2.932281e-04 0.000000e+00 -2.932281e-04 5.600284e-04 0.000000e+00 0.000000e+00 0.000000e+00 0.000000e+00 2.222631e-04 -2.255316e-04 0.000000e+00 -2.255316e-04 -9.610659e-05 0.000000e+00 0.000000e+00 0.000000e+00 0.000000e+00 2.178669e-04 -1.814728e-04 0.000000e+00 -1.814728e-04 -3.203055e-04 0.000000e+00 0.000000e+00 0.000000e+00 0.000000e+00 3.303519e-04 -2.353534e-04 0.000000e+00 -2.353534e-04 -3.094680e-05 0.000000e+00 0.000000e+00 0.000000e+00 0.000000e+00 1.057034e-04 -2.418092e-04 0.000000e+00 -2.418092e-04 9.286791e-04 0.000000e+00 0.000000e+00 0.000000e+00 0.000000e+00 -9.564177e-05 -1.415969e-04 0.000000e+00 -1.415969e-04 3.712672e-04 0.000000e+00 0.000000e+00 0.000000e+00 0.000000e+00 2.059498e-04 -2.200554e-04 0.000000e+00 -2.200554e-04 -2.420407e-04 0.000000e+00 0.000000e+00 0.000000e+00 0.000000e+00 2.764891e-04 -2.797383e-04 0.000000e+00 -2.797383e-04 -1.681191e-05 0.000000e+00 0.000000e+00 0.000000e+00 0.000000e+00 2.617789e-04 -1.238521e-04 0.000000e+00 -1.238521e-04 -2.873078e-04 0.000000e+00 0.000000e+00 0.000000e+00 0.000000e+00 2.309095e-04 -2.418110e-04 0.000000e+00 -2.418110e-04 -4.579574e-05 0.000000e+00 0.000000e+00 0.000000e+00 0.000000e+00 3.296102e-04 -3.300080e-05 0.000000e+00 -3.300080e-05 -9.417013e-04 0.000000e+00 0.000000e+00 0.000000e+00 0.000000e+00 -4.556146e-05 -3.108021e-04 0.000000e+00 -3.108021e-04 1.412157e-04 0.000000e+00 0.000000e+00 0.000000e+00 0.000000e+00 1.842266e-04 -1.447720e-04 0.000000e+00 -1.447720e-04 -3.332770e-04 0.000000e+00 0.000000e+00 0.000000e+00 0.000000e+00 -3.017105e-05 -2.747787e-04 0.000000e+00 -2.747787e-04 2.908590e-04 0.000000e+00 0.000000e+00 0.000000e+00 0.000000e+00 -5.107122e-05 -2.853455e-04 0.000000e+00 -2.853455e-04 3.046722e-04 0.000000e+00 0.000000e+00 0.000000e+00 0.000000e+00 2.655398e-04 -2.638814e-04 0.000000e+00 -2.638814e-04 1.009022e-04 0.000000e+00 0.000000e+00 0.000000e+00 0.000000e+00 7.341656e-05 -2.461658e-04 0.000000e+00 -2.461658e-04 7.557566e-04 0.000000e+00 0.000000e+00 0.000000e+00 0.000000e+00 6.071101e-05 2.230353e-04 0.000000e+00 2.230353e-04 1.163804e-04 0.000000e+00 0.000000e+00 0.000000e+00 0.000000e+00 -1.394743e-04 -6.705055e-05 0.000000e+00 -6.705055e-05 5.231038e-04 0.000000e+00 0.000000e+00 0.000000e+00 0.000000e+00 1.989130e-05 -3.299727e-04 0.000000e+00 -3.299727e-04 7.440232e-05 0.000000e+00 0.000000e+00 0.000000e+00 0.000000e+00 8.782613e-05 -3.466078e-04 0.000000e+00 -3.466078e-04 -1.827829e-05 0.000000e+00 0.000000e+00 0.000000e+00 0.000000e+00 -7.554103e-06 -8.436241e-05 0.000000e+00 -8.436241e-05 6.828232e-04 0.000000e+00 0.000000e+00 0.000000e+00 0.000000e+00 -6.168742e-05 -5.628816e-05 0.000000e+00 -5.628816e-05 7.722023e-04 0.000000e+00 0.000000e+00 0.000000e+00 0.000000e+00 7.925907e-05 -3.519273e-04 0.000000e+00 -3.519273e-04 5.485774e-05 0.000000e+00 0.000000e+00 0.000000e+00 0.000000e+00 1.472796e-04 -3.204231e-04 0.000000e+00 -3.204231e-04 -4.808032e-05 0.000000e+00 0.000000e+00 0.000000e+00 0.000000e+00 2.030114e-04 -1.933334e-04 0.000000e+00 -1.933334e-04 -3.267953e-04 0.000000e+00 0.000000e+00 0.000000e+00 0.000000e+00 2.487211e-04 -3.227589e-04 0.000000e+00 -3.227589e-04 2.040080e-04 0.000000e+00 0.000000e+00 0.000000e+00 0.000000e+00 -9.568750e-05 -1.445710e-04 0.000000e+00 -1.445710e-04 5.580878e-04 0.000000e+00 0.000000e+00 0.000000e+00 0.000000e+00 2.592396e-04 -2.504285e-04 0.000000e+00 -2.504285e-04 1.828347e-06 0.000000e+00 0.000000e+00 0.000000e+00 0.000000e+00 2.269101e-04 -1.731348e-04 0.000000e+00 -1.731348e-04 -3.211075e-04 0.000000e+00 0.000000e+00 0.000000e+00 0.000000e+00 2.445469e-04 -2.387443e-04 0.000000e+00 -2.387443e-04 -1.819556e-04 0.000000e+00 0.000000e+00 0.000000e+00 0.000000e+00 2.059345e-04 -3.440788e-04 0.000000e+00 -3.440788e-04 3.612188e-04 0.000000e+00 0.000000e+00 0.000000e+00 0.000000e+00 2.315977e-04 -3.234742e-04 0.000000e+00 -3.234742e-04 5.191443e-05 0.000000e+00 0.000000e+00 0.000000e+00 0.000000e+00 1.822196e-04 -2.346815e-04 0.000000e+00 -2.346815e-04 -1.209404e-04 0.000000e+00 0.000000e+00 0.000000e+00 0.000000e+00 1.785001e-04 -2.990323e-04 0.000000e+00 -2.990323e-04 -8.750480e-05 0.000000e+00 0.000000e+00 0.000000e+00 0.000000e+00 2.410902e-04 -2.743286e-04 0.000000e+00 -2.743286e-04 -9.829798e-05 0.000000e+00 0.000000e+00 0.000000e+00 0.000000e+00 2.472601e-04 -3.325260e-04 0.000000e+00 -3.325260e-04 1.263102e-04 0.000000e+00 0.000000e+00 0.000000e+00 0.000000e+00 1.943694e-04 -2.875935e-04 0.000000e+00 -2.875935e-04 1.831051e-04 0.000000e+00 0.000000e+00 0.000000e+00 0.000000e+00 7.167617e-05 -2.288241e-04 0.000000e+00 -2.288241e-04 5.944234e-04 0.000000e+00 0.000000e+00 0.000000e+00 0.000000e+00 -1.719856e-05 -1.871266e-04 0.000000e+00 -1.871266e-04 7.308992e-04 0.000000e+00 0.000000e+00 0.000000e+00 0.000000e+00 -4.208478e-05 7.915747e-05 0.000000e+00 7.915747e-05 5.978148e-04 0.000000e+00 0.000000e+00 0.000000e+00 0.000000e+00 -9.790417e-05 4.409716e-05 0.000000e+00 4.409716e-05 3.859234e-04 0.000000e+00 0.000000e+00 0.000000e+00 0.000000e+00 1.447222e-04 -3.115230e-04 0.000000e+00 -3.115230e-04 4.950418e-04 0.000000e+00 0.000000e+00 0.000000e+00 0.000000e+00 1.004046e-04 -2.801476e-04 0.000000e+00 -2.801476e-04 4.752872e-04 0.000000e+00 0.000000e+00 0.000000e+00 0.000000e+00 2.639259e-05 -2.437482e-04 0.000000e+00 -2.437482e-04 6.153304e-04 0.000000e+00 0.000000e+00 0.000000e+00 0.000000e+00 -2.705989e-05 -3.487048e-04 0.000000e+00 -3.487048e-04 1.984566e-04 0.000000e+00 0.000000e+00 0.000000e+00 0.000000e+00 2.413636e-04 -3.015244e-04 0.000000e+00 -3.015244e-04 -3.428535e-05 0.000000e+00 0.000000e+00 0.000000e+00 0.000000e+00 1.881404e-04 -2.689754e-04 0.000000e+00 -2.689754e-04 -5.142616e-05 0.000000e+00 0.000000e+00 0.000000e+00 0.000000e+00 1.840185e-04 -2.799928e-04 0.000000e+00 -2.799928e-04 1.438382e-05 0.000000e+00 0.000000e+00 0.000000e+00 0.000000e+00 -2.385174e-05 2.215202e-04 0.000000e+00 2.215202e-04 6.434550e-04 0.000000e+00 0.000000e+00 0.000000e+00 0.000000e+00 -9.019042e-05 4.049178e-05 0.000000e+00 4.049178e-05 6.771520e-04 0.000000e+00 0.000000e+00 0.000000e+00 0.000000e+00 -8.269414e-06 -3.112915e-04 0.000000e+00 -3.112915e-04 1.632020e-04 0.000000e+00 0.000000e+00 0.000000e+00 0.000000e+00 4.958813e-05 -3.668822e-04 0.000000e+00 -3.668822e-04 1.099072e-04 0.000000e+00 0.000000e+00 0.000000e+00 0.000000e+00 1.852113e-04 -3.424485e-04 0.000000e+00 -3.424485e-04 2.214961e-05 0.000000e+00 0.000000e+00 0.000000e+00 0.000000e+00 -7.937659e-05 -1.318500e-04 0.000000e+00 -1.318500e-04 5.216235e-04 0.000000e+00 0.000000e+00 0.000000e+00 0.000000e+00 -2.852166e-05 1.749211e-04 0.000000e+00 1.749211e-04 4.348888e-04 0.000000e+00 0.000000e+00 0.000000e+00 0.000000e+00 1.852898e-04 -2.297280e-04 0.000000e+00 -2.297280e-04 -1.828317e-04 0.000000e+00 0.000000e+00 0.000000e+00 0.000000e+00 1.350058e-05 2.509033e-04 0.000000e+00 2.509033e-04 2.145309e-04 0.000000e+00 0.000000e+00 0.000000e+00 0.000000e+00 1.660687e-04 -3.375541e-04 0.000000e+00 -3.375541e-04 3.083017e-04 0.000000e+00 0.000000e+00 0.000000e+00 0.000000e+00 1.551722e-04 -2.952853e-04 0.000000e+00 -2.952853e-04 3.143217e-04 0.000000e+00 0.000000e+00 0.000000e+00 0.000000e+00 2.993642e-05 -3.567310e-04 0.000000e+00 -3.567310e-04 2.121072e-04 0.000000e+00 0.000000e+00 0.000000e+00 0.000000e+00 -6.868718e-05 -1.960836e-05 0.000000e+00 -1.960836e-05 5.821399e-04 0.000000e+00 0.000000e+00 0.000000e+00 0.000000e+00 7.081349e-05 -3.202365e-04 0.000000e+00 -3.202365e-04 6.227827e-05 0.000000e+00 0.000000e+00 0.000000e+00 0.000000e+00 1.990138e-04 -2.864202e-04 0.000000e+00 -2.864202e-04 8.461637e-05 0.000000e+00 0.000000e+00 0.000000e+00 0.000000e+00 3.210373e-04 -2.867251e-04 0.000000e+00 -2.867251e-04 4.520340e-05 0.000000e+00 0.000000e+00 0.000000e+00 0.000000e+00 8.693812e-05 -1.762446e-04 0.000000e+00 -1.762446e-04 7.055696e-04 0.000000e+00 0.000000e+00 0.000000e+00 0.000000e+00 -8.015174e-05 -1.273301e-04 0.000000e+00 -1.273301e-04 6.611267e-04 0.000000e+00 0.000000e+00 0.000000e+00 0.000000e+00 8.212865e-07 -2.449288e-04 0.000000e+00 -2.449288e-04 3.747205e-04 0.000000e+00 0.000000e+00 0.000000e+00 0.000000e+00 2.074007e-04 -2.931579e-04 0.000000e+00 -2.931579e-04 -8.718425e-05 0.000000e+00 0.000000e+00 0.000000e+00 0.000000e+00 2.721560e-04 -2.754929e-04 0.000000e+00 -2.754929e-04 4.265918e-05 0.000000e+00 0.000000e+00 0.000000e+00 0.000000e+00 4.606464e-05 -3.043490e-04 0.000000e+00 -3.043490e-04 1.739747e-04 0.000000e+00 0.000000e+00 0.000000e+00 0.000000e+00 -3.218777e-05 -2.817462e-04 0.000000e+00 -2.817462e-04 4.185225e-04 0.000000e+00 0.000000e+00 0.000000e+00 0.000000e+00 1.010809e-04 -3.717422e-04 0.000000e+00 -3.717422e-04 1.405945e-04 0.000000e+00 0.000000e+00 0.000000e+00 0.000000e+00 -4.964599e-08 -2.471969e-04 0.000000e+00 -2.471969e-04 5.284882e-04 0.000000e+00 0.000000e+00 0.000000e+00 0.000000e+00 7.448102e-05 -3.572800e-04 0.000000e+00 -3.572800e-04 2.628708e-04 0.000000e+00 0.000000e+00 0.000000e+00 0.000000e+00 1.988696e-04 -1.647039e-04 0.000000e+00 -1.647039e-04 -2.748441e-04 0.000000e+00 0.000000e+00 0.000000e+00 0.000000e+00 1.338740e-04 -3.100989e-04 0.000000e+00 -3.100989e-04 4.720449e-06 0.000000e+00 0.000000e+00 0.000000e+00 0.000000e+00 -9.789557e-05 6.286373e-05 0.000000e+00 6.286373e-05 5.806710e-04 0.000000e+00 0.000000e+00 0.000000e+00 0.000000e+00   </DataArray>
  <DataArray type="Float64" Name="IST_PrincStressVector1" NumberOfComponents="3" format="ascii">9.983816e-01 -5.686924e-02 0.000000e+00 9.996477e-01 -2.654215e-02 0.000000e+00 9.997867e-01 -2.065471e-02 0.000000e+00 9.998007e-01 -1.996563e-02 0.000000e+00 9.997700e-01 -2.144411e-02 0.000000e+00 9.997174e-01 -2.377020e-02 0.000000e+00 9.997099e-01 -2.408457e-02 0.000000e+00 9.996441e-01 -2.667877e-02 0.000000e+00 9.995625e-01 -2.957646e-02 0.000000e+00 9.994552e-01 -3.300507e-02 0.000000e+00 9.993027e-01 -3.733678e-02 0.000000e+00 9.992348e-01 -3.911283e-02 0.000000e+00 9.990503e-01 -4.357133e-02 0.000000e+00 9.988706e-01 -4.751309e-02 0.000000e+00 9.987259e-01 -5.046359e-02 0.000000e+00 9.983131e-01 -5.805958e-02 0.000000e+00 9.977150e-01 -6.756353e-02 0.000000e+00 9.971408e-01 -7.556570e-02 0.000000e+00 9.968785e-01 -7.895157e-02 0.000000e+00 9.944634e-01 -1.050831e-01 0.000000e+00 9.909720e-01 -1.340693e-01 0.000000e+00 9.852330e-01 -1.712191e-01 0.000000e+00 9.654672e-01 -2.605246e-01 0.000000e+00 9.002880e-01 -4.352948e-01 0.000000e+00 6.911815e-01 -7.226812e-01 0.000000e+00 9.985825e-01 5.322665e-02 0.000000e+00 9.978205e-01 6.598702e-02 0.000000e+00 9.934847e-01 1.139659e-01 0.000000e+00 9.594375e-01 2.819215e-01 0.000000e+00 9.578633e-01 2.872243e-01 0.000000e+00 9.327660e-01 3.604824e-01 0.000000e+00 9.731838e-01 2.300290e-01 0.000000e+00 9.186342e-01 3.951090e-01 0.000000e+00 2.247741e-01 9.744109e-01 0.000000e+00 1.804105e-01 -9.835914e-01 0.000000e+00 7.177168e-01 -6.963351e-01 0.000000e+00 9.661163e-01 -2.581073e-01 0.000000e+00 9.910846e-01 1.332343e-01 0.000000e+00 6.347443e-01 7.727223e-01 0.000000e+00 9.813797e-02 9.951728e-01 0.000000e+00 2.435268e-01 -9.698942e-01 0.000000e+00 5.867605e-01 -8.097605e-01 0.000000e+00 6.345193e-01 -7.729071e-01 0.000000e+00 8.742268e-01 -4.855177e-01 0.000000e+00 9.825294e-01 -1.861074e-01 0.000000e+00 9.995927e-01 2.853931e-02 0.000000e+00 5.850730e-01 8.109807e-01 0.000000e+00 2.219338e-01 9.750617e-01 0.000000e+00 1.132571e-01 9.935657e-01 0.000000e+00 4.027245e-02 9.991887e-01 0.000000e+00 1.115358e-01 -9.937604e-01 0.000000e+00 3.247429e-01 -9.458023e-01 0.000000e+00 6.727030e-01 -7.399127e-01 0.000000e+00 4.134095e-01 -9.105452e-01 0.000000e+00 7.223933e-01 -6.914824e-01 0.000000e+00 9.304694e-01 -3.663696e-01 0.000000e+00 8.852763e-01 4.650655e-01 0.000000e+00 9.733048e-01 2.295163e-01 0.000000e+00 9.974414e-01 -7.148819e-02 0.000000e+00 9.178465e-01 -3.969356e-01 0.000000e+00 5.370639e-01 -8.435415e-01 0.000000e+00 1.843407e-01 9.828624e-01 0.000000e+00 4.585876e-01 8.886492e-01 0.000000e+00 5.959946e-01 8.029884e-01 0.000000e+00 6.657910e-01 7.461383e-01 0.000000e+00 7.438104e-01 6.683907e-01 0.000000e+00 7.804970e-01 6.251596e-01 0.000000e+00 7.991154e-01 6.011776e-01 0.000000e+00 7.994032e-01 6.007950e-01 0.000000e+00 7.775888e-01 6.287732e-01 0.000000e+00 7.370692e-01 6.758173e-01 0.000000e+00 6.913589e-01 7.225115e-01 0.000000e+00 6.823631e-01 7.310134e-01 0.000000e+00 7.064618e-01 7.077511e-01 0.000000e+00 7.506546e-01 6.606948e-01 0.000000e+00 7.993542e-01 6.008601e-01 0.000000e+00 8.463247e-01 5.326673e-01 0.000000e+00 9.023661e-01 4.309703e-01 0.000000e+00 9.542769e-01 2.989239e-01 0.000000e+00 9.912802e-01 1.317707e-01 0.000000e+00 9.861306e-01 1.659714e-01 0.000000e+00 7.856732e-01 6.186417e-01 0.000000e+00 7.447922e-01 6.672965e-01 0.000000e+00 8.026593e-01 5.964378e-01 0.000000e+00 8.336734e-01 -5.522577e-01 0.000000e+00 9.986091e-01 -5.272538e-02 0.000000e+00 9.993375e-01 -3.639375e-02 0.000000e+00 9.996913e-01 -2.484729e-02 0.000000e+00 9.999459e-01 -1.040420e-02 0.000000e+00 9.997522e-01 -2.226006e-02 0.000000e+00 9.999990e-01 -1.389600e-03 0.000000e+00 9.997924e-01 -2.037777e-02 0.000000e+00 9.997913e-01 -2.042894e-02 0.000000e+00 9.997241e-01 -2.349066e-02 0.000000e+00 1.000000e+00 1.844331e-04 0.000000e+00 9.999996e-01 -9.471603e-04 0.000000e+00 9.997182e-01 -2.373793e-02 0.000000e+00 9.996852e-01 -2.509079e-02 0.000000e+00 9.995989e-01 -2.832147e-02 0.000000e+00 9.994976e-01 -3.169377e-02 0.000000e+00 9.999662e-01 -8.220426e-03 0.000000e+00 9.999449e-01 -1.050124e-02 0.000000e+00 9.993793e-01 -3.522820e-02 0.000000e+00 9.992742e-01 -3.809421e-02 0.000000e+00 9.991584e-01 -4.101706e-02 0.000000e+00 9.998616e-01 -1.663707e-02 0.000000e+00 9.998374e-01 -1.803467e-02 0.000000e+00 9.989741e-01 -4.528592e-02 0.000000e+00 9.988199e-01 -4.856806e-02 0.000000e+00 9.985383e-01 -5.404928e-02 0.000000e+00 9.996878e-01 -2.498656e-02 0.000000e+00 9.996939e-01 -2.474263e-02 0.000000e+00 9.980310e-01 -6.272228e-02 0.000000e+00 9.995129e-01 -3.120874e-02 0.000000e+00 9.974253e-01 -7.171297e-02 0.000000e+00 9.969546e-01 -7.798429e-02 0.000000e+00 9.963720e-01 -8.510438e-02 0.000000e+00 9.991135e-01 -4.209695e-02 0.000000e+00 9.988307e-01 -4.834509e-02 0.000000e+00 9.929514e-01 -1.185222e-01 0.000000e+00 9.884712e-01 -1.514089e-01 0.000000e+00 9.792672e-01 -2.025728e-01 0.000000e+00 9.401396e-01 -3.407895e-01 0.000000e+00 9.675048e-01 -2.528526e-01 0.000000e+00 9.016522e-01 -4.324618e-01 0.000000e+00 8.300297e-01 -5.577192e-01 0.000000e+00 9.997198e-01 2.367257e-02 0.000000e+00 9.999767e-01 6.832655e-03 0.000000e+00 9.987870e-01 4.923978e-02 0.000000e+00 9.962111e-01 8.696857e-02 0.000000e+00 9.866974e-01 1.625677e-01 0.000000e+00 9.333632e-01 3.589335e-01 0.000000e+00 9.561004e-01 2.930393e-01 0.000000e+00 9.193778e-01 3.933758e-01 0.000000e+00 9.700392e-01 2.429485e-01 0.000000e+00 6.012711e-01 7.990451e-01 0.000000e+00 6.695043e-01 7.428082e-01 0.000000e+00 2.078853e-01 -9.781532e-01 0.000000e+00 4.197792e-03 9.999912e-01 0.000000e+00 3.904318e-01 -9.206319e-01 0.000000e+00 9.538703e-01 -3.002192e-01 0.000000e+00 9.988038e-01 -4.889779e-02 0.000000e+00 9.997917e-01 -2.041147e-02 0.000000e+00 9.377503e-01 3.473101e-01 0.000000e+00 2.687795e-01 9.632017e-01 0.000000e+00 3.951621e-02 -9.992189e-01 0.000000e+00 2.292888e-01 9.733584e-01 0.000000e+00 1.556670e-01 9.878096e-01 0.000000e+00 8.253947e-01 -5.645562e-01 0.000000e+00 5.843280e-01 8.115176e-01 0.000000e+00 9.346237e-01 3.556382e-01 0.000000e+00 4.114935e-01 9.114127e-01 0.000000e+00 3.394335e-01 9.406300e-01 0.000000e+00 1.714776e-01 9.851880e-01 0.000000e+00 7.574545e-02 9.971272e-01 0.000000e+00 1.631000e-01 -9.866095e-01 0.000000e+00 2.026266e-02 -9.997947e-01 0.000000e+00 2.414686e-01 -9.704086e-01 0.000000e+00 9.602629e-01 2.790972e-01 0.000000e+00 8.605792e-01 5.093167e-01 0.000000e+00 9.985058e-01 -5.464526e-02 0.000000e+00 9.137548e-01 -4.062661e-01 0.000000e+00 6.973594e-01 -7.167216e-01 0.000000e+00 2.181234e-01 -9.759212e-01 0.000000e+00 2.658528e-01 9.640136e-01 0.000000e+00 4.940288e-01 8.694455e-01 0.000000e+00 6.378663e-01 7.701471e-01 0.000000e+00 7.174271e-01 6.966336e-01 0.000000e+00 7.694500e-01 6.387071e-01 0.000000e+00 7.916180e-01 6.110163e-01 0.000000e+00 7.932359e-01 6.089145e-01 0.000000e+00 7.775146e-01 6.288649e-01 0.000000e+00 7.489954e-01 6.625752e-01 0.000000e+00 7.130907e-01 7.010718e-01 0.000000e+00 6.933233e-01 7.206267e-01 0.000000e+00 7.006547e-01 7.135005e-01 0.000000e+00 7.277959e-01 6.857938e-01 0.000000e+00 7.674546e-01 6.411033e-01 0.000000e+00 8.145375e-01 5.801110e-01 0.000000e+00 8.762406e-01 4.818739e-01 0.000000e+00 9.390950e-01 3.436577e-01 0.000000e+00 9.850953e-01 1.720095e-01 0.000000e+00 9.996196e-01 -2.757894e-02 0.000000e+00 9.996777e-01 2.538661e-02 0.000000e+00 7.721709e-01 6.354149e-01 0.000000e+00 7.675274e-01 6.410161e-01 0.000000e+00 7.319437e-02 9.973177e-01 0.000000e+00 9.999889e-01 -4.703463e-03 0.000000e+00 9.999997e-01 7.391900e-04 0.000000e+00 9.999995e-01 9.653784e-04 0.000000e+00 9.999939e-01 -3.484457e-03 0.000000e+00 9.999985e-01 -1.712272e-03 0.000000e+00 9.999908e-01 -4.287576e-03 0.000000e+00 9.999834e-01 -5.757344e-03 0.000000e+00 9.999330e-01 -1.157443e-02 0.000000e+00 9.999474e-01 -1.025686e-02 0.000000e+00 9.998941e-01 -1.454979e-02 0.000000e+00 9.998091e-01 -1.954002e-02 0.000000e+00 9.998153e-01 -1.921697e-02 0.000000e+00 9.997842e-01 -2.077520e-02 0.000000e+00 9.996458e-01 -2.661244e-02 0.000000e+00 9.993445e-01 -3.620206e-02 0.000000e+00 9.994149e-01 -3.420222e-02 0.000000e+00 9.977524e-01 -6.700917e-02 0.000000e+00 9.983162e-01 -5.800734e-02 0.000000e+00 9.969865e-01 -7.757493e-02 0.000000e+00 9.940193e-01 -1.092049e-01 0.000000e+00 3.706885e-01 -9.287573e-01 0.000000e+00 6.946444e-01 -7.193533e-01 0.000000e+00 9.985768e-01 5.333320e-02 0.000000e+00 9.969750e-01 7.772314e-02 0.000000e+00 9.918985e-01 1.270329e-01 0.000000e+00 9.711333e-01 2.385373e-01 0.000000e+00 9.352709e-01 3.539326e-01 0.000000e+00 5.099855e-02 -9.986987e-01 0.000000e+00 3.837965e-01 -9.234177e-01 0.000000e+00 9.643534e-01 2.646178e-01 0.000000e+00 7.071698e-01 7.070438e-01 0.000000e+00 3.378038e-03 -9.999943e-01 0.000000e+00 3.405956e-01 9.402099e-01 0.000000e+00 1.226689e-01 9.924477e-01 0.000000e+00 2.705977e-03 -9.999963e-01 0.000000e+00 9.657561e-01 -2.594517e-01 0.000000e+00 9.999741e-01 -7.195881e-03 0.000000e+00 9.865750e-01 -1.633091e-01 0.000000e+00 9.952241e-01 9.761640e-02 0.000000e+00 9.860286e-01 1.665763e-01 0.000000e+00 3.683043e-01 -9.297053e-01 0.000000e+00 1.000000e+00 2.461371e-04 0.000000e+00 9.999990e-01 1.448996e-03 0.000000e+00 9.999935e-01 -3.598225e-03 0.000000e+00 9.998723e-01 -1.598291e-02 0.000000e+00 9.997097e-01 -2.409587e-02 0.000000e+00 9.993999e-01 -3.463881e-02 0.000000e+00 9.993030e-01 -3.733034e-02 0.000000e+00 9.966249e-01 -8.208991e-02 0.000000e+00 9.978519e-01 6.550951e-02 0.000000e+00 9.648257e-01 2.628905e-01 0.000000e+00 3.356816e-01 9.419755e-01 0.000000e+00 8.563318e-01 5.164261e-01 0.000000e+00 2.815112e-01 9.595579e-01 0.000000e+00 7.066020e-02 9.975004e-01 0.000000e+00 9.992193e-01 -3.950759e-02 0.000000e+00 9.991766e-01 -4.057158e-02 0.000000e+00 9.983114e-01 -5.808933e-02 0.000000e+00 9.986401e-01 -5.213480e-02 0.000000e+00 9.991962e-01 -4.008610e-02 0.000000e+00 9.998732e-01 -1.592629e-02 0.000000e+00 9.985216e-01 -5.435644e-02 0.000000e+00 9.994905e-01 -3.191706e-02 0.000000e+00 9.994012e-01 -3.460259e-02 0.000000e+00 9.986636e-01 -5.168272e-02 0.000000e+00 9.995652e-01 -2.948745e-02 0.000000e+00 9.956447e-01 -9.322923e-02 0.000000e+00 9.961358e-01 -8.782631e-02 0.000000e+00 8.954135e-01 -4.452355e-01 0.000000e+00 9.958541e-01 -9.096512e-02 0.000000e+00 9.980090e-01 -6.307213e-02 0.000000e+00 9.976094e-01 -6.910525e-02 0.000000e+00 9.966270e-01 -8.206490e-02 0.000000e+00 9.981754e-01 -6.038023e-02 0.000000e+00 9.930549e-01 -1.176518e-01 0.000000e+00 9.925726e-01 -1.216537e-01 0.000000e+00 9.927902e-01 -1.198653e-01 0.000000e+00 9.956982e-01 -9.265620e-02 0.000000e+00 9.957632e-01 -9.195505e-02 0.000000e+00 9.937417e-01 -1.117026e-01 0.000000e+00 9.961827e-01 -8.729294e-02 0.000000e+00 9.884782e-01 -1.513630e-01 0.000000e+00 9.799308e-01 -1.993381e-01 0.000000e+00 9.846467e-01 -1.745590e-01 0.000000e+00 9.804071e-01 -1.969822e-01 0.000000e+00 9.880800e-01 -1.539415e-01 0.000000e+00 9.301272e-01 -3.672374e-01 0.000000e+00 9.527048e-01 -3.038973e-01 0.000000e+00 9.822104e-01 -1.877838e-01 0.000000e+00 9.887501e-01 -1.495768e-01 0.000000e+00 9.878845e-01 -1.551912e-01 0.000000e+00 9.408687e-01 -3.387715e-01 0.000000e+00 9.555913e-01 -2.946951e-01 0.000000e+00 9.471390e-01 -3.208236e-01 0.000000e+00 9.639265e-01 -2.661685e-01 0.000000e+00 9.650330e-01 -2.621284e-01 0.000000e+00 9.189724e-01 -3.943219e-01 0.000000e+00 9.428128e-01 -3.333228e-01 0.000000e+00 8.780573e-01 -4.785556e-01 0.000000e+00 9.814116e-01 1.919148e-01 0.000000e+00 4.443670e-01 -8.958448e-01 0.000000e+00 9.764037e-01 2.159534e-01 0.000000e+00 9.767447e-01 2.144058e-01 0.000000e+00 9.836234e-01 1.802360e-01 0.000000e+00 9.598707e-01 2.804431e-01 0.000000e+00 9.787594e-01 2.050122e-01 0.000000e+00 6.561771e-01 -7.546069e-01 0.000000e+00 2.532836e-01 -9.673921e-01 0.000000e+00 9.799569e-01 1.992098e-01 0.000000e+00 9.798261e-01 1.998519e-01 0.000000e+00 9.985943e-01 -5.300447e-02 0.000000e+00 8.606159e-01 5.092546e-01 0.000000e+00 9.606311e-01 2.778269e-01 0.000000e+00 8.910678e-01 4.538703e-01 0.000000e+00 8.902648e-01 4.554432e-01 0.000000e+00 3.830499e-01 -9.237276e-01 0.000000e+00 9.654766e-01 2.604896e-01 0.000000e+00 7.841473e-01 6.205748e-01 0.000000e+00 4.605095e-01 8.876548e-01 0.000000e+00 9.537748e-01 3.005223e-01 0.000000e+00 2.268474e-01 -9.739303e-01 0.000000e+00 5.386568e-01 -8.425253e-01 0.000000e+00 6.449103e-01 -7.642583e-01 0.000000e+00 9.989622e-01 -4.554768e-02 0.000000e+00 9.337092e-01 -3.580324e-01 0.000000e+00 9.997931e-01 -2.034159e-02 0.000000e+00 9.443171e-01 -3.290369e-01 0.000000e+00 9.732772e-01 2.296335e-01 0.000000e+00 4.808266e-01 8.768157e-01 0.000000e+00 5.707967e-03 -9.999837e-01 0.000000e+00 7.410002e-01 6.715048e-01 0.000000e+00 9.930105e-01 1.180261e-01 0.000000e+00 8.168260e-01 5.768841e-01 0.000000e+00 5.740502e-01 8.188201e-01 0.000000e+00 3.976196e-01 9.175504e-01 0.000000e+00 5.887020e-01 -8.083501e-01 0.000000e+00 9.605439e-01 -2.781284e-01 0.000000e+00 9.907108e-01 -1.359854e-01 0.000000e+00 2.301631e-01 9.731521e-01 0.000000e+00 1.944689e-01 -9.809087e-01 0.000000e+00 7.011648e-01 7.129992e-01 0.000000e+00 5.962622e-01 8.027897e-01 0.000000e+00 3.189979e-01 9.477554e-01 0.000000e+00 4.412392e-01 8.973895e-01 0.000000e+00 3.685637e-01 9.296025e-01 0.000000e+00 3.996328e-01 -9.166753e-01 0.000000e+00 8.805954e-01 -4.738690e-01 0.000000e+00 6.046851e-01 -7.964647e-01 0.000000e+00 9.036676e-01 -4.282347e-01 0.000000e+00 9.991801e-01 -4.048562e-02 0.000000e+00 9.997577e-01 -2.201066e-02 0.000000e+00 9.998751e-01 -1.580275e-02 0.000000e+00 9.866471e-01 -1.628724e-01 0.000000e+00 9.922132e-01 -1.245510e-01 0.000000e+00 9.904957e-01 -1.375440e-01 0.000000e+00 1.036770e-01 9.946110e-01 0.000000e+00 8.832140e-01 4.689702e-01 0.000000e+00 7.021189e-01 7.120597e-01 0.000000e+00 6.460383e-01 7.633050e-01 0.000000e+00 9.915380e-01 -1.298164e-01 0.000000e+00 9.220296e-01 3.871193e-01 0.000000e+00 9.978908e-01 -6.491502e-02 0.000000e+00 9.594873e-01 -2.817520e-01 0.000000e+00 7.999355e-01 -6.000860e-01 0.000000e+00 1.219725e-01 -9.925335e-01 0.000000e+00 4.590250e-01 8.884234e-01 0.000000e+00 7.000897e-01 7.140549e-01 0.000000e+00 7.483188e-01 6.633393e-01 0.000000e+00 7.835539e-01 6.213238e-01 0.000000e+00 8.141763e-01 5.806177e-01 0.000000e+00 7.548974e-01 6.558430e-01 0.000000e+00 6.653164e-01 7.465615e-01 0.000000e+00 6.658788e-01 7.460599e-01 0.000000e+00 6.951827e-01 7.188331e-01 0.000000e+00 7.349221e-01 6.781515e-01 0.000000e+00 8.375504e-01 5.463600e-01 0.000000e+00 8.977775e-01 4.404493e-01 0.000000e+00 9.498706e-01 3.126434e-01 0.000000e+00 8.517490e-01 5.239501e-01 0.000000e+00 7.255138e-01 6.882076e-01 0.000000e+00 9.599501e-01 2.801711e-01 0.000000e+00 9.151231e-01 4.031745e-01 0.000000e+00 9.572466e-01 2.892732e-01 0.000000e+00 7.853383e-01 -6.190668e-01 0.000000e+00 9.454123e-01 -3.258766e-01 0.000000e+00 7.737290e-01 6.335168e-01 0.000000e+00 9.966821e-01 -8.139304e-02 0.000000e+00 8.539170e-01 5.204093e-01 0.000000e+00 9.998740e-01 -1.587136e-02 0.000000e+00 9.989149e-01 -4.657234e-02 0.000000e+00 9.973505e-01 -7.274644e-02 0.000000e+00 9.950756e-01 -9.911874e-02 0.000000e+00 9.980580e-01 -6.229194e-02 0.000000e+00 7.949264e-01 -6.067059e-01 0.000000e+00 9.949552e-01 -1.003201e-01 0.000000e+00 9.916062e-01 -1.292948e-01 0.000000e+00 9.993727e-01 -3.541350e-02 0.000000e+00 9.875473e-01 -1.573224e-01 0.000000e+00 9.795747e-01 -2.010807e-01 0.000000e+00 3.086087e-01 9.511891e-01 0.000000e+00 9.829253e-01 1.840049e-01 0.000000e+00 1.352321e-02 9.999086e-01 0.000000e+00 9.753350e-01 2.207299e-01 0.000000e+00 9.700581e-01 2.428728e-01 0.000000e+00 8.996371e-01 4.366384e-01 0.000000e+00 7.975994e-01 -6.031875e-01 0.000000e+00 8.427137e-01 -5.383620e-01 0.000000e+00 9.705392e-01 2.409432e-01 0.000000e+00 9.224270e-01 3.861716e-01 0.000000e+00 2.817729e-01 9.594811e-01 0.000000e+00 1.219026e-01 9.925421e-01 0.000000e+00 9.587746e-01 2.841676e-01 0.000000e+00 9.430353e-01 3.326927e-01 0.000000e+00 7.730077e-01 6.343966e-01 0.000000e+00 5.483541e-01 8.362463e-01 0.000000e+00 1.759945e-01 9.843912e-01 0.000000e+00 2.877713e-02 -9.995859e-01 0.000000e+00 6.696092e-01 -7.427136e-01 0.000000e+00 9.736242e-01 -2.281576e-01 0.000000e+00 9.230409e-01 -3.847018e-01 0.000000e+00 5.107036e-01 8.597568e-01 0.000000e+00 9.990930e-01 -4.258202e-02 0.000000e+00 2.654420e-01 -9.641268e-01 0.000000e+00 7.616532e-01 6.479849e-01 0.000000e+00 9.998289e-01 -1.849804e-02 0.000000e+00 8.695124e-01 -4.939111e-01 0.000000e+00 9.997833e-01 -2.081734e-02 0.000000e+00 5.396894e-01 -8.418642e-01 0.000000e+00 7.411273e-01 -6.713645e-01 0.000000e+00 9.879273e-01 -1.549180e-01 0.000000e+00 8.316329e-01 5.553258e-01 0.000000e+00 9.990624e-01 -4.329440e-02 0.000000e+00 9.975799e-01 -6.952966e-02 0.000000e+00 6.952920e-01 7.187274e-01 0.000000e+00 7.533797e-01 6.575857e-01 0.000000e+00 7.293150e-01 6.841781e-01 0.000000e+00 9.913719e-01 1.310792e-01 0.000000e+00 9.733455e-01 2.293435e-01 0.000000e+00 9.436261e-01 3.310132e-01 0.000000e+00 8.776241e-01 4.793496e-01 0.000000e+00 7.446206e-01 6.674879e-01 0.000000e+00 7.800956e-01 6.256603e-01 0.000000e+00 7.035749e-01 7.106212e-01 0.000000e+00 6.691420e-01 7.431345e-01 0.000000e+00 6.807834e-01 7.324848e-01 0.000000e+00 6.724694e-01 7.401250e-01 0.000000e+00 7.215635e-01 6.923483e-01 0.000000e+00 7.012826e-01 7.128834e-01 0.000000e+00 7.925714e-01 6.097792e-01 0.000000e+00 7.953704e-01 6.061237e-01 0.000000e+00 8.097664e-01 5.867524e-01 0.000000e+00 8.084661e-01 5.885428e-01 0.000000e+00 7.848428e-01 6.196949e-01 0.000000e+00 7.230827e-01 6.907615e-01 0.000000e+00 4.481162e-01 8.939753e-01 0.000000e+00 6.290452e-01 7.773687e-01 0.000000e+00 5.987886e-01 8.009072e-01 0.000000e+00 2.277766e-02 -9.997406e-01 0.000000e+00 8.018325e-01 -5.975488e-01 0.000000e+00 6.922512e-01 -7.216567e-01 0.000000e+00 9.923261e-01 1.236483e-01 0.000000e+00 9.990535e-01 -4.349817e-02 0.000000e+00 6.373658e-01 7.705614e-01 0.000000e+00 8.103377e-01 5.859631e-01 0.000000e+00 7.615146e-01 6.481477e-01 0.000000e+00 6.872546e-01 7.264166e-01 0.000000e+00 8.033228e-01 5.955438e-01 0.000000e+00 9.990674e-01 -4.317795e-02 0.000000e+00 9.968204e-01 7.968063e-02 0.000000e+00 9.984183e-01 -5.622161e-02 0.000000e+00 9.991360e-01 -4.156032e-02 0.000000e+00 9.995854e-01 -2.879277e-02 0.000000e+00 9.987395e-01 -5.019351e-02 0.000000e+00 9.997242e-01 -2.348352e-02 0.000000e+00 9.996489e-01 -2.649562e-02 0.000000e+00 9.971515e-01 -7.542428e-02 0.000000e+00 9.986707e-01 -5.154406e-02 0.000000e+00 9.983825e-01 -5.685483e-02 0.000000e+00 9.943651e-01 -1.060093e-01 0.000000e+00 9.967749e-01 -8.024802e-02 0.000000e+00 9.964281e-01 -8.444544e-02 0.000000e+00 9.903323e-01 -1.387154e-01 0.000000e+00 9.940929e-01 -1.085327e-01 0.000000e+00 9.933391e-01 -1.152274e-01 0.000000e+00 9.749278e-01 -2.225216e-01 0.000000e+00 9.805669e-01 -1.961848e-01 0.000000e+00 9.734921e-01 -2.287207e-01 0.000000e+00 7.703012e-01 -6.376802e-01 0.000000e+00 6.675697e-01 -7.445473e-01 0.000000e+00 4.786639e-01 -8.779982e-01 0.000000e+00 6.032454e-01 7.975556e-01 0.000000e+00 6.479813e-01 7.616562e-01 0.000000e+00 3.749404e-02 -9.992969e-01 0.000000e+00 9.817262e-01 -1.902990e-01 0.000000e+00 9.997586e-01 -2.197224e-02 0.000000e+00 9.716236e-01 -2.365323e-01 0.000000e+00 3.122305e-01 9.500064e-01 0.000000e+00 1.618321e-01 9.868183e-01 0.000000e+00 7.806553e-01 6.249618e-01 0.000000e+00 8.167286e-01 -5.770220e-01 0.000000e+00 9.740240e-01 -2.264448e-01 0.000000e+00 9.492151e-01 -3.146278e-01 0.000000e+00 9.326902e-01 -3.606785e-01 0.000000e+00 9.483302e-01 -3.172850e-01 0.000000e+00 9.712859e-01 -2.379152e-01 0.000000e+00 9.854078e-01 -1.702103e-01 0.000000e+00 7.974804e-01 6.033448e-01 0.000000e+00 9.984177e-01 -5.623328e-02 0.000000e+00 9.902609e-01 -1.392238e-01 0.000000e+00 7.957797e-01 -6.055862e-01 0.000000e+00 9.083472e-01 -4.182169e-01 0.000000e+00 9.820738e-01 -1.884967e-01 0.000000e+00 1.235634e-01 9.923367e-01 0.000000e+00 9.439856e-01 -3.299866e-01 0.000000e+00 9.486676e-01 3.162749e-01 0.000000e+00 9.946689e-01 -1.031203e-01 0.000000e+00 9.383473e-01 3.456940e-01 0.000000e+00 9.456518e-01 3.251808e-01 0.000000e+00 8.894033e-01 4.571233e-01 0.000000e+00 9.538309e-01 3.003441e-01 0.000000e+00 1.451110e-01 9.894154e-01 0.000000e+00 9.548410e-01 2.971174e-01 0.000000e+00 9.504629e-01 3.108381e-01 0.000000e+00 9.500528e-01 3.120892e-01 0.000000e+00 9.150347e-01 4.033752e-01 0.000000e+00 9.331270e-01 3.595468e-01 0.000000e+00 2.958900e-01 -9.552220e-01 0.000000e+00 9.442169e-03 -9.999554e-01 0.000000e+00 9.519874e-01 3.061372e-01 0.000000e+00 9.509107e-01 3.094655e-01 0.000000e+00 7.998576e-01 6.001898e-01 0.000000e+00 5.882031e-01 8.087133e-01 0.000000e+00 2.115607e-01 -9.773649e-01 0.000000e+00 6.198236e-01 7.847412e-01 0.000000e+00 2.807414e-01 9.597834e-01 0.000000e+00 8.727994e-01 -4.880791e-01 0.000000e+00 2.807377e-01 9.597845e-01 0.000000e+00 9.976587e-01 -6.838886e-02 0.000000e+00 5.538548e-01 8.326133e-01 0.000000e+00 9.596606e-01 -2.811612e-01 0.000000e+00 9.965026e-01 -8.356235e-02 0.000000e+00 5.532434e-01 -8.330196e-01 0.000000e+00 9.971193e-01 7.584894e-02 0.000000e+00 4.102946e-01 -9.119531e-01 0.000000e+00 8.351403e-01 5.500370e-01 0.000000e+00 8.405776e-01 5.416911e-01 0.000000e+00 8.180800e-01 5.751044e-01 0.000000e+00 8.980470e-01 4.398995e-01 0.000000e+00 8.598180e-01 5.106006e-01 0.000000e+00 8.956562e-01 4.447471e-01 0.000000e+00 5.555698e-01 -8.314699e-01 0.000000e+00 7.555800e-01 6.550564e-01 0.000000e+00 6.595283e-01 7.516798e-01 0.000000e+00 7.789925e-01 6.270333e-01 0.000000e+00 6.361467e-01 -7.715682e-01 0.000000e+00 8.326486e-01 -5.538017e-01 0.000000e+00 9.256544e-01 -3.783702e-01 0.000000e+00 6.993272e-01 -7.148017e-01 0.000000e+00 6.551140e-01 -7.555301e-01 0.000000e+00 7.601667e-01 -6.497281e-01 0.000000e+00 8.339501e-01 5.518398e-01 0.000000e+00 8.186734e-01 5.742595e-01 0.000000e+00 7.169694e-01 6.971047e-01 0.000000e+00 7.338613e-01 6.792994e-01 0.000000e+00 6.876461e-01 7.260460e-01 0.000000e+00 6.290607e-01 7.773562e-01 0.000000e+00 6.375418e-01 7.704158e-01 0.000000e+00 6.376050e-01 7.703635e-01 0.000000e+00 6.365461e-01 7.712386e-01 0.000000e+00 7.057182e-01 7.084926e-01 0.000000e+00 8.249338e-01 5.652294e-01 0.000000e+00 8.883192e-01 4.592264e-01 0.000000e+00 6.068515e-01 -7.948152e-01 0.000000e+00 9.699264e-01 -2.433983e-01 0.000000e+00 7.070173e-01 7.071963e-01 0.000000e+00 9.404004e-01 -3.400692e-01 0.000000e+00 3.894892e-01 -9.210311e-01 0.000000e+00 3.881000e-01 -9.216173e-01 0.000000e+00 5.520717e-01 -8.337966e-01 0.000000e+00 9.995242e-01 -3.084473e-02 0.000000e+00 9.983111e-01 -5.809516e-02 0.000000e+00 9.709629e-01 -2.392301e-01 0.000000e+00 9.920185e-01 -1.260922e-01 0.000000e+00 9.937213e-01 -1.118836e-01 0.000000e+00 9.957577e-01 -9.201360e-02 0.000000e+00 9.971819e-01 -7.502148e-02 0.000000e+00 9.883382e-01 -1.522749e-01 0.000000e+00 9.506176e-01 -3.103645e-01 0.000000e+00 9.593903e-01 -2.820821e-01 0.000000e+00 9.334545e-01 -3.586957e-01 0.000000e+00 9.070228e-01 -4.210816e-01 0.000000e+00 3.576352e-01 9.338614e-01 0.000000e+00 5.328025e-01 -8.462396e-01 0.000000e+00 2.272197e-01 -9.738435e-01 0.000000e+00 9.281168e-01 3.722891e-01 0.000000e+00 8.482283e-01 -5.296307e-01 0.000000e+00 9.804858e-01 -1.965899e-01 0.000000e+00 9.583689e-01 -2.855328e-01 0.000000e+00 9.604504e-01 -2.784513e-01 0.000000e+00 8.788971e-01 4.770115e-01 0.000000e+00 9.893776e-01 -1.453681e-01 0.000000e+00 9.918907e-01 -1.270938e-01 0.000000e+00 8.579730e-01 -5.136947e-01 0.000000e+00 9.500359e-01 3.121407e-01 0.000000e+00 1.069773e-02 9.999428e-01 0.000000e+00 6.683662e-01 7.438324e-01 0.000000e+00 9.994363e-01 -3.357197e-02 0.000000e+00 9.981318e-01 -6.109735e-02 0.000000e+00 7.064647e-01 7.077483e-01 0.000000e+00 8.810388e-01 -4.730440e-01 0.000000e+00 8.783012e-01 -4.781078e-01 0.000000e+00 4.748360e-01 8.800743e-01 0.000000e+00 8.479943e-01 -5.300053e-01 0.000000e+00 5.885009e-01 8.084966e-01 0.000000e+00 9.988698e-01 -4.753060e-02 0.000000e+00 9.969732e-01 -7.774555e-02 0.000000e+00 9.643024e-01 -2.648033e-01 0.000000e+00 9.681250e-01 -2.504674e-01 0.000000e+00 9.814261e-01 1.918407e-01 0.000000e+00 8.210382e-01 5.708732e-01 0.000000e+00 9.483709e-01 -3.171634e-01 0.000000e+00 9.580808e-01 -2.864982e-01 0.000000e+00 9.594972e-01 -2.817183e-01 0.000000e+00 8.682827e-01 -4.960697e-01 0.000000e+00 8.483849e-01 5.293799e-01 0.000000e+00 8.558538e-01 5.172178e-01 0.000000e+00 8.342726e-01 5.513522e-01 0.000000e+00 6.949166e-01 7.190904e-01 0.000000e+00 3.934316e-01 9.193539e-01 0.000000e+00 9.842045e-01 -1.770352e-01 0.000000e+00 9.870072e-01 -1.606762e-01 0.000000e+00 9.680337e-01 -2.508201e-01 0.000000e+00 9.756626e-01 -2.192772e-01 0.000000e+00 9.739054e-01 -2.269541e-01 0.000000e+00 6.547872e-01 7.558133e-01 0.000000e+00 6.041202e-01 7.968932e-01 0.000000e+00 9.981960e-01 -6.003967e-02 0.000000e+00 9.965624e-01 -8.284554e-02 0.000000e+00 9.986551e-01 -5.184528e-02 0.000000e+00 9.942130e-01 -1.074272e-01 0.000000e+00 9.965000e-01 -8.359249e-02 0.000000e+00 9.981912e-01 -6.011927e-02 0.000000e+00 9.983345e-01 -5.769139e-02 0.000000e+00 7.210780e-01 6.928539e-01 0.000000e+00 6.638579e-01 7.478587e-01 0.000000e+00 7.808672e-01 6.246970e-01 0.000000e+00 9.296668e-01 3.684014e-01 0.000000e+00 7.822645e-01 6.229464e-01 0.000000e+00 7.225918e-02 -9.973859e-01 0.000000e+00 1.347979e-01 9.908731e-01 0.000000e+00 1.564625e-01 -9.876839e-01 0.000000e+00 9.991930e-01 -4.016662e-02 0.000000e+00 9.860553e-01 -1.664181e-01 0.000000e+00 9.797457e-01 -2.002456e-01 0.000000e+00 6.875451e-01 -7.261416e-01 0.000000e+00 7.671609e-01 -6.414547e-01 0.000000e+00 7.524278e-01 6.586747e-01 0.000000e+00 7.636967e-01 6.455753e-01 0.000000e+00 9.996471e-01 -2.656514e-02 0.000000e+00 9.993650e-01 -3.563078e-02 0.000000e+00 9.976505e-01 -6.850942e-02 0.000000e+00 6.991807e-01 7.149450e-01 0.000000e+00 6.972265e-01 7.168509e-01 0.000000e+00 9.945608e-01 -1.041579e-01 0.000000e+00 5.945770e-01 8.040387e-01 0.000000e+00 7.644531e-01 -6.446793e-01 0.000000e+00 9.985965e-01 -5.296276e-02 0.000000e+00 9.995978e-01 -2.836057e-02 0.000000e+00 8.837979e-01 4.678689e-01 0.000000e+00 9.616416e-01 2.743090e-01 0.000000e+00 9.809644e-01 -1.941876e-01 0.000000e+00 9.981601e-01 -6.063282e-02 0.000000e+00 9.993131e-01 -3.705715e-02 0.000000e+00 9.993480e-01 -3.610560e-02 0.000000e+00 9.966195e-01 -8.215556e-02 0.000000e+00 9.864879e-01 -1.638341e-01 0.000000e+00 9.804230e-01 -1.969027e-01 0.000000e+00 9.933524e-01 -1.151133e-01 0.000000e+00 9.891792e-01 -1.467121e-01 0.000000e+00 9.966563e-01 -8.170831e-02 0.000000e+00 6.658091e-01 7.461222e-01 0.000000e+00 5.727153e-01 8.197543e-01 0.000000e+00 5.768141e-01 8.168754e-01 0.000000e+00 4.844833e-01 8.748005e-01 0.000000e+00 9.899624e-01 -1.413312e-01 0.000000e+00 2.947126e-01 9.555859e-01 0.000000e+00 9.281045e-01 -3.723198e-01 0.000000e+00 9.560571e-01 -2.931807e-01 0.000000e+00 9.936689e-01 -1.123482e-01 0.000000e+00 9.078840e-01 4.192215e-01 0.000000e+00 9.882954e-01 -1.525522e-01 0.000000e+00 9.965305e-01 -8.322820e-02 0.000000e+00 9.911593e-01 -1.326772e-01 0.000000e+00 9.981913e-01 6.011792e-02 0.000000e+00 9.982587e-01 -5.898712e-02 0.000000e+00 9.967326e-01 -8.077160e-02 0.000000e+00 9.977574e-01 -6.693390e-02 0.000000e+00 9.939544e-01 -1.097935e-01 0.000000e+00 9.988906e-01 -4.709200e-02 0.000000e+00 9.999591e-01 -9.041463e-03 0.000000e+00 9.982129e-01 -5.975761e-02 0.000000e+00 9.998779e-01 1.562564e-02 0.000000e+00 9.864231e-01 -1.642237e-01 0.000000e+00 9.822342e-01 -1.876590e-01 0.000000e+00 9.905777e-01 -1.369517e-01 0.000000e+00 9.996884e-01 -2.496111e-02 0.000000e+00 9.991893e-01 -4.025775e-02 0.000000e+00 9.933944e-01 -1.147496e-01 0.000000e+00 9.962486e-01 -8.653784e-02 0.000000e+00 9.944022e-01 -1.056607e-01 0.000000e+00 9.864161e-01 -1.642661e-01 0.000000e+00 9.899293e-01 -1.415624e-01 0.000000e+00 9.882924e-01 -1.525714e-01 0.000000e+00 8.543918e-01 -5.196293e-01 0.000000e+00 3.073933e-01 9.515826e-01 0.000000e+00 9.902078e-01 -1.396013e-01 0.000000e+00 8.902945e-01 -4.553852e-01 0.000000e+00 9.759533e-01 -2.179796e-01 0.000000e+00 9.796601e-01 -2.006641e-01 0.000000e+00 9.771497e-01 -2.125523e-01 0.000000e+00 8.396694e-01 -5.430979e-01 0.000000e+00 6.738557e-01 -7.388629e-01 0.000000e+00 5.602420e-01 -8.283290e-01 0.000000e+00 4.109139e-01 -9.116742e-01 0.000000e+00 9.094358e-01 4.158444e-01 0.000000e+00 8.943073e-01 4.474532e-01 0.000000e+00 8.754940e-01 -4.832289e-01 0.000000e+00 5.679003e-01 -8.230974e-01 0.000000e+00 9.850880e-01 -1.720511e-01 0.000000e+00 9.994131e-01 -3.425641e-02 0.000000e+00 9.101416e-01 4.142973e-01 0.000000e+00 6.216406e-01 7.833026e-01 0.000000e+00 8.001154e-02 9.967939e-01 0.000000e+00 5.278948e-01 8.493098e-01 0.000000e+00 4.482243e-01 8.939211e-01 0.000000e+00 8.470798e-01 -5.314658e-01 0.000000e+00 8.066612e-01 -5.910142e-01 0.000000e+00 7.348259e-01 -6.782557e-01 0.000000e+00 3.984154e-01 9.172051e-01 0.000000e+00 8.394624e-01 5.434178e-01 0.000000e+00 9.974178e-01 -7.181765e-02 0.000000e+00 6.332832e-01 7.739202e-01 0.000000e+00 9.936332e-01 -1.126638e-01 0.000000e+00 9.999908e-01 -4.286833e-03 0.000000e+00 9.994504e-01 -3.315046e-02 0.000000e+00 8.257270e-01 5.640699e-01 0.000000e+00 4.800375e-01 8.772480e-01 0.000000e+00 8.009864e-01 5.986826e-01 0.000000e+00 9.969060e-01 -7.860270e-02 0.000000e+00 9.458046e-01 3.247363e-01 0.000000e+00 9.958338e-01 -9.118650e-02 0.000000e+00 9.915439e-01 -1.297720e-01 0.000000e+00 6.535247e-01 -7.569052e-01 0.000000e+00 7.315441e-01 -6.817942e-01 0.000000e+00 9.990527e-01 -4.351757e-02 0.000000e+00 7.165764e-01 6.975086e-01 0.000000e+00 9.974698e-01 -7.109202e-02 0.000000e+00 4.101108e-01 9.120357e-01 0.000000e+00 1.707043e-01 9.853223e-01 0.000000e+00 7.947201e-01 6.069761e-01 0.000000e+00 8.025285e-01 5.966138e-01 0.000000e+00 9.911442e-01 -1.327902e-01 0.000000e+00 8.914195e-01 4.531791e-01 0.000000e+00 8.889195e-01 4.580635e-01 0.000000e+00 9.932964e-01 -1.155951e-01 0.000000e+00 6.088572e-01 7.932799e-01 0.000000e+00 9.775679e-01 -2.106204e-01 0.000000e+00 9.993926e-01 -3.484958e-02 0.000000e+00 9.978177e-01 -6.602923e-02 0.000000e+00 5.451352e-01 8.383482e-01 0.000000e+00 5.309183e-01 8.474230e-01 0.000000e+00 9.921067e-01 -1.253965e-01 0.000000e+00 9.882211e-01 -1.530330e-01 0.000000e+00 3.675151e-01 9.300176e-01 0.000000e+00 8.709069e-01 -4.914480e-01 0.000000e+00 8.159711e-01 -5.780927e-01 0.000000e+00 3.501574e-01 9.366909e-01 0.000000e+00 2.676164e-01 9.635255e-01 0.000000e+00 4.283534e-01 9.036113e-01 0.000000e+00 9.173132e-01 -3.981664e-01 0.000000e+00 9.400448e-01 -3.410511e-01 0.000000e+00 2.248676e-01 -9.743893e-01 0.000000e+00 5.137298e-02 -9.986795e-01 0.000000e+00 9.785776e-01 -2.058783e-01 0.000000e+00 9.251981e-01 -3.794846e-01 0.000000e+00 8.425410e-01 5.386322e-01 0.000000e+00 8.650206e-01 5.017364e-01 0.000000e+00 8.592029e-01 5.116350e-01 0.000000e+00 8.068388e-01 5.907716e-01 0.000000e+00 9.817393e-01 -1.902313e-01 0.000000e+00 9.822437e-01 -1.876097e-01 0.000000e+00 4.905921e-01 8.713893e-01 0.000000e+00 7.374361e-01 6.754169e-01 0.000000e+00 7.307293e-01 6.826673e-01 0.000000e+00 9.297460e-01 3.682015e-01 0.000000e+00 7.359581e-01 -6.770271e-01 0.000000e+00 6.473880e-01 -7.621606e-01 0.000000e+00 7.077913e-01 -7.064216e-01 0.000000e+00 5.202441e-01 8.540176e-01 0.000000e+00 9.231029e-01 3.845531e-01 0.000000e+00 8.705694e-01 4.920457e-01 0.000000e+00 5.377995e-01 8.430728e-01 0.000000e+00 9.974083e-01 -7.194932e-02 0.000000e+00 5.865913e-01 8.098831e-01 0.000000e+00 7.831267e-01 -6.218622e-01 0.000000e+00 6.977486e-01 -7.163427e-01 0.000000e+00 8.089523e-01 -5.878743e-01 0.000000e+00 9.973063e-01 -7.335013e-02 0.000000e+00 9.986880e-01 -5.120854e-02 0.000000e+00 9.612015e-01 -2.758473e-01 0.000000e+00 8.651626e-01 5.014914e-01 0.000000e+00 9.319206e-01 -3.626623e-01 0.000000e+00 9.214519e-01 -3.884925e-01 0.000000e+00 9.988378e-01 -4.819839e-02 0.000000e+00 9.829144e-01 -1.840634e-01 0.000000e+00 9.846264e-01 -1.746737e-01 0.000000e+00 9.971042e-01 -7.604786e-02 0.000000e+00 9.932263e-01 -1.161958e-01 0.000000e+00 9.668482e-01 -2.553517e-01 0.000000e+00 9.925226e-01 -1.220609e-01 0.000000e+00 6.860606e-01 -7.275444e-01 0.000000e+00 9.124286e-01 4.092360e-01 0.000000e+00 9.841877e-01 -1.771288e-01 0.000000e+00 9.882055e-01 -1.531333e-01 0.000000e+00 9.168716e-01 3.991822e-01 0.000000e+00 9.945851e-01 -1.039253e-01 0.000000e+00 9.953502e-01 -9.632212e-02 0.000000e+00 9.949581e-01 -1.002917e-01 0.000000e+00 9.082297e-01 4.184720e-01 0.000000e+00 1.264401e-01 -9.919743e-01 0.000000e+00 9.622946e-01 -2.720094e-01 0.000000e+00 9.701304e-01 -2.425840e-01 0.000000e+00 9.699370e-01 -2.433560e-01 0.000000e+00 9.979577e-01 -6.387766e-02 0.000000e+00 9.327465e-01 3.605329e-01 0.000000e+00 7.372740e-01 6.755939e-01 0.000000e+00 9.994306e-01 -3.374066e-02 0.000000e+00 9.911160e-01 -1.330003e-01 0.000000e+00 8.738649e-01 4.861688e-01 0.000000e+00 9.951177e-01 -9.869482e-02 0.000000e+00 8.178839e-01 -5.753833e-01 0.000000e+00 8.308846e-01 -5.564448e-01 0.000000e+00 9.666064e-02 9.953174e-01 0.000000e+00 9.978563e-01 -6.544378e-02 0.000000e+00 9.926721e-01 -1.208393e-01 0.000000e+00 9.949254e-01 -1.006152e-01 0.000000e+00 9.685106e-01 -2.489725e-01 0.000000e+00 9.605632e-01 -2.780619e-01 0.000000e+00 8.164923e-01 5.773564e-01 0.000000e+00 2.563877e-01 -9.665740e-01 0.000000e+00 7.454280e-01 6.665862e-01 0.000000e+00 7.197012e-01 -6.942839e-01 0.000000e+00 9.729712e-01 -2.309263e-01 0.000000e+00 9.606550e-01 -2.777446e-01 0.000000e+00 9.993850e-01 3.506471e-02 0.000000e+00 3.377963e-01 -9.412193e-01 0.000000e+00 9.751851e-01 -2.213912e-01 0.000000e+00 9.728424e-01 -2.314686e-01 0.000000e+00 1.994991e-01 -9.798980e-01 0.000000e+00 9.143932e-01 4.048271e-01 0.000000e+00 9.915476e-01 -1.297433e-01 0.000000e+00 9.934717e-01 -1.140792e-01 0.000000e+00 9.897622e-01 -1.427264e-01 0.000000e+00 6.376467e-01 -7.703289e-01 0.000000e+00 9.472282e-01 -3.205601e-01 0.000000e+00 9.510109e-01 -3.091574e-01 0.000000e+00 9.157564e-01 -4.017340e-01 0.000000e+00 8.472644e-01 -5.311714e-01 0.000000e+00 8.721936e-01 4.891608e-01 0.000000e+00 8.663248e-01 -4.994810e-01 0.000000e+00 9.797111e-01 -2.004148e-01 0.000000e+00 4.842466e-02 9.988268e-01 0.000000e+00 9.856939e-01 -1.685452e-01 0.000000e+00 7.915348e-01 -6.111241e-01 0.000000e+00 9.931202e-01 -1.170991e-01 0.000000e+00 9.964264e-01 -8.446591e-02 0.000000e+00 9.955504e-01 -9.423031e-02 0.000000e+00 8.475821e-01 5.306642e-01 0.000000e+00 7.455915e-01 6.664032e-01 0.000000e+00 9.161570e-01 -4.008195e-01 0.000000e+00 9.720461e-01 -2.347900e-01 0.000000e+00 9.799139e-01 -1.994212e-01 0.000000e+00 9.356082e-01 -3.530401e-01 0.000000e+00 9.457966e-01 -3.247596e-01 0.000000e+00 9.438265e-01 -3.304416e-01 0.000000e+00 4.319711e-01 -9.018875e-01 0.000000e+00 8.906753e-01 4.546400e-01 0.000000e+00 7.954706e-01 6.059922e-01 0.000000e+00 7.674046e-01 6.411631e-01 0.000000e+00 7.974089e-01 6.034394e-01 0.000000e+00 9.843673e-01 -1.761280e-01 0.000000e+00 6.432960e-01 7.656176e-01 0.000000e+00 8.987748e-01 4.384106e-01 0.000000e+00 9.126019e-01 -4.088493e-01 0.000000e+00 9.522096e-01 -3.054455e-01 0.000000e+00 9.673480e-01 -2.534517e-01 0.000000e+00 9.137008e-01 -4.063876e-01 0.000000e+00 6.664911e-01 7.455129e-01 0.000000e+00 8.649699e-01 5.018238e-01 0.000000e+00 9.898934e-01 -1.418132e-01 0.000000e+00 5.711219e-01 -8.208653e-01 0.000000e+00 9.860692e-01 -1.663356e-01 0.000000e+00 7.492729e-01 6.622614e-01 0.000000e+00 8.970978e-01 -4.418320e-01 0.000000e+00 3.087176e-01 9.511537e-01 0.000000e+00 9.993151e-01 -3.700477e-02 0.000000e+00 8.926142e-01 -4.508213e-01 0.000000e+00 6.921364e-01 7.217667e-01 0.000000e+00 4.960372e-01 8.683013e-01 0.000000e+00 5.698856e-01 8.217240e-01 0.000000e+00 9.138065e-01 -4.061499e-01 0.000000e+00 9.984640e-01 -5.540418e-02 0.000000e+00 6.827011e-01 7.306978e-01 0.000000e+00 8.447036e-01 -5.352344e-01 0.000000e+00 9.053160e-01 -4.247386e-01 0.000000e+00 6.754261e-01 -7.374277e-01 0.000000e+00 3.875704e-01 -9.218401e-01 0.000000e+00 5.795813e-02 9.983190e-01 0.000000e+00 3.163029e-01 9.486583e-01 0.000000e+00 4.327403e-02 -9.990632e-01 0.000000e+00 9.443468e-01 -3.289516e-01 0.000000e+00 9.964474e-01 -8.421692e-02 0.000000e+00 3.140213e-01 -9.494159e-01 0.000000e+00 9.125827e-01 -4.088923e-01 0.000000e+00 8.987464e-01 -4.384688e-01 0.000000e+00 9.862372e-01 -1.653368e-01 0.000000e+00 5.534813e-01 8.328616e-01 0.000000e+00 5.490073e-01 8.358175e-01 0.000000e+00 6.886652e-01 7.250794e-01 0.000000e+00 2.184158e-02 9.997614e-01 0.000000e+00 9.609608e-01 -2.766846e-01 0.000000e+00 8.762497e-01 -4.818573e-01 0.000000e+00 9.838285e-01 -1.791130e-01 0.000000e+00 4.514812e-01 -8.922806e-01 0.000000e+00 2.473035e-01 -9.689381e-01 0.000000e+00 9.528499e-01 -3.034419e-01 0.000000e+00 5.915217e-01 -8.062891e-01 0.000000e+00 3.691171e-01 -9.293829e-01 0.000000e+00 8.207946e-01 5.712235e-01 0.000000e+00 7.548703e-01 6.558741e-01 0.000000e+00 9.558020e-02 9.954217e-01 0.000000e+00 9.039911e-01 -4.275512e-01 0.000000e+00 2.384825e-01 9.711468e-01 0.000000e+00 7.148539e-01 -6.992738e-01 0.000000e+00 5.098752e-01 -8.602484e-01 0.000000e+00 7.805479e-01 -6.250960e-01 0.000000e+00 9.817717e-01 -1.900642e-01 0.000000e+00 6.668844e-01 -7.451612e-01 0.000000e+00 7.123113e-01 -7.018637e-01 0.000000e+00 8.505716e-01 -5.258592e-01 0.000000e+00 9.358461e-01 -3.524089e-01 0.000000e+00 7.443886e-01 6.677466e-01 0.000000e+00 8.793441e-01 4.761868e-01 0.000000e+00 6.549058e-01 7.557105e-01 0.000000e+00 8.360058e-01 5.487206e-01 0.000000e+00 9.673735e-01 -2.533547e-01 0.000000e+00 9.289753e-01 -3.701418e-01 0.000000e+00 9.194556e-01 -3.931938e-01 0.000000e+00 3.835329e-01 -9.235272e-01 0.000000e+00 7.609424e-01 -6.488194e-01 0.000000e+00 9.817717e-01 -1.900642e-01 0.000000e+00 7.505804e-01 -6.607791e-01 0.000000e+00 5.256870e-01 -8.506780e-01 0.000000e+00 6.321393e-01 -7.748548e-01 0.000000e+00 9.402929e-01 -3.403664e-01 0.000000e+00 9.475411e-01 -3.196340e-01 0.000000e+00 8.146419e-01 -5.799643e-01 0.000000e+00 9.909707e-01 -1.340783e-01 0.000000e+00 9.915756e-01 -1.295296e-01 0.000000e+00 6.184665e-01 -7.858112e-01 0.000000e+00 7.446627e-01 -6.674410e-01 0.000000e+00 9.793108e-01 -2.023618e-01 0.000000e+00 9.768862e-01 -2.137602e-01 0.000000e+00 8.586481e-01 -5.125656e-01 0.000000e+00 9.887160e-01 -1.498020e-01 0.000000e+00 9.613088e-01 -2.754730e-01 0.000000e+00 9.472070e-01 -3.206227e-01 0.000000e+00 2.975158e-01 9.547169e-01 0.000000e+00 3.472362e-01 9.377777e-01 0.000000e+00 5.345480e-01 -8.451381e-01 0.000000e+00 5.764901e-01 -8.171041e-01 0.000000e+00 7.264086e-01 -6.872630e-01 0.000000e+00 9.423284e-01 -3.346897e-01 0.000000e+00 9.720458e-01 -2.347914e-01 0.000000e+00 5.108222e-01 -8.596864e-01 0.000000e+00 9.893681e-01 -1.454328e-01 0.000000e+00 9.677880e-01 -2.517665e-01 0.000000e+00 9.620034e-01 -2.730375e-01 0.000000e+00 9.527876e-01 -3.036375e-01 0.000000e+00 9.697309e-01 -2.441760e-01 0.000000e+00 4.922079e-01 -8.704777e-01 0.000000e+00 9.384129e-01 -3.455159e-01 0.000000e+00 1.718762e-01 9.851186e-01 0.000000e+00 9.230218e-01 -3.847475e-01 0.000000e+00 7.769916e-01 -6.295110e-01 0.000000e+00 6.643130e-01 7.474545e-01 0.000000e+00 8.863622e-01 -4.629926e-01 0.000000e+00 9.420932e-01 -3.353511e-01 0.000000e+00 8.391584e-01 -5.438871e-01 0.000000e+00 9.825609e-01 -1.859413e-01 0.000000e+00 2.112141e-01 -9.774398e-01 0.000000e+00 7.002598e-01 -7.138881e-01 0.000000e+00 6.147176e-01 -7.887473e-01 0.000000e+00 6.862591e-01 -7.273572e-01 0.000000e+00 9.896683e-01 -1.433757e-01 0.000000e+00 9.115043e-01 -4.112906e-01 0.000000e+00 8.947366e-01 -4.465942e-01 0.000000e+00 8.578389e-01 -5.139187e-01 0.000000e+00 5.748563e-01 8.182544e-01 0.000000e+00 8.655948e-01 5.007451e-01 0.000000e+00 6.218686e-01 7.831216e-01 0.000000e+00 7.766812e-01 -6.298938e-01 0.000000e+00 9.691815e-01 -2.463478e-01 0.000000e+00 8.068729e-01 -5.907251e-01 0.000000e+00 1.930687e-02 -9.998136e-01 0.000000e+00 7.267682e-01 -6.868829e-01 0.000000e+00 8.266733e-01 5.626822e-01 0.000000e+00 8.113398e-01 -5.845749e-01 0.000000e+00 2.522412e-01 -9.676644e-01 0.000000e+00 9.853023e-01 -1.708197e-01 0.000000e+00 6.183630e-01 -7.858926e-01 0.000000e+00 9.663146e-01 -2.573638e-01 0.000000e+00 9.861951e-01 -1.655874e-01 0.000000e+00 7.628530e-01 -6.465720e-01 0.000000e+00 5.365001e-01 8.439003e-01 0.000000e+00 1.650623e-01 -9.862832e-01 0.000000e+00 1.029254e-01 -9.946891e-01 0.000000e+00 6.564415e-01 -7.543769e-01 0.000000e+00 8.314846e-01 -5.555478e-01 0.000000e+00 9.353153e-01 -3.538152e-01 0.000000e+00 9.899019e-01 -1.417541e-01 0.000000e+00 9.756041e-01 -2.195372e-01 0.000000e+00 8.615991e-01 -5.075894e-01 0.000000e+00 8.950440e-01 -4.459778e-01 0.000000e+00 9.713488e-01 -2.376584e-01 0.000000e+00 4.176122e-02 9.991276e-01 0.000000e+00 7.427185e-01 -6.696038e-01 0.000000e+00 5.492100e-01 -8.356844e-01 0.000000e+00 6.022880e-01 -7.982788e-01 0.000000e+00 6.407789e-01 -7.677255e-01 0.000000e+00 9.124596e-01 -4.091668e-01 0.000000e+00 9.036456e-01 -4.282810e-01 0.000000e+00 9.850284e-01 -1.723922e-01 0.000000e+00 9.383047e-01 -3.458097e-01 0.000000e+00 9.474706e-01 -3.198428e-01 0.000000e+00 3.792235e-01 9.253051e-01 0.000000e+00 6.766469e-01 -7.363076e-01 0.000000e+00 4.350611e-01 -9.004009e-01 0.000000e+00 6.756036e-01 7.372651e-01 0.000000e+00 7.573735e-01 6.529819e-01 0.000000e+00 5.604048e-01 -8.282189e-01 0.000000e+00 8.364445e-01 5.480516e-01 0.000000e+00 9.239807e-01 -3.824392e-01 0.000000e+00 9.684722e-01 -2.491215e-01 0.000000e+00 8.954253e-02 9.959830e-01 0.000000e+00 9.313927e-01 -3.640160e-01 0.000000e+00 5.944846e-01 8.041070e-01 0.000000e+00 8.679106e-01 -4.967205e-01 0.000000e+00 9.112632e-01 -4.118245e-01 0.000000e+00 3.913392e-01 -9.202465e-01 0.000000e+00 9.418038e-01 -3.361630e-01 0.000000e+00 7.054222e-01 7.087873e-01 0.000000e+00 7.487160e-01 6.628909e-01 0.000000e+00 5.136275e-01 -8.580133e-01 0.000000e+00 7.222819e-01 6.915988e-01 0.000000e+00 2.806943e-01 9.597972e-01 0.000000e+00 9.477713e-01 -3.189506e-01 0.000000e+00 7.277564e-01 6.858357e-01 0.000000e+00 6.168505e-01 7.870803e-01 0.000000e+00 6.206329e-01 -7.841013e-01 0.000000e+00 7.839723e-01 -6.207959e-01 0.000000e+00 6.510271e-01 7.590545e-01 0.000000e+00 9.981177e-01 -6.132750e-02 0.000000e+00 9.782632e-01 -2.073670e-01 0.000000e+00 9.938389e-01 -1.108338e-01 0.000000e+00 4.691287e-01 8.831298e-01 0.000000e+00 8.809407e-01 -4.732267e-01 0.000000e+00 8.679669e-01 -4.966221e-01 0.000000e+00 9.639343e-03 -9.999535e-01 0.000000e+00 1.984591e-01 9.801092e-01 0.000000e+00 1.509786e-01 -9.885370e-01 0.000000e+00 9.993199e-01 -3.687413e-02 0.000000e+00 9.537212e-01 -3.006923e-01 0.000000e+00 8.587816e-01 -5.123419e-01 0.000000e+00 4.141190e-01 -9.102228e-01 0.000000e+00 1.344619e-01 -9.909188e-01 0.000000e+00 7.293605e-01 -6.841296e-01 0.000000e+00 6.058564e-01 -7.955740e-01 0.000000e+00 9.036928e-01 -4.281814e-01 0.000000e+00 8.840506e-01 -4.673911e-01 0.000000e+00 1.944903e-01 -9.809044e-01 0.000000e+00 5.400637e-01 -8.416241e-01 0.000000e+00 8.116502e-01 -5.841438e-01 0.000000e+00 9.157914e-01 -4.016542e-01 0.000000e+00 3.639521e-01 -9.314177e-01 0.000000e+00 9.668798e-01 -2.552321e-01 0.000000e+00 9.738490e-01 -2.271964e-01 0.000000e+00 9.732893e-01 -2.295820e-01 0.000000e+00 6.925967e-01 -7.213250e-01 0.000000e+00 8.466253e-01 -5.321894e-01 0.000000e+00 8.699438e-01 -4.931509e-01 0.000000e+00 9.156298e-01 -4.020224e-01 0.000000e+00 9.086611e-01 -4.175344e-01 0.000000e+00 5.823346e-01 8.129492e-01 0.000000e+00 5.025717e-01 -8.645355e-01 0.000000e+00 7.889407e-01 -6.144694e-01 0.000000e+00 4.569790e-01 -8.894775e-01 0.000000e+00 5.062278e-01 -8.623998e-01 0.000000e+00 3.659882e-01 -9.306195e-01 0.000000e+00 3.157810e-01 -9.488321e-01 0.000000e+00 1.505250e-01 9.886062e-01 0.000000e+00 7.487248e-01 -6.628810e-01 0.000000e+00 8.349347e-01 -5.503490e-01 0.000000e+00 7.919606e-01 -6.105722e-01 0.000000e+00 8.695767e-01 -4.937979e-01 0.000000e+00 4.391643e-01 8.984068e-01 0.000000e+00 3.855994e-01 9.226663e-01 0.000000e+00 3.594790e-01 9.331532e-01 0.000000e+00 1.775985e-01 9.841030e-01 0.000000e+00 8.976763e-01 -4.406556e-01 0.000000e+00 7.014942e-01 -7.126752e-01 0.000000e+00 5.289087e-01 -8.486787e-01 0.000000e+00 4.594120e-01 -8.882233e-01 0.000000e+00 8.878766e-01 -4.600817e-01 0.000000e+00 9.563152e-01 -2.923374e-01 0.000000e+00 8.969061e-01 -4.422211e-01 0.000000e+00 2.625298e-01 -9.649239e-01 0.000000e+00 2.692394e-01 -9.630733e-01 0.000000e+00 9.255681e-01 -3.785813e-01 0.000000e+00 8.556598e-01 -5.175386e-01 0.000000e+00 9.776346e-01 -2.103106e-01 0.000000e+00 8.650469e-01 -5.016911e-01 0.000000e+00 9.996637e-01 -2.593188e-02 0.000000e+00 5.967553e-01 -8.024233e-01 0.000000e+00 9.676496e-01 -2.522981e-01 0.000000e+00 4.977931e-01 -8.672958e-01 0.000000e+00 4.852860e-01 -8.743555e-01 0.000000e+00 8.055433e-01 -5.925370e-01 0.000000e+00 3.074541e-01 -9.515629e-01 0.000000e+00 6.618766e-01 7.496128e-01 0.000000e+00 9.968185e-02 -9.950194e-01 0.000000e+00 6.773777e-01 -7.356354e-01 0.000000e+00 7.587157e-01 -6.514218e-01 0.000000e+00 1.195616e-01 -9.928268e-01 0.000000e+00 6.704475e-02 -9.977500e-01 0.000000e+00 7.192522e-01 -6.947491e-01 0.000000e+00 8.036163e-01 -5.951477e-01 0.000000e+00 9.507244e-01 -3.100372e-01 0.000000e+00 7.311298e-01 -6.822384e-01 0.000000e+00 2.067006e-01 -9.784042e-01 0.000000e+00 8.535532e-01 -5.210058e-01 0.000000e+00 9.605681e-01 -2.780447e-01 0.000000e+00 9.127339e-01 -4.085545e-01 0.000000e+00 6.244527e-01 -7.810626e-01 0.000000e+00 7.961187e-01 -6.051405e-01 0.000000e+00 8.782263e-01 -4.782452e-01 0.000000e+00 8.385677e-01 -5.447974e-01 0.000000e+00 8.735178e-01 -4.867921e-01 0.000000e+00 7.677664e-01 -6.407299e-01 0.000000e+00 7.139958e-01 -7.001500e-01 0.000000e+00 3.518506e-01 -9.360562e-01 0.000000e+00 2.298592e-01 -9.732239e-01 0.000000e+00 1.209708e-01 9.926561e-01 0.000000e+00 9.003042e-02 9.959390e-01 0.000000e+00 5.049216e-01 -8.631652e-01 0.000000e+00 4.711219e-01 -8.820681e-01 0.000000e+00 3.388729e-01 -9.408322e-01 0.000000e+00 5.883549e-01 -8.086028e-01 0.000000e+00 8.413447e-01 -5.404990e-01 0.000000e+00 8.386940e-01 -5.446029e-01 0.000000e+00 8.030930e-01 -5.958537e-01 0.000000e+00 2.888739e-01 9.573671e-01 0.000000e+00 5.255002e-02 9.986183e-01 0.000000e+00 6.059982e-01 -7.954660e-01 0.000000e+00 6.775217e-01 -7.355028e-01 0.000000e+00 7.847319e-01 -6.198353e-01 0.000000e+00 2.052679e-01 -9.787058e-01 0.000000e+00 3.177203e-01 9.481845e-01 0.000000e+00 9.014631e-01 -4.328560e-01 0.000000e+00 5.604100e-01 8.282153e-01 0.000000e+00 6.300174e-01 -7.765810e-01 0.000000e+00 6.081933e-01 -7.937890e-01 0.000000e+00 6.134345e-01 -7.897456e-01 0.000000e+00 3.008744e-02 -9.995473e-01 0.000000e+00 7.118024e-01 -7.023798e-01 0.000000e+00 7.732513e-01 -6.340997e-01 0.000000e+00 8.466017e-01 -5.322270e-01 0.000000e+00 2.560700e-01 -9.666582e-01 0.000000e+00 1.647011e-01 -9.863435e-01 0.000000e+00 4.434324e-01 -8.963078e-01 0.000000e+00 8.511618e-01 -5.249035e-01 0.000000e+00 8.320157e-01 -5.547520e-01 0.000000e+00 6.302199e-01 -7.764167e-01 0.000000e+00 4.332296e-01 -9.012836e-01 0.000000e+00 6.880873e-01 -7.256279e-01 0.000000e+00 3.672177e-01 -9.301350e-01 0.000000e+00 6.103551e-01 -7.921279e-01 0.000000e+00 9.542045e-01 -2.991550e-01 0.000000e+00 7.758453e-01 -6.309231e-01 0.000000e+00 9.147507e-02 9.958074e-01 0.000000e+00   </DataArray>
</PointData>
</Piece>
</UnstructuredGrid>
</VTKFile>
