<VTKFile type="UnstructuredGrid" version="0.1" byte_order="LittleEndian">
<UnstructuredGrid>
<Piece NumberOfPoints="1187" NumberOfCells="1187">
<Points>
 <DataArray type="Float64" NumberOfComponents="3" format="ascii"> -2.332000e-02 1.736043e-04 0.000000e+00 -2.232320e-02 1.539420e-04 0.000000e+00 -2.136317e-02 1.603477e-04 0.000000e+00 -2.040513e-02 1.642530e-04 0.000000e+00 -1.944433e-02 1.655560e-04 0.000000e+00 -1.848023e-02 1.652967e-04 0.000000e+00 -1.751903e-02 1.563843e-04 0.000000e+00 -1.656200e-02 1.559450e-04 0.000000e+00 -1.560550e-02 1.591977e-04 0.000000e+00 -1.464463e-02 1.630360e-04 0.000000e+00 -1.368757e-02 1.657183e-04 0.000000e+00 -1.272113e-02 1.614177e-04 0.000000e+00 -1.176670e-02 1.655930e-04 0.000000e+00 -1.080180e-02 1.615147e-04 0.000000e+00 -9.848193e-03 1.588433e-04 0.000000e+00 -8.875250e-03 1.613557e-04 0.000000e+00 -7.915243e-03 1.670577e-04 0.000000e+00 -6.956947e-03 1.640973e-04 0.000000e+00 -6.006427e-03 1.415340e-04 0.000000e+00 -5.035117e-03 1.576240e-04 0.000000e+00 -4.075140e-03 1.611887e-04 0.000000e+00 -3.122987e-03 1.483890e-04 0.000000e+00 -2.163810e-03 1.587610e-04 0.000000e+00 -1.195820e-03 1.744137e-04 0.000000e+00 -1.989733e-04 2.049480e-04 0.000000e+00 5.899183e-03 6.880700e-04 0.000000e+00 9.634380e-03 8.314163e-04 0.000000e+00 1.288147e-02 8.811043e-04 0.000000e+00 1.556457e-02 8.507557e-04 0.000000e+00 1.625697e-02 1.110600e-03 0.000000e+00 1.714523e-02 1.943163e-03 0.000000e+00 1.858460e-02 2.346393e-03 0.000000e+00 2.161180e-02 2.502910e-03 0.000000e+00 2.617350e-02 2.524113e-03 0.000000e+00 3.137873e-02 2.639627e-03 0.000000e+00 3.752137e-02 3.008683e-03 0.000000e+00 3.776597e-02 6.166347e-03 0.000000e+00 3.784643e-02 1.101230e-02 0.000000e+00 3.786090e-02 1.518913e-02 0.000000e+00 3.783230e-02 1.955867e-02 0.000000e+00 3.754713e-02 2.470217e-02 0.000000e+00 3.723927e-02 2.790707e-02 0.000000e+00 3.628640e-02 2.608390e-02 0.000000e+00 3.611833e-02 2.912723e-02 0.000000e+00 3.408643e-02 2.912723e-02 0.000000e+00 3.087660e-02 2.921273e-02 0.000000e+00 2.501827e-02 2.926087e-02 0.000000e+00 1.904280e-02 2.911593e-02 0.000000e+00 1.198477e-02 2.896897e-02 0.000000e+00 3.632203e-03 2.877927e-02 0.000000e+00 -6.986700e-03 2.871053e-02 0.000000e+00 -1.324537e-02 2.870067e-02 0.000000e+00 -1.980157e-02 2.827160e-02 0.000000e+00 -1.603787e-02 2.697227e-02 0.000000e+00 -2.214197e-02 2.605700e-02 0.000000e+00 -2.292793e-02 2.020170e-02 0.000000e+00 3.262367e-02 1.308173e-02 0.000000e+00 3.230910e-02 1.158190e-02 0.000000e+00 3.163363e-02 1.021931e-02 0.000000e+00 3.067930e-02 9.118857e-03 0.000000e+00 2.954320e-02 8.202103e-03 0.000000e+00 2.821697e-02 7.534673e-03 0.000000e+00 2.677307e-02 7.219233e-03 0.000000e+00 2.535023e-02 7.229130e-03 0.000000e+00 2.386283e-02 7.541663e-03 0.000000e+00 2.245127e-02 8.173457e-03 0.000000e+00 2.127943e-02 9.111423e-03 0.000000e+00 2.036480e-02 1.024937e-02 0.000000e+00 1.971930e-02 1.160353e-02 0.000000e+00 1.938457e-02 1.303760e-02 0.000000e+00 1.937697e-02 1.447027e-02 0.000000e+00 1.966720e-02 1.588373e-02 0.000000e+00 2.030720e-02 1.725297e-02 0.000000e+00 2.126137e-02 1.847507e-02 0.000000e+00 2.246777e-02 1.943387e-02 0.000000e+00 2.380200e-02 2.006090e-02 0.000000e+00 2.519913e-02 2.038260e-02 0.000000e+00 2.659083e-02 2.039017e-02 0.000000e+00 2.803923e-02 2.009040e-02 0.000000e+00 2.941547e-02 1.950650e-02 0.000000e+00 3.063903e-02 1.857997e-02 0.000000e+00 3.163043e-02 1.731373e-02 0.000000e+00 3.228907e-02 1.595550e-02 0.000000e+00 3.260633e-02 1.455787e-02 0.000000e+00 3.678733e-02 4.307610e-03 0.000000e+00 -2.364000e-02 1.736043e-04 0.000000e+00 -2.281467e-02 1.631223e-04 0.000000e+00 -2.309467e-02 3.367267e-04 0.000000e+00 -2.257787e-02 3.170643e-04 0.000000e+00 -2.184373e-02 1.550423e-04 0.000000e+00 -2.160690e-02 3.153900e-04 0.000000e+00 -2.087983e-02 1.651600e-04 0.000000e+00 -1.992243e-02 1.635233e-04 0.000000e+00 -1.896147e-02 1.715653e-04 0.000000e+00 -1.920580e-02 3.371213e-04 0.000000e+00 -1.872170e-02 3.368620e-04 0.000000e+00 -1.799830e-02 1.583367e-04 0.000000e+00 -1.704340e-02 1.550750e-04 0.000000e+00 -1.607933e-02 1.567140e-04 0.000000e+00 -1.512317e-02 1.617350e-04 0.000000e+00 -1.536867e-02 3.209327e-04 0.000000e+00 -1.488780e-02 3.247710e-04 0.000000e+00 -1.417147e-02 1.657430e-04 0.000000e+00 -1.320137e-02 1.615120e-04 0.000000e+00 -1.224380e-02 1.628883e-04 0.000000e+00 -1.248493e-02 3.243060e-04 0.000000e+00 -1.201050e-02 3.284813e-04 0.000000e+00 -1.128930e-02 1.641377e-04 0.000000e+00 -1.032373e-02 1.591453e-04 0.000000e+00 -9.361707e-03 1.591803e-04 0.000000e+00 -9.609900e-03 3.180237e-04 0.000000e+00 -9.116957e-03 3.205360e-04 0.000000e+00 -8.396620e-03 1.641813e-04 0.000000e+00 -8.151863e-03 3.312390e-04 0.000000e+00 -7.440907e-03 1.688460e-04 0.000000e+00 -6.475497e-03 1.541883e-04 0.000000e+00 -5.522450e-03 1.401560e-04 0.000000e+00 -5.768877e-03 2.816900e-04 0.000000e+00 -5.277567e-03 2.977800e-04 0.000000e+00 -4.557890e-03 1.618643e-04 0.000000e+00 -3.599783e-03 1.586310e-04 0.000000e+00 -2.639110e-03 1.465977e-04 0.000000e+00 -1.678670e-03 1.661163e-04 0.000000e+00 -1.922480e-03 3.248773e-04 0.000000e+00 -1.434490e-03 3.405300e-04 0.000000e+00 -7.058257e-04 1.853213e-04 0.000000e+00 4.950083e-03 1.130889e-03 0.000000e+00 3.849230e-03 5.918352e-04 0.000000e+00 7.838260e-03 7.557517e-04 0.000000e+00 1.133543e-02 8.656797e-04 0.000000e+00 1.427630e-02 8.817397e-04 0.000000e+00 1.640513e-02 1.806197e-03 0.000000e+00 1.733643e-02 2.723213e-03 0.000000e+00 1.805710e-02 2.874010e-03 0.000000e+00 1.993840e-02 2.425463e-03 0.000000e+00 2.375830e-02 2.577830e-03 0.000000e+00 2.505957e-02 3.101943e-03 0.000000e+00 3.005377e-02 3.205280e-03 0.000000e+00 2.871977e-02 2.565653e-03 0.000000e+00 3.409720e-02 2.803037e-03 0.000000e+00 3.707943e-02 7.335193e-03 0.000000e+00 3.781347e-02 8.701033e-03 0.000000e+00 3.715990e-02 9.769497e-03 0.000000e+00 3.788740e-02 1.314723e-02 0.000000e+00 3.774823e-02 1.729790e-02 0.000000e+00 3.770757e-02 2.198053e-02 0.000000e+00 1.732697e-02 2.813503e-02 0.000000e+00 1.557927e-02 2.901910e-02 0.000000e+00 3.269900e-02 2.833997e-02 0.000000e+00 2.935370e-02 2.845227e-02 0.000000e+00 2.781170e-02 2.923953e-02 0.000000e+00 2.639500e-02 2.850040e-02 0.000000e+00 2.223157e-02 2.922417e-02 0.000000e+00 1.381527e-02 2.798807e-02 0.000000e+00 8.031137e-03 2.889270e-02 0.000000e+00 -4.123090e-03 2.728437e-02 0.000000e+00 -1.198417e-03 2.857383e-02 0.000000e+00 -1.002719e-02 2.741120e-02 0.000000e+00 3.294570e-02 1.223310e-02 0.000000e+00 3.308240e-02 1.382250e-02 0.000000e+00 3.240927e-02 1.066846e-02 0.000000e+00 3.151247e-02 9.382083e-03 0.000000e+00 3.036437e-02 8.311407e-03 0.000000e+00 2.906530e-02 7.459887e-03 0.000000e+00 2.756433e-02 6.933003e-03 0.000000e+00 2.604700e-02 6.802027e-03 0.000000e+00 2.451277e-02 6.968320e-03 0.000000e+00 2.295897e-02 7.446843e-03 0.000000e+00 2.158077e-02 8.277360e-03 0.000000e+00 2.046297e-02 9.380470e-03 0.000000e+00 1.962013e-02 1.072123e-02 0.000000e+00 1.909593e-02 1.221973e-02 0.000000e+00 1.891300e-02 1.375080e-02 0.000000e+00 1.906483e-02 1.527593e-02 0.000000e+00 1.955993e-02 1.677317e-02 0.000000e+00 2.042313e-02 1.817600e-02 0.000000e+00 2.157573e-02 1.932917e-02 0.000000e+00 2.294480e-02 2.016120e-02 0.000000e+00 2.440160e-02 2.064950e-02 0.000000e+00 2.589963e-02 2.081680e-02 0.000000e+00 2.739473e-02 2.065897e-02 0.000000e+00 2.894647e-02 2.018490e-02 0.000000e+00 3.032357e-02 1.941143e-02 0.000000e+00 3.151980e-02 1.822977e-02 0.000000e+00 3.238047e-02 1.681127e-02 0.000000e+00 3.289473e-02 1.536320e-02 0.000000e+00 -1.138429e-03 8.096280e-03 0.000000e+00 -2.208693e-02 3.089843e-04 0.000000e+00 -2.112300e-02 3.255077e-04 0.000000e+00 -2.016757e-02 3.277763e-04 0.000000e+00 -1.775733e-02 3.147210e-04 0.000000e+00 -1.823853e-02 3.236333e-04 0.000000e+00 -1.728243e-02 3.114593e-04 0.000000e+00 -1.632133e-02 3.126590e-04 0.000000e+00 -1.393903e-02 3.314613e-04 0.000000e+00 -1.441610e-02 3.287790e-04 0.000000e+00 -1.344893e-02 3.272303e-04 0.000000e+00 -1.105110e-02 3.256523e-04 0.000000e+00 -1.153600e-02 3.297307e-04 0.000000e+00 -1.056553e-02 3.206600e-04 0.000000e+00 -8.631870e-03 3.255370e-04 0.000000e+00 -7.676150e-03 3.359037e-04 0.000000e+00 -6.712443e-03 3.182857e-04 0.000000e+00 -4.313030e-03 3.230530e-04 0.000000e+00 -4.793007e-03 3.194883e-04 0.000000e+00 -3.834923e-03 3.198197e-04 0.000000e+00 -2.882097e-03 2.949867e-04 0.000000e+00 -4.247990e-04 3.902693e-04 0.000000e+00 -9.416457e-04 3.597350e-04 0.000000e+00 6.837617e-03 1.229541e-03 0.000000e+00 1.043452e-02 1.369913e-03 0.000000e+00 1.359147e-02 1.341531e-03 0.000000e+00 1.928013e-02 2.771857e-03 0.000000e+00 2.269583e-02 3.080740e-03 0.000000e+00 2.752970e-02 3.089767e-03 0.000000e+00 3.266823e-02 3.442663e-03 0.000000e+00 3.723383e-02 1.202530e-02 0.000000e+00 3.710913e-02 1.624160e-02 0.000000e+00 3.703987e-02 2.079103e-02 0.000000e+00 2.364283e-02 2.848503e-02 0.000000e+00 1.001834e-02 2.786167e-02 0.000000e+00 1.148280e-03 2.735310e-02 0.000000e+00 -2.187153e-02 1.781887e-02 0.000000e+00 -1.584483e-02 3.159117e-04 0.000000e+00 -2.402920e-03 3.053587e-04 0.000000e+00 1.209650e-02 1.370374e-03 0.000000e+00 1.496447e-02 1.270496e-03 0.000000e+00 3.675470e-02 2.326907e-02 0.000000e+00 -1.968677e-02 3.290793e-04 0.000000e+00 -2.064497e-02 3.294130e-04 0.000000e+00 -1.680540e-02 3.110200e-04 0.000000e+00 -1.296250e-02 3.229297e-04 0.000000e+00 -1.009193e-02 3.179887e-04 0.000000e+00 -6.241923e-03 2.957223e-04 0.000000e+00 -7.197853e-03 3.329433e-04 0.000000e+00 -3.362770e-03 3.070200e-04 0.000000e+00 8.672683e-03 1.313877e-03 0.000000e+00 2.076100e-02 2.928373e-03 0.000000e+00 3.708053e-02 1.843863e-02 0.000000e+00 3.724830e-02 1.411830e-02 0.000000e+00 2.070107e-02 2.834010e-02 0.000000e+00 5.806120e-03 2.767197e-02 0.000000e+00 -2.113147e-02 6.741743e-04 0.000000e+00 -2.017700e-02 6.675697e-04 0.000000e+00 -1.681017e-02 6.413607e-04 0.000000e+00 -1.776050e-02 6.320880e-04 0.000000e+00 -2.065687e-02 6.803663e-04 0.000000e+00 -2.042647e-02 8.549997e-04 0.000000e+00 -1.728120e-02 6.240420e-04 0.000000e+00 -1.752097e-02 7.863340e-04 0.000000e+00 -1.704693e-02 7.979983e-04 0.000000e+00 -1.823567e-02 6.679367e-04 0.000000e+00 -1.799860e-02 8.200070e-04 0.000000e+00 -1.297003e-02 6.521550e-04 0.000000e+00 -1.395507e-02 6.872580e-04 0.000000e+00 -2.422197e-03 6.212563e-04 0.000000e+00 -1.345897e-02 6.659070e-04 0.000000e+00 -1.371363e-02 8.601917e-04 0.000000e+00 -1.321893e-02 8.294140e-04 0.000000e+00 -1.443523e-02 6.776690e-04 0.000000e+00 -1.420663e-02 8.704297e-04 0.000000e+00 -1.106217e-02 6.789157e-04 0.000000e+00 -1.010423e-02 6.359690e-04 0.000000e+00 -1.056813e-02 6.585800e-04 0.000000e+00 -1.081547e-02 8.526980e-04 0.000000e+00 -1.033863e-02 8.150457e-04 0.000000e+00 -1.155370e-02 6.818440e-04 0.000000e+00 -1.131807e-02 8.695143e-04 0.000000e+00 -8.626533e-03 6.718603e-04 0.000000e+00 -6.225067e-03 6.136127e-04 0.000000e+00 -7.670987e-03 6.826937e-04 0.000000e+00 -6.692707e-03 6.670623e-04 0.000000e+00 -6.438903e-03 8.208553e-04 0.000000e+00 -3.352210e-03 6.298753e-04 0.000000e+00 -4.315503e-03 6.706063e-04 0.000000e+00 -7.183523e-03 6.831767e-04 0.000000e+00 -7.421413e-03 8.658693e-04 0.000000e+00 -6.922880e-03 8.631073e-04 0.000000e+00 -3.822647e-03 6.598830e-04 0.000000e+00 -4.065337e-03 8.488053e-04 0.000000e+00 -3.576947e-03 8.215497e-04 0.000000e+00 -4.803527e-03 6.599717e-04 0.000000e+00 -4.570883e-03 8.499010e-04 0.000000e+00 -2.886033e-03 5.791333e-04 0.000000e+00 -3.116363e-03 7.553910e-04 0.000000e+00 -2.662323e-03 7.466420e-04 0.000000e+00 8.547863e-03 2.366473e-03 0.000000e+00 -3.893530e-04 7.865993e-04 0.000000e+00 1.206793e-02 2.382087e-03 0.000000e+00 6.754843e-03 2.251067e-03 0.000000e+00 7.630667e-03 2.829873e-03 0.000000e+00 4.990537e-03 2.142250e-03 0.000000e+00 5.856863e-03 2.720957e-03 0.000000e+00 -9.266963e-04 7.301950e-04 0.000000e+00 -6.554303e-04 9.521113e-04 0.000000e+00 1.034436e-02 2.423680e-03 0.000000e+00 1.121670e-02 2.931160e-03 0.000000e+00 3.125810e-03 1.048723e-03 0.000000e+00 2.066553e-02 3.906283e-03 0.000000e+00 1.505923e-02 2.117567e-03 0.000000e+00 1.917840e-02 3.580290e-03 0.000000e+00 1.974120e-02 4.211807e-03 0.000000e+00 3.511567e-02 2.311397e-02 0.000000e+00 1.580750e-02 2.393423e-03 0.000000e+00 2.260070e-02 4.251100e-03 0.000000e+00 3.586613e-02 1.862647e-02 0.000000e+00 3.603747e-02 1.191807e-02 0.000000e+00 3.005147e-02 4.419667e-03 0.000000e+00 3.250367e-02 4.738617e-03 0.000000e+00 3.524783e-02 4.101963e-03 0.000000e+00 -2.209340e-02 6.150420e-04 0.000000e+00 3.573183e-02 7.171230e-03 0.000000e+00 3.579240e-02 9.645447e-03 0.000000e+00 3.509837e-02 8.413020e-03 0.000000e+00 3.528257e-02 1.078102e-02 0.000000e+00 2.079387e-02 2.676097e-02 0.000000e+00 3.563480e-02 2.079390e-02 0.000000e+00 3.521283e-02 1.974937e-02 0.000000e+00 3.466347e-02 2.182830e-02 0.000000e+00 3.609167e-02 1.403767e-02 0.000000e+00 2.365937e-02 2.705360e-02 0.000000e+00 1.749990e-02 2.625723e-02 0.000000e+00 3.429497e-02 2.573990e-02 0.000000e+00 3.391667e-02 2.420307e-02 0.000000e+00 3.273947e-02 2.677580e-02 0.000000e+00 9.975903e-03 2.575977e-02 0.000000e+00 -4.668067e-03 2.470700e-02 0.000000e+00 2.635837e-02 2.710997e-02 0.000000e+00 2.499817e-02 2.643900e-02 0.000000e+00 1.376610e-02 2.603250e-02 0.000000e+00 1.570303e-02 2.518573e-02 0.000000e+00 1.189317e-02 2.491150e-02 0.000000e+00 -9.891197e-03 2.493080e-02 0.000000e+00 -1.994560e-02 1.818683e-02 0.000000e+00 -1.508767e-02 2.441360e-02 0.000000e+00 -2.106990e-02 2.280297e-02 0.000000e+00 -2.161170e-02 6.396367e-04 0.000000e+00 -2.185500e-02 7.853467e-04 0.000000e+00 -2.137643e-02 8.332610e-04 0.000000e+00 -8.140893e-03 6.772690e-04 0.000000e+00 -8.380313e-03 8.565347e-04 0.000000e+00 -7.899110e-03 8.598777e-04 0.000000e+00 1.605870e-04 4.904367e-04 0.000000e+00 2.933663e-02 2.694580e-02 0.000000e+00 3.090000e-02 2.614210e-02 0.000000e+00 2.775800e-02 2.634263e-02 0.000000e+00 -2.234150e-02 1.564757e-02 0.000000e+00 3.388193e-02 1.206330e-02 0.000000e+00 -1.584783e-02 6.313860e-04 0.000000e+00 3.214200e-02 8.751980e-03 0.000000e+00 3.083187e-02 7.693727e-03 0.000000e+00 2.947333e-02 6.606507e-03 0.000000e+00 2.767550e-02 6.075050e-03 0.000000e+00 2.432400e-02 6.221340e-03 0.000000e+00 2.261970e-02 6.558173e-03 0.000000e+00 2.106680e-02 7.550473e-03 0.000000e+00 1.881357e-02 1.035269e-02 0.000000e+00 1.799233e-02 1.375013e-02 0.000000e+00 1.869060e-02 1.718847e-02 0.000000e+00 1.968563e-02 1.877930e-02 0.000000e+00 2.102133e-02 2.008083e-02 0.000000e+00 2.255063e-02 2.098120e-02 0.000000e+00 2.590557e-02 2.166383e-02 0.000000e+00 2.757607e-02 2.145653e-02 0.000000e+00 2.930520e-02 2.098250e-02 0.000000e+00 3.226413e-02 1.873693e-02 0.000000e+00 3.320063e-02 1.716293e-02 0.000000e+00 2.277147e-03 8.143718e-04 0.000000e+00 3.355163e-03 2.058880e-03 0.000000e+00 4.119037e-03 2.613353e-03 0.000000e+00 3.487887e-02 5.796737e-03 0.000000e+00 -2.104710e-02 1.444430e-02 0.000000e+00 2.066997e-03 1.553265e-03 0.000000e+00 -2.309697e-02 6.830367e-04 0.000000e+00 2.142120e-02 4.651180e-03 0.000000e+00 -2.090020e-02 8.647800e-04 0.000000e+00 -1.920997e-02 6.935513e-04 0.000000e+00 -1.274020e-02 8.278563e-04 0.000000e+00 -1.249647e-02 6.615193e-04 0.000000e+00 -1.632307e-02 6.368347e-04 0.000000e+00 3.356367e-02 5.793763e-03 0.000000e+00 -9.863427e-03 8.021573e-04 0.000000e+00 -9.612833e-03 6.433573e-04 0.000000e+00 -1.656850e-02 8.104613e-04 0.000000e+00 -5.994700e-03 7.347690e-04 0.000000e+00 -5.774007e-03 5.570347e-04 0.000000e+00 2.255800e-04 9.051833e-04 0.000000e+00 9.419393e-03 2.937780e-03 0.000000e+00 -9.853433e-05 1.016025e-03 0.000000e+00 1.286917e-02 2.836703e-03 0.000000e+00 1.360773e-02 2.285417e-03 0.000000e+00 2.624673e-03 2.309320e-03 0.000000e+00 -2.194553e-03 8.079053e-04 0.000000e+00 -1.933947e-03 6.581240e-04 0.000000e+00 1.438733e-02 2.672697e-03 0.000000e+00 1.837113e-02 3.682443e-03 0.000000e+00 7.976040e-03 2.452527e-02 0.000000e+00 5.793457e-03 2.540643e-02 0.000000e+00 1.595987e-02 3.243063e-03 0.000000e+00 1.674870e-02 3.435887e-03 0.000000e+00 2.345150e-02 4.894410e-03 0.000000e+00 2.234090e-02 2.621360e-02 0.000000e+00 2.768227e-02 4.134707e-03 0.000000e+00 2.887003e-02 4.824980e-03 0.000000e+00 3.121187e-02 5.149967e-03 0.000000e+00 -2.130067e-02 1.282827e-02 0.000000e+00 -1.985610e-02 1.497737e-02 0.000000e+00 1.930853e-02 2.565900e-02 0.000000e+00 -1.969310e-02 6.670293e-04 0.000000e+00 -2.703100e-03 2.327877e-02 0.000000e+00 1.463047e-03 1.631935e-03 0.000000e+00 -1.993820e-02 8.412667e-04 0.000000e+00 -1.922457e-02 1.654860e-02 0.000000e+00 -1.945483e-02 8.599360e-04 0.000000e+00 -1.215918e-02 2.366160e-02 0.000000e+00 -1.886943e-02 2.203520e-02 0.000000e+00 -2.339790e-02 1.381913e-02 0.000000e+00 3.400910e-02 1.385767e-02 0.000000e+00 -1.561703e-02 7.924050e-04 0.000000e+00 -1.537720e-02 6.386657e-04 0.000000e+00 3.400423e-02 1.651773e-02 0.000000e+00 3.378973e-02 1.557377e-02 0.000000e+00 3.319493e-02 1.817257e-02 0.000000e+00 3.048700e-02 2.104420e-02 0.000000e+00 3.103637e-02 2.015153e-02 0.000000e+00 2.857930e-02 2.168557e-02 0.000000e+00 2.677810e-02 2.203477e-02 0.000000e+00 2.322713e-02 2.174373e-02 0.000000e+00 2.422090e-02 2.151233e-02 0.000000e+00 2.151920e-02 2.100553e-02 0.000000e+00 2.099827e-02 2.193663e-02 0.000000e+00 1.996947e-02 1.983003e-02 0.000000e+00 1.870037e-02 1.827157e-02 0.000000e+00 1.753440e-02 1.466473e-02 0.000000e+00 1.814293e-02 1.547107e-02 0.000000e+00 1.800960e-02 1.104843e-02 0.000000e+00 1.819280e-02 1.203317e-02 0.000000e+00 2.003213e-02 7.793663e-03 0.000000e+00 1.972963e-02 8.789597e-03 0.000000e+00 2.159803e-02 6.557900e-03 0.000000e+00 2.333480e-02 5.906013e-03 0.000000e+00 2.678890e-02 5.522403e-03 0.000000e+00 2.666180e-02 4.580420e-03 0.000000e+00 2.595167e-02 5.963150e-03 0.000000e+00 2.873617e-02 5.823340e-03 0.000000e+00 3.177633e-02 7.871073e-03 0.000000e+00 -1.665090e-02 2.273057e-02 0.000000e+00 3.417483e-02 1.093852e-02 0.000000e+00 -1.608407e-02 7.963640e-04 0.000000e+00 2.506613e-02 5.643273e-03 0.000000e+00 1.882490e-02 9.289963e-03 0.000000e+00 1.756077e-02 1.285037e-02 0.000000e+00 1.787597e-02 1.649417e-02 0.000000e+00 2.502437e-02 2.209247e-02 0.000000e+00 3.209617e-02 1.982723e-02 0.000000e+00 3.333877e-02 1.019487e-02 0.000000e+00 -2.258683e-02 6.357107e-04 0.000000e+00 -2.282593e-02 8.280787e-04 0.000000e+00 -2.233863e-02 7.786460e-04 0.000000e+00 -1.872067e-02 6.936587e-04 0.000000e+00 -1.896460e-02 8.847920e-04 0.000000e+00 -1.847633e-02 8.663967e-04 0.000000e+00 -1.489527e-02 6.508127e-04 0.000000e+00 -1.513917e-02 8.055097e-04 0.000000e+00 -1.467123e-02 8.379677e-04 0.000000e+00 -1.202210e-02 6.773313e-04 0.000000e+00 -1.226693e-02 8.489517e-04 0.000000e+00 -1.179600e-02 8.665563e-04 0.000000e+00 -9.124930e-03 6.613460e-04 0.000000e+00 -9.372613e-03 8.253240e-04 0.000000e+00 -8.877887e-03 8.484890e-04 0.000000e+00 -5.293817e-03 6.175843e-04 0.000000e+00 -5.543830e-03 7.353050e-04 0.000000e+00 -5.061887e-03 8.179117e-04 0.000000e+00 -1.435627e-03 6.882900e-04 0.000000e+00 -1.691273e-03 8.471230e-04 0.000000e+00 -1.182007e-03 8.926337e-04 0.000000e+00 2.539530e-02 4.113310e-03 0.000000e+00 3.586767e-02 1.610443e-02 0.000000e+00 1.321520e-03 2.492930e-02 0.000000e+00 -2.259507e-02 1.193533e-02 0.000000e+00 -2.258303e-02 1.040013e-02 0.000000e+00 -2.062893e-02 1.077192e-02 0.000000e+00 5.624867e-04 1.286269e-03 0.000000e+00 3.792780e-03 2.408993e-02 0.000000e+00 3.442803e-02 1.480360e-02 0.000000e+00 -1.880153e-02 1.980190e-02 0.000000e+00 -2.148737e-02 1.008898e-02 0.000000e+00 3.319267e-02 9.115627e-03 0.000000e+00 -2.043020e-02 1.197600e-02 0.000000e+00 -1.990343e-02 1.000308e-02 0.000000e+00 -2.029727e-02 8.987387e-03 0.000000e+00 -2.121147e-02 9.009147e-03 0.000000e+00 2.105560e-02 5.737430e-03 0.000000e+00 -2.091647e-02 1.256287e-03 0.000000e+00 -1.421800e-02 1.270137e-03 0.000000e+00 3.319577e-02 6.996180e-03 0.000000e+00 -4.605877e-03 1.223703e-03 0.000000e+00 -1.132327e-02 1.269920e-03 0.000000e+00 4.062860e-03 2.192527e-02 0.000000e+00 -6.372183e-03 1.203270e-03 0.000000e+00 9.379530e-03 4.036273e-03 0.000000e+00 -1.655530e-02 1.218693e-03 0.000000e+00 7.580757e-03 3.932737e-03 0.000000e+00 8.458090e-03 4.567830e-03 0.000000e+00 1.796320e-02 4.402587e-03 0.000000e+00 1.293797e-02 3.861143e-03 0.000000e+00 -5.262590e-05 1.424830e-03 0.000000e+00 1.452027e-02 3.629000e-03 0.000000e+00 1.380947e-02 4.266160e-03 0.000000e+00 1.534453e-02 3.923510e-03 0.000000e+00 5.835037e-03 3.779433e-03 0.000000e+00 6.683107e-03 4.412407e-03 0.000000e+00 -6.442880e-04 1.361610e-03 0.000000e+00 -3.323022e-04 1.604903e-03 0.000000e+00 1.122253e-02 4.017227e-03 0.000000e+00 1.214257e-02 4.492593e-03 0.000000e+00 1.375263e-03 3.070085e-04 0.000000e+00 1.301493e-03 2.336470e-03 0.000000e+00 -3.277010e-03 2.101097e-02 0.000000e+00 2.251423e-02 2.490727e-02 0.000000e+00 8.089197e-03 2.242460e-02 0.000000e+00 -1.876427e-02 1.390437e-02 0.000000e+00 3.698614e-04 1.614533e-03 0.000000e+00 -1.947213e-02 1.251523e-03 0.000000e+00 1.974917e-02 2.420257e-02 0.000000e+00 3.387750e-02 8.240943e-03 0.000000e+00 -1.799170e-02 1.179814e-03 0.000000e+00 -1.176068e-02 2.144077e-02 0.000000e+00 3.238230e-02 2.381337e-02 0.000000e+00 -7.395687e-03 2.365277e-02 0.000000e+00 1.993857e-02 5.931157e-03 0.000000e+00 1.937983e-02 5.150430e-03 0.000000e+00 1.944633e-02 6.994817e-03 0.000000e+00 3.448660e-02 1.294710e-02 0.000000e+00 4.141643e-03 3.723167e-03 0.000000e+00 4.991317e-03 4.310540e-03 0.000000e+00 -6.312497e-03 6.714737e-03 0.000000e+00 2.496660e-02 2.305317e-02 0.000000e+00 1.683837e-02 1.681310e-02 0.000000e+00 1.652663e-02 1.277687e-02 0.000000e+00 3.041873e-02 6.731043e-03 0.000000e+00 -1.768927e-02 1.650597e-02 0.000000e+00 -1.908480e-02 1.251903e-02 0.000000e+00 -1.555473e-02 2.079750e-02 0.000000e+00 -1.359300e-02 2.025970e-02 0.000000e+00 -1.691940e-02 1.939447e-02 0.000000e+00 1.798517e-02 8.923917e-03 0.000000e+00 1.696250e-02 1.067353e-02 0.000000e+00 1.650410e-02 1.479313e-02 0.000000e+00 1.592790e-02 1.380503e-02 0.000000e+00 1.607503e-02 1.591840e-02 0.000000e+00 1.770087e-02 1.881257e-02 0.000000e+00 1.916480e-02 2.062803e-02 0.000000e+00 1.788147e-02 2.011830e-02 0.000000e+00 1.969573e-02 2.180993e-02 0.000000e+00 2.297093e-02 2.271157e-02 0.000000e+00 2.690143e-02 2.298603e-02 0.000000e+00 2.879597e-02 2.255727e-02 0.000000e+00 -6.512660e-03 7.574000e-03 0.000000e+00 -1.995007e-02 8.117607e-03 0.000000e+00 3.504740e-02 1.688067e-02 0.000000e+00 -1.894403e-02 1.014177e-02 0.000000e+00 -7.349987e-03 2.114787e-02 0.000000e+00 -5.196277e-03 1.993430e-02 0.000000e+00 -9.446997e-03 2.020507e-02 0.000000e+00 -2.067583e-02 1.447960e-03 0.000000e+00 -2.042917e-02 1.231087e-03 0.000000e+00 -8.886500e-03 1.250753e-03 0.000000e+00 -1.469827e-02 1.216292e-03 0.000000e+00 -1.447363e-02 1.455700e-03 0.000000e+00 -1.705957e-02 1.154897e-03 0.000000e+00 -1.680960e-02 1.406491e-03 0.000000e+00 -1.276757e-02 1.177555e-03 0.000000e+00 -6.878477e-03 1.251793e-03 0.000000e+00 -6.581583e-03 1.438163e-03 0.000000e+00 -5.121853e-03 1.180634e-03 0.000000e+00 -4.898487e-03 1.396497e-03 0.000000e+00 6.176693e-03 2.114110e-02 0.000000e+00 -1.181397e-03 1.277357e-03 0.000000e+00 -9.149440e-04 1.524417e-03 0.000000e+00 1.706143e-02 4.306827e-03 0.000000e+00 -3.548013e-03 1.192055e-03 0.000000e+00 -1.033743e-02 1.176084e-03 0.000000e+00 -7.393873e-03 1.229387e-03 0.000000e+00 -7.111580e-03 1.435380e-03 0.000000e+00 1.840910e-02 5.239057e-03 0.000000e+00 -1.323273e-02 1.157485e-03 0.000000e+00 -1.301120e-02 1.329925e-03 0.000000e+00 -2.752223e-03 1.078088e-03 0.000000e+00 1.031033e-02 4.608240e-03 0.000000e+00 -3.058167e-04 2.343233e-02 0.000000e+00 2.463687e-02 4.735417e-03 0.000000e+00 -2.019217e-02 1.386713e-03 0.000000e+00 -1.995067e-02 1.184323e-03 0.000000e+00 2.366580e-03 3.065250e-03 0.000000e+00 -4.355273e-03 1.423023e-03 0.000000e+00 -4.070113e-03 1.227420e-03 0.000000e+00 1.009526e-02 2.170593e-02 0.000000e+00 -1.746697e-02 1.479723e-02 0.000000e+00 3.507447e-02 1.790477e-02 0.000000e+00 -1.923220e-02 1.499817e-03 0.000000e+00 -1.896953e-02 1.299470e-03 0.000000e+00 -7.892657e-03 1.218833e-03 0.000000e+00 -7.636993e-03 1.405167e-03 0.000000e+00 3.216070e-02 2.239113e-02 0.000000e+00 1.692673e-02 9.611747e-03 0.000000e+00 -5.908683e-03 1.051952e-03 0.000000e+00 -6.072330e-03 1.313210e-03 0.000000e+00 -5.621790e-03 1.053866e-03 0.000000e+00 3.324287e-02 2.149517e-02 0.000000e+00 1.838910e-02 7.061943e-03 0.000000e+00 1.791060e-02 6.086910e-03 0.000000e+00 1.778547e-02 7.916903e-03 0.000000e+00 1.647350e-03 3.013730e-03 0.000000e+00 1.189937e-02 2.295833e-02 0.000000e+00 -1.181543e-02 1.253783e-03 0.000000e+00 -1.157833e-02 1.469477e-03 0.000000e+00 -8.375413e-03 1.240317e-03 0.000000e+00 -8.630247e-03 1.457907e-03 0.000000e+00 -8.129540e-03 1.420007e-03 0.000000e+00 1.665350e-02 1.804840e-02 0.000000e+00 1.541827e-02 1.847280e-02 0.000000e+00 -1.776230e-02 1.294650e-03 0.000000e+00 -1.752967e-02 1.089090e-03 0.000000e+00 -2.140577e-02 1.217903e-03 0.000000e+00 -1.561423e-02 1.132254e-03 0.000000e+00 -1.846850e-02 1.276543e-03 0.000000e+00 -1.822093e-02 1.437890e-03 0.000000e+00 -2.330020e-02 1.083144e-03 0.000000e+00 2.390693e-02 2.344087e-02 0.000000e+00 2.177350e-02 2.288013e-02 0.000000e+00 1.611157e-02 1.158477e-02 0.000000e+00 3.092113e-02 2.471650e-02 0.000000e+00 3.546280e-02 1.497133e-02 0.000000e+00 3.606617e-04 2.127843e-02 0.000000e+00 2.258078e-03 2.061073e-02 0.000000e+00 -1.355598e-03 2.000827e-02 0.000000e+00 -1.972287e-02 1.401673e-03 0.000000e+00 -1.010707e-02 1.326747e-03 0.000000e+00 -9.867473e-03 1.131897e-03 0.000000e+00 -2.556247e-03 1.304888e-03 0.000000e+00 -2.238703e-03 1.160091e-03 0.000000e+00 2.643367e-03 4.001433e-03 0.000000e+00 3.394317e-03 4.362860e-03 0.000000e+00 -2.117707e-02 1.450323e-03 0.000000e+00 -2.310203e-02 1.450570e-03 0.000000e+00 -2.281310e-02 1.205986e-03 0.000000e+00 3.402560e-02 1.855147e-02 0.000000e+00 2.498137e-02 2.521023e-02 0.000000e+00 -1.607943e-02 1.115453e-03 0.000000e+00 1.881230e-02 2.295780e-02 0.000000e+00 -1.652817e-02 1.773677e-02 0.000000e+00 -2.186673e-02 1.100641e-03 0.000000e+00 -2.165277e-02 1.339573e-03 0.000000e+00 2.791607e-02 2.327950e-02 0.000000e+00 3.086020e-02 2.209207e-02 0.000000e+00 -2.045917e-02 7.224357e-03 0.000000e+00 -2.233617e-02 1.093514e-03 0.000000e+00 -2.257153e-02 1.328486e-03 0.000000e+00 -2.210267e-02 1.245204e-03 0.000000e+00 -1.630523e-02 1.364156e-03 0.000000e+00 -1.106987e-02 1.462387e-03 0.000000e+00 -1.081797e-02 1.235763e-03 0.000000e+00 -1.396703e-02 1.472770e-03 0.000000e+00 -1.371423e-02 1.245997e-03 0.000000e+00 -1.584040e-02 1.290324e-03 0.000000e+00 2.381590e-02 2.451850e-02 0.000000e+00 1.709490e-02 2.249103e-02 0.000000e+00 1.669500e-02 2.083343e-02 0.000000e+00 1.559117e-02 2.335937e-02 0.000000e+00 -2.119297e-02 7.251023e-03 0.000000e+00 3.407990e-02 1.960833e-02 0.000000e+00 -1.846783e-02 9.088497e-03 0.000000e+00 -1.908003e-02 8.080033e-03 0.000000e+00 -2.159807e-02 8.166033e-03 0.000000e+00 3.308127e-02 2.031973e-02 0.000000e+00 -2.174757e-02 6.357997e-03 0.000000e+00 -2.243517e-02 6.670187e-03 0.000000e+00 -2.149623e-02 5.561960e-03 0.000000e+00 -2.313723e-02 4.654507e-03 0.000000e+00 -2.184190e-02 4.821557e-03 0.000000e+00 -2.142183e-02 4.208163e-03 0.000000e+00 -2.172737e-02 3.609793e-03 0.000000e+00 -2.084030e-02 4.205837e-03 0.000000e+00 -2.149360e-02 3.043390e-03 0.000000e+00 -2.233293e-02 3.631170e-03 0.000000e+00 -2.246367e-02 4.419383e-03 0.000000e+00 -2.257330e-02 3.067217e-03 0.000000e+00 -2.068393e-02 5.585367e-03 0.000000e+00 -2.020147e-02 6.354737e-03 0.000000e+00 -2.044807e-02 4.842637e-03 0.000000e+00 -2.226810e-02 2.529950e-03 0.000000e+00 -2.179397e-02 2.527500e-03 0.000000e+00 -1.515540e-02 1.123848e-03 0.000000e+00 -1.539063e-02 1.296853e-03 0.000000e+00 -1.493853e-02 1.347475e-03 0.000000e+00 -1.228723e-02 1.218807e-03 0.000000e+00 -1.254413e-02 1.381073e-03 0.000000e+00 -1.206183e-02 1.434413e-03 0.000000e+00 3.214527e-02 6.989957e-03 0.000000e+00 6.389880e-03 1.902650e-02 0.000000e+00 -1.586587e-02 1.658010e-03 0.000000e+00 -1.832413e-02 1.145363e-02 0.000000e+00 -9.392020e-03 1.205290e-03 0.000000e+00 -9.636287e-03 1.353064e-03 0.000000e+00 -9.152950e-03 1.443577e-03 0.000000e+00 -3.249300e-03 1.330035e-03 0.000000e+00 -1.719170e-03 1.210353e-03 0.000000e+00 -2.005993e-03 1.373540e-03 0.000000e+00 -1.462913e-03 1.436243e-03 0.000000e+00 1.648870e-02 5.063407e-03 0.000000e+00 1.689197e-02 6.007020e-03 0.000000e+00 -1.704230e-02 1.148207e-02 0.000000e+00 3.122137e-02 6.198890e-03 0.000000e+00 -1.056943e-02 1.402683e-03 0.000000e+00 -2.252480e-02 2.045517e-03 0.000000e+00 1.030179e-02 5.799427e-03 0.000000e+00 2.140783e-02 2.399820e-02 0.000000e+00 -3.239919e-04 2.043840e-03 0.000000e+00 1.366043e-02 2.225297e-02 0.000000e+00 1.032663e-02 1.971087e-02 0.000000e+00 -3.798490e-03 1.409003e-03 0.000000e+00 -1.617587e-02 1.434620e-02 0.000000e+00 -3.204307e-03 1.748133e-03 0.000000e+00 4.320971e-04 2.018573e-03 0.000000e+00 1.613933e-02 8.912403e-03 0.000000e+00 -2.065897e-02 1.835063e-03 0.000000e+00 1.020964e-03 1.152077e-03 0.000000e+00 -2.234517e-02 7.895970e-03 0.000000e+00 -2.305423e-02 9.050233e-03 0.000000e+00 -2.304607e-02 2.604983e-03 0.000000e+00 4.973437e-03 5.352780e-03 0.000000e+00 1.262162e-03 3.638083e-03 0.000000e+00 2.749337e-02 2.511667e-02 0.000000e+00 -2.096830e-02 3.020557e-03 0.000000e+00 2.989507e-02 2.290207e-02 0.000000e+00 -2.062053e-02 3.584633e-03 0.000000e+00 -1.617197e-02 1.723140e-03 0.000000e+00 -1.328490e-02 1.839800e-02 0.000000e+00 -1.485540e-02 1.727810e-02 0.000000e+00 -2.298653e-02 1.924353e-03 0.000000e+00 2.607693e-02 2.465523e-02 0.000000e+00 -2.078753e-02 2.558330e-03 0.000000e+00 7.870787e-04 2.389910e-03 0.000000e+00 1.792010e-05 2.267807e-03 0.000000e+00 2.597113e-02 2.357580e-02 0.000000e+00 1.491887e-02 1.151110e-02 0.000000e+00 -2.007123e-02 3.467573e-03 0.000000e+00 8.393337e-03 5.827850e-03 0.000000e+00 9.306243e-03 6.487480e-03 0.000000e+00 -2.314423e-02 5.869487e-03 0.000000e+00 1.527917e-02 1.995210e-02 0.000000e+00 -1.259567e-02 1.740287e-03 0.000000e+00 -2.094380e-02 2.112367e-03 0.000000e+00 -1.730253e-02 1.283696e-03 0.000000e+00 1.403352e-03 4.364327e-03 0.000000e+00 2.065327e-03 4.676157e-03 0.000000e+00 -1.560227e-02 1.880023e-03 0.000000e+00 -1.535320e-02 1.676937e-03 0.000000e+00 4.497693e-03 1.769773e-02 0.000000e+00 -4.969913e-03 1.795367e-03 0.000000e+00 -3.042387e-03 1.085045e-03 0.000000e+00 5.235677e-04 2.906910e-03 0.000000e+00 4.540733e-05 2.757087e-03 0.000000e+00 6.527940e-04 3.477823e-03 0.000000e+00 -7.080913e-03 1.845693e-03 0.000000e+00 -8.635597e-03 1.886973e-03 0.000000e+00 -9.423800e-04 1.962860e-03 0.000000e+00 -6.634137e-04 2.238990e-03 0.000000e+00 -1.395223e-02 1.915293e-03 0.000000e+00 -5.431743e-03 1.298868e-03 0.000000e+00 5.720470e-03 6.006920e-03 0.000000e+00 6.586420e-03 5.597653e-03 0.000000e+00 1.500233e-02 9.008217e-03 0.000000e+00 1.434810e-02 1.025143e-02 0.000000e+00 -1.310030e-02 1.721963e-03 0.000000e+00 -1.290820e-02 1.928807e-03 0.000000e+00 7.230303e-04 5.660440e-04 0.000000e+00 3.466220e-03 5.564160e-03 0.000000e+00 4.195667e-03 5.966707e-03 0.000000e+00 1.399070e-02 5.334313e-03 0.000000e+00 -1.472540e-02 1.559627e-02 0.000000e+00 -2.914127e-03 1.897733e-03 0.000000e+00 -2.617640e-03 1.667727e-03 0.000000e+00 1.374833e-02 2.050330e-02 0.000000e+00 1.223713e-02 5.621407e-03 0.000000e+00 3.553440e-02 1.295937e-02 0.000000e+00 8.533750e-03 1.831493e-02 0.000000e+00 -1.982320e-02 1.812960e-03 0.000000e+00 1.221863e-02 1.921360e-02 0.000000e+00 -3.810183e-03 1.837467e-03 0.000000e+00 -3.514713e-03 2.038617e-03 0.000000e+00 -1.601317e-02 1.273710e-02 0.000000e+00 -2.012940e-02 1.796157e-03 0.000000e+00 -1.871777e-02 1.518483e-03 0.000000e+00 -1.054170e-02 1.787013e-03 0.000000e+00 1.667390e-02 7.839290e-03 0.000000e+00 -7.617220e-03 1.751590e-03 0.000000e+00 -7.343433e-03 1.986123e-03 0.000000e+00 -2.034953e-02 2.027633e-03 0.000000e+00 -1.451710e-02 1.883743e-03 0.000000e+00 -1.424667e-02 2.140703e-03 0.000000e+00 -1.999300e-02 2.835090e-03 0.000000e+00 -1.817387e-02 1.847387e-03 0.000000e+00 -1.158917e-02 1.908830e-03 0.000000e+00 -1.347337e-02 1.379783e-03 0.000000e+00 -7.987167e-03 6.701330e-03 0.000000e+00 1.321377e-02 6.058110e-03 0.000000e+00 -1.980787e-02 4.769940e-03 0.000000e+00 -1.628837e-02 2.102513e-03 0.000000e+00 2.973440e-02 2.410427e-02 0.000000e+00 -1.769260e-02 1.627513e-03 0.000000e+00 -1.787493e-02 1.922173e-03 0.000000e+00 -1.739723e-02 1.621343e-03 0.000000e+00 1.130857e-02 6.337227e-03 0.000000e+00 -1.209114e-03 1.815727e-02 0.000000e+00 -1.105033e-02 1.894543e-03 0.000000e+00 -1.131457e-02 2.141430e-03 0.000000e+00 -1.077070e-02 2.052250e-03 0.000000e+00 -2.122127e-02 1.919300e-03 0.000000e+00 1.556063e-02 4.872913e-03 0.000000e+00 1.478577e-02 1.385910e-02 0.000000e+00 -2.160133e-02 2.047027e-03 0.000000e+00 -1.965080e-02 4.016080e-03 0.000000e+00 7.419317e-03 6.378003e-03 0.000000e+00 -2.036153e-02 2.489923e-03 0.000000e+00 -4.711743e-03 1.994110e-03 0.000000e+00 -4.389713e-03 1.794560e-03 0.000000e+00 2.479725e-03 1.849780e-02 0.000000e+00 -1.961513e-02 2.090693e-03 0.000000e+00 -1.962000e-02 2.616773e-03 0.000000e+00 -1.927487e-02 1.927700e-03 0.000000e+00 -1.024073e-02 1.970717e-03 0.000000e+00 -1.003810e-02 1.737050e-03 0.000000e+00 2.840220e-02 2.433070e-02 0.000000e+00 -2.839806e-03 1.707190e-02 0.000000e+00 1.419180e-02 1.275727e-02 0.000000e+00 -8.766773e-03 6.468413e-03 0.000000e+00 -1.944673e-02 6.297737e-03 0.000000e+00 -1.883440e-02 7.129783e-03 0.000000e+00 -2.347927e-02 3.404060e-03 0.000000e+00 -4.905557e-03 1.784623e-02 0.000000e+00 -1.239120e-02 1.986960e-03 0.000000e+00 -1.211427e-02 1.843353e-03 0.000000e+00 -2.507346e-03 1.531240e-02 0.000000e+00 1.491760e-02 5.646557e-03 0.000000e+00 -1.687710e-02 1.822007e-03 0.000000e+00 -1.722177e-02 1.908060e-03 0.000000e+00 -1.665217e-02 2.165210e-03 0.000000e+00 -1.156863e-02 1.759353e-02 0.000000e+00 -8.929953e-03 2.113863e-03 0.000000e+00 -9.191053e-03 1.877620e-03 0.000000e+00 -5.565400e-03 1.658247e-03 0.000000e+00 -5.326937e-03 1.938883e-03 0.000000e+00 1.625890e-02 6.904440e-03 0.000000e+00 -1.668350e-02 1.015628e-02 0.000000e+00 -1.928900e-02 5.455670e-03 0.000000e+00 7.287923e-04 1.731450e-02 0.000000e+00 -1.602497e-02 2.461033e-03 0.000000e+00 -1.454623e-02 1.242220e-02 0.000000e+00 -1.871353e-02 2.036793e-03 0.000000e+00 -1.900797e-02 2.245663e-03 0.000000e+00 -1.841720e-02 2.204350e-03 0.000000e+00 9.272310e-03 7.908027e-03 0.000000e+00 5.406847e-03 7.079490e-03 0.000000e+00 -1.748913e-02 9.074580e-03 0.000000e+00 -1.187870e-02 2.102077e-03 0.000000e+00 -1.339997e-02 1.762370e-03 0.000000e+00 -8.119757e-03 1.819140e-03 0.000000e+00 -8.370980e-03 2.068517e-03 0.000000e+00 -7.863100e-03 1.964390e-03 0.000000e+00 -6.282423e-03 1.662493e-02 0.000000e+00 1.341867e-02 7.401017e-03 0.000000e+00 7.169850e-03 7.685097e-03 0.000000e+00 6.023330e-03 7.977317e-03 0.000000e+00 8.109937e-03 8.555490e-03 0.000000e+00 -1.907997e-02 3.900743e-03 0.000000e+00 1.442253e-02 1.745567e-02 0.000000e+00 1.521260e-02 6.734470e-03 0.000000e+00 -8.936043e-03 2.560963e-03 0.000000e+00 -9.530517e-03 2.042283e-03 0.000000e+00 -1.858753e-02 5.335500e-03 0.000000e+00 -1.721137e-02 7.948403e-03 0.000000e+00 1.489443e-02 1.613657e-02 0.000000e+00 1.449060e-02 7.765133e-03 0.000000e+00 -1.506217e-02 1.719250e-03 0.000000e+00 -5.722840e-03 6.350240e-03 0.000000e+00 -1.486537e-02 2.016110e-03 0.000000e+00 1.290363e-02 1.283903e-02 0.000000e+00 -6.481560e-03 1.889177e-03 0.000000e+00 4.597220e-03 1.556333e-02 0.000000e+00 -2.180413e-02 1.699720e-03 0.000000e+00 -5.919093e-03 1.674503e-03 0.000000e+00 1.418137e-02 1.506537e-02 0.000000e+00 8.679277e-03 1.630933e-02 0.000000e+00 6.634933e-03 1.488650e-02 0.000000e+00 -6.118923e-03 2.015577e-03 0.000000e+00 -2.209237e-02 1.623540e-03 0.000000e+00 1.290100e-02 1.513930e-02 0.000000e+00 -5.440393e-03 2.361677e-03 0.000000e+00 -6.747787e-03 2.113120e-03 0.000000e+00 -6.884593e-03 6.191627e-03 0.000000e+00 -3.612637e-03 6.436050e-03 0.000000e+00 8.712427e-04 1.544710e-02 0.000000e+00 2.721702e-03 1.449600e-02 0.000000e+00 -7.342040e-04 1.453037e-02 0.000000e+00 -1.794443e-02 7.012070e-03 0.000000e+00 -2.361790e-02 7.368343e-04 0.000000e+00 -3.923863e-03 1.428817e-02 0.000000e+00 -8.584053e-03 2.775157e-03 0.000000e+00 -8.313347e-03 2.509600e-03 0.000000e+00 -1.684213e-02 2.630087e-03 0.000000e+00 1.991533e-03 5.710110e-03 0.000000e+00 2.641477e-03 6.236687e-03 0.000000e+00 1.221723e-02 1.401480e-02 0.000000e+00 -7.292483e-04 2.734400e-03 0.000000e+00 -1.785530e-02 6.059853e-03 0.000000e+00 -6.783110e-03 2.573143e-03 0.000000e+00 -1.362603e-02 2.071107e-03 0.000000e+00 -1.496333e-03 1.819270e-03 0.000000e+00 -1.242253e-03 2.098827e-03 0.000000e+00 -1.195750e-02 2.566263e-03 0.000000e+00 -2.054667e-03 1.779927e-03 0.000000e+00 -1.801263e-03 1.999767e-03 0.000000e+00 1.296877e-02 1.042496e-02 0.000000e+00 1.225137e-02 1.176640e-02 0.000000e+00 -3.623393e-04 3.028530e-03 0.000000e+00 -1.627190e-02 7.904603e-03 0.000000e+00 1.439277e-04 3.924113e-03 0.000000e+00 -1.326063e-02 1.503653e-02 0.000000e+00 -2.348770e-03 1.929317e-03 0.000000e+00 -1.433060e-02 1.096297e-02 0.000000e+00 -1.564497e-02 2.303673e-03 0.000000e+00 -3.510617e-03 2.524937e-03 0.000000e+00 -1.324417e-02 1.347157e-02 0.000000e+00 -1.543873e-02 9.952083e-03 0.000000e+00 -1.065270e-02 2.497867e-03 0.000000e+00 4.418123e-03 7.038540e-03 0.000000e+00 1.135227e-02 7.508490e-03 0.000000e+00 1.033455e-02 1.573907e-02 0.000000e+00 1.031156e-02 8.391237e-03 0.000000e+00 -1.429883e-02 2.682617e-03 0.000000e+00 -9.614553e-03 2.512657e-03 0.000000e+00 -9.281180e-03 2.795093e-03 0.000000e+00 -5.633190e-03 1.482637e-02 0.000000e+00 -4.672330e-03 2.446987e-03 0.000000e+00 -1.853557e-02 4.534433e-03 0.000000e+00 -4.116247e-03 2.027420e-03 0.000000e+00 -9.563047e-03 1.821953e-02 0.000000e+00 -1.167436e-02 1.591390e-02 0.000000e+00 -1.130407e-02 2.620610e-03 0.000000e+00 -1.092183e-02 2.819340e-03 0.000000e+00 -5.878687e-03 2.422113e-03 0.000000e+00 -1.774403e-02 2.256007e-03 0.000000e+00 -1.738623e-02 2.248063e-03 0.000000e+00 -1.043736e-02 1.510007e-02 0.000000e+00 -5.043957e-03 2.671037e-03 0.000000e+00 -1.661263e-02 3.032210e-03 0.000000e+00 -1.615927e-02 2.925853e-03 0.000000e+00 -1.530490e-02 8.826580e-03 0.000000e+00 -1.788193e-02 2.643970e-03 0.000000e+00 -1.355037e-02 2.552597e-03 0.000000e+00 -1.165747e-02 2.852197e-03 0.000000e+00 1.848327e-04 4.713570e-03 0.000000e+00 8.348890e-04 4.993523e-03 0.000000e+00 -3.111490e-03 2.688160e-03 0.000000e+00 -2.825407e-03 2.351440e-03 0.000000e+00 -9.488293e-03 7.056850e-03 0.000000e+00 -1.028449e-02 2.440730e-03 0.000000e+00 -1.392873e-02 2.938697e-03 0.000000e+00 -8.161880e-03 1.682443e-02 0.000000e+00 -1.825617e-02 2.667100e-03 0.000000e+00 -1.253403e-02 2.373363e-03 0.000000e+00 -1.288663e-02 2.336837e-03 0.000000e+00 -1.233590e-02 2.693943e-03 0.000000e+00 -1.315607e-02 2.673423e-03 0.000000e+00 -6.811970e-03 1.365983e-02 0.000000e+00 -1.711017e-02 5.774600e-03 0.000000e+00 -3.930453e-04 3.624643e-03 0.000000e+00 -1.173653e-02 3.380237e-03 0.000000e+00 -1.300040e-02 1.071463e-02 0.000000e+00 1.061252e-02 1.415900e-02 0.000000e+00 -1.582760e-02 7.009580e-03 0.000000e+00 -1.619673e-02 6.166447e-03 0.000000e+00 -6.036470e-03 2.818337e-03 0.000000e+00 -1.535920e-02 2.569007e-03 0.000000e+00 -2.865293e-03 6.514370e-03 0.000000e+00 -1.187350e-02 1.296927e-02 0.000000e+00 -1.065296e-02 1.372040e-02 0.000000e+00 -1.184537e-02 1.167157e-02 0.000000e+00 -1.891530e-02 3.224713e-03 0.000000e+00 -7.420233e-03 2.372283e-03 0.000000e+00 -7.764477e-03 2.356900e-03 0.000000e+00 -7.193037e-03 2.691877e-03 0.000000e+00 3.727220e-03 7.854223e-03 0.000000e+00 1.248573e-02 8.135577e-03 0.000000e+00 1.194527e-02 1.640010e-02 0.000000e+00 -4.269800e-03 2.476160e-03 0.000000e+00 -1.788833e-02 4.352280e-03 0.000000e+00 -6.495797e-03 2.888003e-03 0.000000e+00 -9.475977e-04 3.883497e-03 0.000000e+00 -5.739203e-03 3.297240e-03 0.000000e+00 1.223147e-02 9.438670e-03 0.000000e+00 -6.610013e-03 3.399960e-03 0.000000e+00 -3.599217e-03 1.270117e-02 0.000000e+00 -1.723153e-02 2.626887e-03 0.000000e+00 -3.959640e-03 2.772527e-03 0.000000e+00 -9.736680e-03 1.756013e-03 0.000000e+00 -1.840017e-02 3.179683e-03 0.000000e+00 -5.184983e-03 3.210377e-03 0.000000e+00 6.821800e-03 1.312750e-02 0.000000e+00 -1.200188e-03 2.899803e-03 0.000000e+00 -1.387831e-03 3.452787e-03 0.000000e+00 -4.043500e-03 3.305787e-03 0.000000e+00 -1.438377e-02 8.331100e-03 0.000000e+00 -1.384543e-02 3.556480e-03 0.000000e+00 -1.755063e-02 2.919223e-03 0.000000e+00 -1.744230e-02 3.436230e-03 0.000000e+00 -8.493413e-03 3.288777e-03 0.000000e+00 -1.473227e-02 7.242393e-03 0.000000e+00 -1.468030e-02 2.832790e-03 0.000000e+00 -1.057470e-03 4.532543e-03 0.000000e+00 -6.125120e-03 3.665847e-03 0.000000e+00 -8.930457e-03 1.538460e-02 0.000000e+00 -4.699720e-03 3.569023e-03 0.000000e+00 -4.805580e-03 4.196547e-03 0.000000e+00 -1.134593e-02 3.706283e-03 0.000000e+00 -1.088463e-02 3.376973e-03 0.000000e+00 -1.791760e-02 3.673560e-03 0.000000e+00 -1.298827e-02 3.175387e-03 0.000000e+00 -1.252070e-02 3.159380e-03 0.000000e+00 1.148431e-03 5.901070e-03 0.000000e+00 -7.526313e-03 6.125930e-03 0.000000e+00 -6.348597e-03 1.218810e-02 0.000000e+00 9.944867e-03 1.307290e-02 0.000000e+00 1.089731e-02 1.185607e-02 0.000000e+00 -2.461100e-03 2.350120e-03 0.000000e+00 1.075313e-02 9.606397e-03 0.000000e+00 -1.222137e-02 3.559740e-03 0.000000e+00 -1.719517e-02 4.868093e-03 0.000000e+00 -4.620123e-04 5.063147e-03 0.000000e+00 -1.001478e-02 2.728000e-03 0.000000e+00 1.275373e-02 1.764527e-02 0.000000e+00 -7.362847e-03 3.119283e-03 0.000000e+00 -7.963500e-03 2.652733e-03 0.000000e+00 -4.845170e-03 1.176763e-02 0.000000e+00 -1.490040e-02 3.914223e-03 0.000000e+00 8.487523e-03 1.261080e-02 0.000000e+00 1.013637e-02 1.068235e-02 0.000000e+00 -8.229780e-03 1.401857e-02 0.000000e+00 8.653530e-03 1.097362e-02 0.000000e+00 2.589219e-03 1.276427e-02 0.000000e+00 -1.329927e-02 3.672343e-03 0.000000e+00 7.731677e-03 1.001202e-02 0.000000e+00 4.151930e-03 9.101213e-03 0.000000e+00 -9.338280e-03 1.308823e-02 0.000000e+00 -7.067137e-03 3.512507e-03 0.000000e+00 5.459317e-03 9.183357e-03 0.000000e+00 -2.366837e-02 7.629943e-03 0.000000e+00 -1.689370e-02 3.546017e-03 0.000000e+00 -1.918807e-02 2.742643e-03 0.000000e+00 3.843907e-03 1.169663e-02 0.000000e+00 -9.268630e-03 3.276373e-03 0.000000e+00 -8.832853e-03 3.555863e-03 0.000000e+00 -5.758563e-04 1.288380e-02 0.000000e+00 8.971070e-04 1.206880e-02 0.000000e+00 -2.024352e-03 1.207883e-02 0.000000e+00 -2.239873e-02 1.694233e-03 0.000000e+00 -1.432877e-02 4.114027e-03 0.000000e+00 -1.414667e-02 6.556673e-03 0.000000e+00 -1.801880e-03 2.471090e-03 0.000000e+00 -1.699353e-03 4.750107e-03 0.000000e+00 -6.133437e-03 4.232630e-03 0.000000e+00 -5.518310e-03 4.536950e-03 0.000000e+00 -1.044850e-02 3.660183e-03 0.000000e+00 -1.139543e-02 4.312073e-03 0.000000e+00 -1.434227e-03 2.540360e-03 0.000000e+00 -7.188567e-03 1.122603e-02 0.000000e+00 -7.302283e-03 4.046530e-03 0.000000e+00 -1.550540e-02 5.481517e-03 0.000000e+00 -2.167613e-03 2.672053e-03 0.000000e+00 -1.539767e-02 3.087490e-03 0.000000e+00 -1.581773e-02 3.286977e-03 0.000000e+00 -1.494727e-02 3.272157e-03 0.000000e+00 -1.067011e-02 1.124327e-02 0.000000e+00 -7.789067e-03 3.095523e-03 0.000000e+00 -8.048273e-03 3.466010e-03 0.000000e+00 -1.238680e-02 4.119857e-03 0.000000e+00 -1.299713e-02 4.216453e-03 0.000000e+00 2.680020e-03 7.454917e-03 0.000000e+00 -2.970020e-03 3.209820e-03 0.000000e+00 -7.857200e-03 4.023793e-03 0.000000e+00 -3.453007e-03 3.579857e-03 0.000000e+00 -3.493653e-03 4.179940e-03 0.000000e+00 -2.390450e-03 3.195033e-03 0.000000e+00 -4.606983e-03 1.039577e-02 0.000000e+00 -6.130560e-04 5.782130e-03 0.000000e+00 -1.266643e-02 9.575283e-03 0.000000e+00 -1.332287e-02 8.581087e-03 0.000000e+00 -1.268200e-02 7.725413e-03 0.000000e+00 -1.315730e-02 6.789707e-03 0.000000e+00 3.280390e-03 1.013619e-02 0.000000e+00 1.974900e-03 9.722170e-03 0.000000e+00 1.799240e-03 8.287883e-03 0.000000e+00 8.463053e-04 1.058714e-02 0.000000e+00 -9.626547e-03 3.592587e-03 0.000000e+00 -6.853477e-03 4.500767e-03 0.000000e+00 -5.055653e-03 6.331243e-03 0.000000e+00 -4.190007e-03 4.533393e-03 0.000000e+00 -1.195147e-02 4.546143e-03 0.000000e+00 -1.581953e-02 4.818047e-03 0.000000e+00 -1.003932e-02 3.326650e-03 0.000000e+00 -2.030290e-03 3.625170e-03 0.000000e+00 -3.204090e-03 9.853840e-03 0.000000e+00 -1.455067e-02 5.638930e-03 0.000000e+00 -1.039437e-02 4.353167e-03 0.000000e+00 -1.497640e-02 2.423243e-03 0.000000e+00 -1.088000e-02 4.675747e-03 0.000000e+00 -2.381790e-02 2.182400e-03 0.000000e+00 -9.383557e-03 1.190880e-02 0.000000e+00 -1.655773e-02 3.962253e-03 0.000000e+00 -5.784650e-03 9.531123e-03 0.000000e+00 -6.862807e-03 9.940920e-03 0.000000e+00 -8.335000e-03 4.442427e-03 0.000000e+00 -2.919210e-03 4.527097e-03 0.000000e+00 6.227577e-03 1.034767e-02 0.000000e+00 -1.867412e-03 1.060337e-02 0.000000e+00 -1.065447e-02 1.018453e-02 0.000000e+00 -1.149577e-02 9.473480e-03 0.000000e+00 -1.867620e-03 5.471200e-03 0.000000e+00 -1.376780e-03 5.972620e-03 0.000000e+00 -1.104653e-02 8.517377e-03 0.000000e+00 -1.157633e-02 7.763507e-03 0.000000e+00 -1.659587e-02 4.596470e-03 0.000000e+00 -7.007970e-03 5.068920e-03 0.000000e+00 -3.196677e-03 8.573187e-03 0.000000e+00 -9.762650e-03 4.616700e-03 0.000000e+00 -1.593513e-02 3.809570e-03 0.000000e+00 -1.327447e-02 4.932837e-03 0.000000e+00 -5.498397e-03 5.181830e-03 0.000000e+00 -9.607103e-03 5.344920e-03 0.000000e+00 -1.276360e-02 5.442600e-03 0.000000e+00 -1.263253e-02 6.207270e-03 0.000000e+00 -1.205093e-02 5.152503e-03 0.000000e+00 -8.290273e-03 5.111377e-03 0.000000e+00 -7.676610e-03 5.384690e-03 0.000000e+00 -3.055120e-03 5.228960e-03 0.000000e+00 -2.536117e-03 5.696400e-03 0.000000e+00 -2.506078e-04 6.572903e-03 0.000000e+00 -4.697180e-04 9.926680e-03 0.000000e+00 -4.262470e-03 5.236267e-03 0.000000e+00 -4.858130e-03 5.544300e-03 0.000000e+00 -3.702027e-03 5.584677e-03 0.000000e+00 -8.424880e-03 1.119940e-02 0.000000e+00 -1.090533e-02 5.383190e-03 0.000000e+00 -1.152023e-02 5.625877e-03 0.000000e+00 -1.026416e-02 5.788830e-03 0.000000e+00 6.173822e-04 6.719787e-03 0.000000e+00 -8.660552e-04 7.175573e-03 0.000000e+00 -8.764823e-03 1.001159e-02 0.000000e+00 -9.707867e-03 9.662257e-03 0.000000e+00 -1.029816e-02 6.652047e-03 0.000000e+00 -2.228497e-03 8.033143e-03 0.000000e+00 8.143252e-04 7.898173e-03 0.000000e+00 -1.405993e-02 4.946273e-03 0.000000e+00 5.483707e-03 1.182597e-02 0.000000e+00 -6.567883e-03 5.545747e-03 0.000000e+00 -5.981993e-03 5.589420e-03 0.000000e+00 -7.858340e-03 9.308147e-03 0.000000e+00 -1.526510e-03 6.728503e-03 0.000000e+00 -9.964460e-03 8.622287e-03 0.000000e+00 -8.919583e-03 5.619700e-03 0.000000e+00 -8.865513e-03 4.151730e-03 0.000000e+00 -2.231940e-03 4.273443e-03 0.000000e+00 -2.346527e-03 7.045053e-03 0.000000e+00 -4.443163e-03 7.905127e-03 0.000000e+00 -1.176603e-02 6.318157e-03 0.000000e+00 -9.404010e-03 4.189653e-03 0.000000e+00 -8.121687e-03 8.318447e-03 0.000000e+00 -5.628243e-03 8.321133e-03 0.000000e+00 -9.284763e-03 7.981923e-03 0.000000e+00 -4.370603e-03 6.874583e-03 0.000000e+00 -7.545610e-03 7.626290e-03 0.000000e+00 -1.546820e-02 4.252150e-03 0.000000e+00 -1.118513e-02 6.938687e-03 0.000000e+00 -3.260382e-04 8.671997e-03 0.000000e+00  </DataArray>
</Points>
<Cells>
 <DataArray type="Int32" Name="connectivity" format="ascii">0 1 2 3 4 5 6 7 8 9 10 11 12 13 14 15 16 17 18 19 20 21 22 23 24 25 26 27 28 29 30 31 32 33 34 35 36 37 38 39 40 41 42 43 44 45 46 47 48 49 50 51 52 53 54 55 56 57 58 59 60 61 62 63 64 65 66 67 68 69 70 71 72 73 74 75 76 77 78 79 80 81 82 83 84 85 86 87 88 89 90 91 92 93 94 95 96 97 98 99 100 101 102 103 104 105 106 107 108 109 110 111 112 113 114 115 116 117 118 119 120 121 122 123 124 125 126 127 128 129 130 131 132 133 134 135 136 137 138 139 140 141 142 143 144 145 146 147 148 149 150 151 152 153 154 155 156 157 158 159 160 161 162 163 164 165 166 167 168 169 170 171 172 173 174 175 176 177 178 179 180 181 182 183 184 185 186 187 188 189 190 191 192 193 194 195 196 197 198 199 200 201 202 203 204 205 206 207 208 209 210 211 212 213 214 215 216 217 218 219 220 221 222 223 224 225 226 227 228 229 230 231 232 233 234 235 236 237 238 239 240 241 242 243 244 245 246 247 248 249 250 251 252 253 254 255 256 257 258 259 260 261 262 263 264 265 266 267 268 269 270 271 272 273 274 275 276 277 278 279 280 281 282 283 284 285 286 287 288 289 290 291 292 293 294 295 296 297 298 299 300 301 302 303 304 305 306 307 308 309 310 311 312 313 314 315 316 317 318 319 320 321 322 323 324 325 326 327 328 329 330 331 332 333 334 335 336 337 338 339 340 341 342 343 344 345 346 347 348 349 350 351 352 353 354 355 356 357 358 359 360 361 362 363 364 365 366 367 368 369 370 371 372 373 374 375 376 377 378 379 380 381 382 383 384 385 386 387 388 389 390 391 392 393 394 395 396 397 398 399 400 401 402 403 404 405 406 407 408 409 410 411 412 413 414 415 416 417 418 419 420 421 422 423 424 425 426 427 428 429 430 431 432 433 434 435 436 437 438 439 440 441 442 443 444 445 446 447 448 449 450 451 452 453 454 455 456 457 458 459 460 461 462 463 464 465 466 467 468 469 470 471 472 473 474 475 476 477 478 479 480 481 482 483 484 485 486 487 488 489 490 491 492 493 494 495 496 497 498 499 500 501 502 503 504 505 506 507 508 509 510 511 512 513 514 515 516 517 518 519 520 521 522 523 524 525 526 527 528 529 530 531 532 533 534 535 536 537 538 539 540 541 542 543 544 545 546 547 548 549 550 551 552 553 554 555 556 557 558 559 560 561 562 563 564 565 566 567 568 569 570 571 572 573 574 575 576 577 578 579 580 581 582 583 584 585 586 587 588 589 590 591 592 593 594 595 596 597 598 599 600 601 602 603 604 605 606 607 608 609 610 611 612 613 614 615 616 617 618 619 620 621 622 623 624 625 626 627 628 629 630 631 632 633 634 635 636 637 638 639 640 641 642 643 644 645 646 647 648 649 650 651 652 653 654 655 656 657 658 659 660 661 662 663 664 665 666 667 668 669 670 671 672 673 674 675 676 677 678 679 680 681 682 683 684 685 686 687 688 689 690 691 692 693 694 695 696 697 698 699 700 701 702 703 704 705 706 707 708 709 710 711 712 713 714 715 716 717 718 719 720 721 722 723 724 725 726 727 728 729 730 731 732 733 734 735 736 737 738 739 740 741 742 743 744 745 746 747 748 749 750 751 752 753 754 755 756 757 758 759 760 761 762 763 764 765 766 767 768 769 770 771 772 773 774 775 776 777 778 779 780 781 782 783 784 785 786 787 788 789 790 791 792 793 794 795 796 797 798 799 800 801 802 803 804 805 806 807 808 809 810 811 812 813 814 815 816 817 818 819 820 821 822 823 824 825 826 827 828 829 830 831 832 833 834 835 836 837 838 839 840 841 842 843 844 845 846 847 848 849 850 851 852 853 854 855 856 857 858 859 860 861 862 863 864 865 866 867 868 869 870 871 872 873 874 875 876 877 878 879 880 881 882 883 884 885 886 887 888 889 890 891 892 893 894 895 896 897 898 899 900 901 902 903 904 905 906 907 908 909 910 911 912 913 914 915 916 917 918 919 920 921 922 923 924 925 926 927 928 929 930 931 932 933 934 935 936 937 938 939 940 941 942 943 944 945 946 947 948 949 950 951 952 953 954 955 956 957 958 959 960 961 962 963 964 965 966 967 968 969 970 971 972 973 974 975 976 977 978 979 980 981 982 983 984 985 986 987 988 989 990 991 992 993 994 995 996 997 998 999 1000 1001 1002 1003 1004 1005 1006 1007 1008 1009 1010 1011 1012 1013 1014 1015 1016 1017 1018 1019 1020 1021 1022 1023 1024 1025 1026 1027 1028 1029 1030 1031 1032 1033 1034 1035 1036 1037 1038 1039 1040 1041 1042 1043 1044 1045 1046 1047 1048 1049 1050 1051 1052 1053 1054 1055 1056 1057 1058 1059 1060 1061 1062 1063 1064 1065 1066 1067 1068 1069 1070 1071 1072 1073 1074 1075 1076 1077 1078 1079 1080 1081 1082 1083 1084 1085 1086 1087 1088 1089 1090 1091 1092 1093 1094 1095 1096 1097 1098 1099 1100 1101 1102 1103 1104 1105 1106 1107 1108 1109 1110 1111 1112 1113 1114 1115 1116 1117 1118 1119 1120 1121 1122 1123 1124 1125 1126 1127 1128 1129 1130 1131 1132 1133 1134 1135 1136 1137 1138 1139 1140 1141 1142 1143 1144 1145 1146 1147 1148 1149 1150 1151 1152 1153 1154 1155 1156 1157 1158 1159 1160 1161 1162 1163 1164 1165 1166 1167 1168 1169 1170 1171 1172 1173 1174 1175 1176 1177 1178 1179 1180 1181 1182 1183 1184 1185 1186  </DataArray>
 <DataArray type="Int32" Name="offsets" format="ascii">1 2 3 4 5 6 7 8 9 10 11 12 13 14 15 16 17 18 19 20 21 22 23 24 25 26 27 28 29 30 31 32 33 34 35 36 37 38 39 40 41 42 43 44 45 46 47 48 49 50 51 52 53 54 55 56 57 58 59 60 61 62 63 64 65 66 67 68 69 70 71 72 73 74 75 76 77 78 79 80 81 82 83 84 85 86 87 88 89 90 91 92 93 94 95 96 97 98 99 100 101 102 103 104 105 106 107 108 109 110 111 112 113 114 115 116 117 118 119 120 121 122 123 124 125 126 127 128 129 130 131 132 133 134 135 136 137 138 139 140 141 142 143 144 145 146 147 148 149 150 151 152 153 154 155 156 157 158 159 160 161 162 163 164 165 166 167 168 169 170 171 172 173 174 175 176 177 178 179 180 181 182 183 184 185 186 187 188 189 190 191 192 193 194 195 196 197 198 199 200 201 202 203 204 205 206 207 208 209 210 211 212 213 214 215 216 217 218 219 220 221 222 223 224 225 226 227 228 229 230 231 232 233 234 235 236 237 238 239 240 241 242 243 244 245 246 247 248 249 250 251 252 253 254 255 256 257 258 259 260 261 262 263 264 265 266 267 268 269 270 271 272 273 274 275 276 277 278 279 280 281 282 283 284 285 286 287 288 289 290 291 292 293 294 295 296 297 298 299 300 301 302 303 304 305 306 307 308 309 310 311 312 313 314 315 316 317 318 319 320 321 322 323 324 325 326 327 328 329 330 331 332 333 334 335 336 337 338 339 340 341 342 343 344 345 346 347 348 349 350 351 352 353 354 355 356 357 358 359 360 361 362 363 364 365 366 367 368 369 370 371 372 373 374 375 376 377 378 379 380 381 382 383 384 385 386 387 388 389 390 391 392 393 394 395 396 397 398 399 400 401 402 403 404 405 406 407 408 409 410 411 412 413 414 415 416 417 418 419 420 421 422 423 424 425 426 427 428 429 430 431 432 433 434 435 436 437 438 439 440 441 442 443 444 445 446 447 448 449 450 451 452 453 454 455 456 457 458 459 460 461 462 463 464 465 466 467 468 469 470 471 472 473 474 475 476 477 478 479 480 481 482 483 484 485 486 487 488 489 490 491 492 493 494 495 496 497 498 499 500 501 502 503 504 505 506 507 508 509 510 511 512 513 514 515 516 517 518 519 520 521 522 523 524 525 526 527 528 529 530 531 532 533 534 535 536 537 538 539 540 541 542 543 544 545 546 547 548 549 550 551 552 553 554 555 556 557 558 559 560 561 562 563 564 565 566 567 568 569 570 571 572 573 574 575 576 577 578 579 580 581 582 583 584 585 586 587 588 589 590 591 592 593 594 595 596 597 598 599 600 601 602 603 604 605 606 607 608 609 610 611 612 613 614 615 616 617 618 619 620 621 622 623 624 625 626 627 628 629 630 631 632 633 634 635 636 637 638 639 640 641 642 643 644 645 646 647 648 649 650 651 652 653 654 655 656 657 658 659 660 661 662 663 664 665 666 667 668 669 670 671 672 673 674 675 676 677 678 679 680 681 682 683 684 685 686 687 688 689 690 691 692 693 694 695 696 697 698 699 700 701 702 703 704 705 706 707 708 709 710 711 712 713 714 715 716 717 718 719 720 721 722 723 724 725 726 727 728 729 730 731 732 733 734 735 736 737 738 739 740 741 742 743 744 745 746 747 748 749 750 751 752 753 754 755 756 757 758 759 760 761 762 763 764 765 766 767 768 769 770 771 772 773 774 775 776 777 778 779 780 781 782 783 784 785 786 787 788 789 790 791 792 793 794 795 796 797 798 799 800 801 802 803 804 805 806 807 808 809 810 811 812 813 814 815 816 817 818 819 820 821 822 823 824 825 826 827 828 829 830 831 832 833 834 835 836 837 838 839 840 841 842 843 844 845 846 847 848 849 850 851 852 853 854 855 856 857 858 859 860 861 862 863 864 865 866 867 868 869 870 871 872 873 874 875 876 877 878 879 880 881 882 883 884 885 886 887 888 889 890 891 892 893 894 895 896 897 898 899 900 901 902 903 904 905 906 907 908 909 910 911 912 913 914 915 916 917 918 919 920 921 922 923 924 925 926 927 928 929 930 931 932 933 934 935 936 937 938 939 940 941 942 943 944 945 946 947 948 949 950 951 952 953 954 955 956 957 958 959 960 961 962 963 964 965 966 967 968 969 970 971 972 973 974 975 976 977 978 979 980 981 982 983 984 985 986 987 988 989 990 991 992 993 994 995 996 997 998 999 1000 1001 1002 1003 1004 1005 1006 1007 1008 1009 1010 1011 1012 1013 1014 1015 1016 1017 1018 1019 1020 1021 1022 1023 1024 1025 1026 1027 1028 1029 1030 1031 1032 1033 1034 1035 1036 1037 1038 1039 1040 1041 1042 1043 1044 1045 1046 1047 1048 1049 1050 1051 1052 1053 1054 1055 1056 1057 1058 1059 1060 1061 1062 1063 1064 1065 1066 1067 1068 1069 1070 1071 1072 1073 1074 1075 1076 1077 1078 1079 1080 1081 1082 1083 1084 1085 1086 1087 1088 1089 1090 1091 1092 1093 1094 1095 1096 1097 1098 1099 1100 1101 1102 1103 1104 1105 1106 1107 1108 1109 1110 1111 1112 1113 1114 1115 1116 1117 1118 1119 1120 1121 1122 1123 1124 1125 1126 1127 1128 1129 1130 1131 1132 1133 1134 1135 1136 1137 1138 1139 1140 1141 1142 1143 1144 1145 1146 1147 1148 1149 1150 1151 1152 1153 1154 1155 1156 1157 1158 1159 1160 1161 1162 1163 1164 1165 1166 1167 1168 1169 1170 1171 1172 1173 1174 1175 1176 1177 1178 1179 1180 1181 1182 1183 1184 1185 1186 1187  </DataArray>
 <DataArray type="UInt8" Name="types" format="ascii">1 1 1 1 1 1 1 1 1 1 1 1 1 1 1 1 1 1 1 1 1 1 1 1 1 1 1 1 1 1 1 1 1 1 1 1 1 1 1 1 1 1 1 1 1 1 1 1 1 1 1 1 1 1 1 1 1 1 1 1 1 1 1 1 1 1 1 1 1 1 1 1 1 1 1 1 1 1 1 1 1 1 1 1 1 1 1 1 1 1 1 1 1 1 1 1 1 1 1 1 1 1 1 1 1 1 1 1 1 1 1 1 1 1 1 1 1 1 1 1 1 1 1 1 1 1 1 1 1 1 1 1 1 1 1 1 1 1 1 1 1 1 1 1 1 1 1 1 1 1 1 1 1 1 1 1 1 1 1 1 1 1 1 1 1 1 1 1 1 1 1 1 1 1 1 1 1 1 1 1 1 1 1 1 1 1 1 1 1 1 1 1 1 1 1 1 1 1 1 1 1 1 1 1 1 1 1 1 1 1 1 1 1 1 1 1 1 1 1 1 1 1 1 1 1 1 1 1 1 1 1 1 1 1 1 1 1 1 1 1 1 1 1 1 1 1 1 1 1 1 1 1 1 1 1 1 1 1 1 1 1 1 1 1 1 1 1 1 1 1 1 1 1 1 1 1 1 1 1 1 1 1 1 1 1 1 1 1 1 1 1 1 1 1 1 1 1 1 1 1 1 1 1 1 1 1 1 1 1 1 1 1 1 1 1 1 1 1 1 1 1 1 1 1 1 1 1 1 1 1 1 1 1 1 1 1 1 1 1 1 1 1 1 1 1 1 1 1 1 1 1 1 1 1 1 1 1 1 1 1 1 1 1 1 1 1 1 1 1 1 1 1 1 1 1 1 1 1 1 1 1 1 1 1 1 1 1 1 1 1 1 1 1 1 1 1 1 1 1 1 1 1 1 1 1 1 1 1 1 1 1 1 1 1 1 1 1 1 1 1 1 1 1 1 1 1 1 1 1 1 1 1 1 1 1 1 1 1 1 1 1 1 1 1 1 1 1 1 1 1 1 1 1 1 1 1 1 1 1 1 1 1 1 1 1 1 1 1 1 1 1 1 1 1 1 1 1 1 1 1 1 1 1 1 1 1 1 1 1 1 1 1 1 1 1 1 1 1 1 1 1 1 1 1 1 1 1 1 1 1 1 1 1 1 1 1 1 1 1 1 1 1 1 1 1 1 1 1 1 1 1 1 1 1 1 1 1 1 1 1 1 1 1 1 1 1 1 1 1 1 1 1 1 1 1 1 1 1 1 1 1 1 1 1 1 1 1 1 1 1 1 1 1 1 1 1 1 1 1 1 1 1 1 1 1 1 1 1 1 1 1 1 1 1 1 1 1 1 1 1 1 1 1 1 1 1 1 1 1 1 1 1 1 1 1 1 1 1 1 1 1 1 1 1 1 1 1 1 1 1 1 1 1 1 1 1 1 1 1 1 1 1 1 1 1 1 1 1 1 1 1 1 1 1 1 1 1 1 1 1 1 1 1 1 1 1 1 1 1 1 1 1 1 1 1 1 1 1 1 1 1 1 1 1 1 1 1 1 1 1 1 1 1 1 1 1 1 1 1 1 1 1 1 1 1 1 1 1 1 1 1 1 1 1 1 1 1 1 1 1 1 1 1 1 1 1 1 1 1 1 1 1 1 1 1 1 1 1 1 1 1 1 1 1 1 1 1 1 1 1 1 1 1 1 1 1 1 1 1 1 1 1 1 1 1 1 1 1 1 1 1 1 1 1 1 1 1 1 1 1 1 1 1 1 1 1 1 1 1 1 1 1 1 1 1 1 1 1 1 1 1 1 1 1 1 1 1 1 1 1 1 1 1 1 1 1 1 1 1 1 1 1 1 1 1 1 1 1 1 1 1 1 1 1 1 1 1 1 1 1 1 1 1 1 1 1 1 1 1 1 1 1 1 1 1 1 1 1 1 1 1 1 1 1 1 1 1 1 1 1 1 1 1 1 1 1 1 1 1 1 1 1 1 1 1 1 1 1 1 1 1 1 1 1 1 1 1 1 1 1 1 1 1 1 1 1 1 1 1 1 1 1 1 1 1 1 1 1 1 1 1 1 1 1 1 1 1 1 1 1 1 1 1 1 1 1 1 1 1 1 1 1 1 1 1 1 1 1 1 1 1 1 1 1 1 1 1 1 1 1 1 1 1 1 1 1 1 1 1 1 1 1 1 1 1 1 1 1 1 1 1 1 1 1 1 1 1 1 1 1 1 1 1 1 1 1 1 1 1 1 1 1 1 1 1 1 1 1 1 1 1 1 1 1 1 1 1 1 1 1 1 1 1 1 1 1 1 1 1 1 1 1 1 1 1 1 1 1 1 1 1 1 1 1 1 1 1 1 1 1 1 1 1 1 1 1 1 1 1 1 1 1 1 1 1 1 1 1 1 1 1 1 1 1 1 1 1 1 1 1 1 1 1 1 1 1 1 1 1 1 1 1 1 1 1 1 1 1 1 1 1 1 1 1 1 1 1 1 1 1 1 1 1 1 1 1 1 1 1 1 1 1 1 1 1 1 1 1 1 1 1 1 1 1 1 1 1 1 1 1 1 1 1 1 1 1 1 1 1 1 1 1 1 1 1 1 1 1 1 1 1 1 1 1 1 1 1 1 1 1 1 1 1 1 1 1 1 1 1 1 1 1 1 1 1 1 1  </DataArray>
</Cells>
<PointData Scalars="" Vectors="IST_PrincipalStressTensor IST_PrincStressVector1 " Tensors="IST_StressTensor IST_StrainTensor " >
  <DataArray type="Float64" Name="IST_StressTensor" NumberOfComponents="9" format="ascii">-1.739273e+01 -6.903692e+00 0.000000e+00 -6.903692e+00 -1.381989e+02 0.000000e+00 0.000000e+00 0.000000e+00 0.000000e+00 -5.609329e+00 -3.132654e+00 0.000000e+00 -3.132654e+00 -1.235102e+02 0.000000e+00 0.000000e+00 0.000000e+00 0.000000e+00 5.408033e-01 -2.287471e+00 0.000000e+00 -2.287471e+00 -1.101365e+02 0.000000e+00 0.000000e+00 0.000000e+00 0.000000e+00 4.575874e+00 -2.038630e+00 0.000000e+00 -2.038630e+00 -9.747004e+01 0.000000e+00 0.000000e+00 0.000000e+00 0.000000e+00 8.373781e+00 -2.022087e+00 0.000000e+00 -2.022087e+00 -8.585684e+01 0.000000e+00 0.000000e+00 0.000000e+00 0.000000e+00 1.233133e+01 -2.066444e+00 0.000000e+00 -2.066444e+00 -7.452920e+01 0.000000e+00 0.000000e+00 0.000000e+00 0.000000e+00 1.674828e+01 -1.951701e+00 0.000000e+00 -1.951701e+00 -6.421655e+01 0.000000e+00 0.000000e+00 0.000000e+00 0.000000e+00 2.149312e+01 -2.026548e+00 0.000000e+00 -2.026548e+00 -5.438683e+01 0.000000e+00 0.000000e+00 0.000000e+00 0.000000e+00 2.672903e+01 -2.124660e+00 0.000000e+00 -2.124660e+00 -4.501287e+01 0.000000e+00 0.000000e+00 0.000000e+00 0.000000e+00 3.237677e+01 -2.260496e+00 0.000000e+00 -2.260496e+00 -3.600061e+01 0.000000e+00 0.000000e+00 0.000000e+00 0.000000e+00 3.837798e+01 -2.437322e+00 0.000000e+00 -2.437322e+00 -2.676484e+01 0.000000e+00 0.000000e+00 0.000000e+00 0.000000e+00 4.506461e+01 -2.476078e+00 0.000000e+00 -2.476078e+00 -1.809606e+01 0.000000e+00 0.000000e+00 0.000000e+00 0.000000e+00 5.227451e+01 -2.697840e+00 0.000000e+00 -2.697840e+00 -9.466791e+00 0.000000e+00 0.000000e+00 0.000000e+00 0.000000e+00 5.995947e+01 -2.861856e+00 0.000000e+00 -2.861856e+00 -6.936600e-02 0.000000e+00 0.000000e+00 0.000000e+00 0.000000e+00 6.853551e+01 -3.005133e+00 0.000000e+00 -3.005133e+00 9.212707e+00 0.000000e+00 0.000000e+00 0.000000e+00 0.000000e+00 7.770089e+01 -3.379122e+00 0.000000e+00 -3.379122e+00 1.979464e+01 0.000000e+00 0.000000e+00 0.000000e+00 0.000000e+00 8.790969e+01 -3.858812e+00 0.000000e+00 -3.858812e+00 3.118768e+01 0.000000e+00 0.000000e+00 0.000000e+00 0.000000e+00 9.977639e+01 -4.335623e+00 0.000000e+00 -4.335623e+00 4.289346e+01 0.000000e+00 0.000000e+00 0.000000e+00 0.000000e+00 1.131637e+02 -4.433004e+00 0.000000e+00 -4.433004e+00 5.754169e+01 0.000000e+00 0.000000e+00 0.000000e+00 0.000000e+00 1.290808e+02 -5.898314e+00 0.000000e+00 -5.898314e+00 7.388484e+01 0.000000e+00 0.000000e+00 0.000000e+00 0.000000e+00 1.491375e+02 -7.641436e+00 0.000000e+00 -7.641436e+00 9.368970e+01 0.000000e+00 0.000000e+00 0.000000e+00 0.000000e+00 1.765841e+02 -1.006805e+01 0.000000e+00 -1.006805e+01 1.203999e+02 0.000000e+00 0.000000e+00 0.000000e+00 0.000000e+00 2.184748e+02 -1.749197e+01 0.000000e+00 -1.749197e+01 1.583722e+02 0.000000e+00 0.000000e+00 0.000000e+00 0.000000e+00 2.984458e+02 -4.252196e+01 0.000000e+00 -4.252196e+01 2.310604e+02 0.000000e+00 0.000000e+00 0.000000e+00 0.000000e+00 4.533710e+02 -1.354505e+02 0.000000e+00 -1.354505e+02 4.654480e+02 0.000000e+00 0.000000e+00 0.000000e+00 0.000000e+00 5.032550e+01 2.598480e+00 0.000000e+00 2.598480e+00 1.714054e+00 0.000000e+00 0.000000e+00 0.000000e+00 0.000000e+00 4.411457e+01 2.978631e+00 0.000000e+00 2.978631e+00 -7.297260e-01 0.000000e+00 0.000000e+00 0.000000e+00 0.000000e+00 3.405109e+01 4.010839e+00 0.000000e+00 4.010839e+00 -4.528352e-01 0.000000e+00 0.000000e+00 0.000000e+00 0.000000e+00 1.756407e+01 5.367896e+00 0.000000e+00 5.367896e+00 8.733156e-01 0.000000e+00 0.000000e+00 0.000000e+00 0.000000e+00 2.147789e+01 6.272080e+00 0.000000e+00 6.272080e+00 2.441895e+00 0.000000e+00 0.000000e+00 0.000000e+00 0.000000e+00 3.757369e+01 1.398160e+01 0.000000e+00 1.398160e+01 6.799017e+00 0.000000e+00 0.000000e+00 0.000000e+00 0.000000e+00 4.400570e+01 9.765170e+00 0.000000e+00 9.765170e+00 5.000361e+00 0.000000e+00 0.000000e+00 0.000000e+00 0.000000e+00 1.075301e+01 5.202889e+00 0.000000e+00 5.202889e+00 8.939997e-01 0.000000e+00 0.000000e+00 0.000000e+00 0.000000e+00 -8.353632e+00 2.787869e+00 0.000000e+00 2.787869e+00 3.088868e+00 0.000000e+00 0.000000e+00 0.000000e+00 0.000000e+00 -7.504896e+00 -1.612457e+00 0.000000e+00 -1.612457e+00 9.904032e-01 0.000000e+00 0.000000e+00 0.000000e+00 0.000000e+00 -6.738984e-01 -6.945912e-01 0.000000e+00 -6.945912e-01 -7.159194e-01 0.000000e+00 0.000000e+00 0.000000e+00 0.000000e+00 -1.884945e-01 -7.591676e-01 0.000000e+00 -7.591676e-01 -2.827301e+00 0.000000e+00 0.000000e+00 0.000000e+00 0.000000e+00 7.395109e-01 6.832735e-01 0.000000e+00 6.832735e-01 -4.251273e+00 0.000000e+00 0.000000e+00 0.000000e+00 0.000000e+00 -5.433307e-02 1.330148e+00 0.000000e+00 1.330148e+00 4.723212e-01 0.000000e+00 0.000000e+00 0.000000e+00 0.000000e+00 -5.643853e-01 4.841687e-01 0.000000e+00 4.841687e-01 4.297605e+00 0.000000e+00 0.000000e+00 0.000000e+00 0.000000e+00 -2.928384e-01 -7.475499e-01 0.000000e+00 -7.475499e-01 2.496729e+00 0.000000e+00 0.000000e+00 0.000000e+00 0.000000e+00 2.551033e-01 -6.382400e-01 0.000000e+00 -6.382400e-01 6.734333e-01 0.000000e+00 0.000000e+00 0.000000e+00 0.000000e+00 6.361644e-02 -8.092165e-01 0.000000e+00 -8.092165e-01 3.849944e-01 0.000000e+00 0.000000e+00 0.000000e+00 0.000000e+00 6.990005e-01 -7.579627e-01 0.000000e+00 -7.579627e-01 -2.448446e-01 0.000000e+00 0.000000e+00 0.000000e+00 0.000000e+00 2.166565e+00 -4.217669e-01 0.000000e+00 -4.217669e-01 1.979238e-02 0.000000e+00 0.000000e+00 0.000000e+00 0.000000e+00 3.309388e+00 1.314668e-01 0.000000e+00 1.314668e-01 -1.291500e+00 0.000000e+00 0.000000e+00 0.000000e+00 0.000000e+00 -3.654142e+00 3.149923e+00 0.000000e+00 3.149923e+00 -1.560452e+00 0.000000e+00 0.000000e+00 0.000000e+00 0.000000e+00 -2.797005e+01 6.530434e+00 0.000000e+00 6.530434e+00 -7.651169e-01 0.000000e+00 0.000000e+00 0.000000e+00 0.000000e+00 -6.005297e+01 7.080646e+00 0.000000e+00 7.080646e+00 1.255966e+00 0.000000e+00 0.000000e+00 0.000000e+00 0.000000e+00 -8.283969e+01 3.533990e+00 0.000000e+00 3.533990e+00 4.698732e+00 0.000000e+00 0.000000e+00 0.000000e+00 0.000000e+00 -6.348288e+01 -7.941515e+00 0.000000e+00 -7.941515e+00 6.383050e+00 0.000000e+00 0.000000e+00 0.000000e+00 0.000000e+00 -2.955812e+01 -1.204240e+01 0.000000e+00 -1.204240e+01 1.380174e+00 0.000000e+00 0.000000e+00 0.000000e+00 0.000000e+00 -4.829004e+00 -4.533547e+00 0.000000e+00 -4.533547e+00 -3.964254e+00 0.000000e+00 0.000000e+00 0.000000e+00 0.000000e+00 -2.199921e+01 -1.070253e+01 0.000000e+00 -1.070253e+01 -3.285820e+00 0.000000e+00 0.000000e+00 0.000000e+00 0.000000e+00 -3.945343e+00 -4.347523e+00 0.000000e+00 -4.347523e+00 -4.325716e+00 0.000000e+00 0.000000e+00 0.000000e+00 0.000000e+00 -1.185720e+00 -1.169269e+01 0.000000e+00 -1.169269e+01 -2.627771e+01 0.000000e+00 0.000000e+00 0.000000e+00 0.000000e+00 2.062952e+00 3.520976e+00 0.000000e+00 3.520976e+00 -2.789721e+00 0.000000e+00 0.000000e+00 0.000000e+00 0.000000e+00 4.370958e+00 1.786222e+00 0.000000e+00 1.786222e+00 -2.782625e+00 0.000000e+00 0.000000e+00 0.000000e+00 0.000000e+00 5.448763e+00 -4.983185e-01 0.000000e+00 -4.983185e-01 -1.468327e+00 0.000000e+00 0.000000e+00 0.000000e+00 0.000000e+00 4.883166e+00 -2.008409e+00 0.000000e+00 -2.008409e+00 1.107623e+00 0.000000e+00 0.000000e+00 0.000000e+00 0.000000e+00 2.567549e+00 -1.798546e+00 0.000000e+00 -1.798546e+00 4.247349e+00 0.000000e+00 0.000000e+00 0.000000e+00 0.000000e+00 8.249075e-02 1.373419e+00 0.000000e+00 1.373419e+00 7.147655e+00 0.000000e+00 0.000000e+00 0.000000e+00 0.000000e+00 6.210726e-02 5.750642e+00 0.000000e+00 5.750642e+00 8.238057e+00 0.000000e+00 0.000000e+00 0.000000e+00 0.000000e+00 6.239682e-01 1.189683e+01 0.000000e+00 1.189683e+01 7.822592e+00 0.000000e+00 0.000000e+00 0.000000e+00 0.000000e+00 2.763272e+00 1.780029e+01 0.000000e+00 1.780029e+01 6.828213e+00 0.000000e+00 0.000000e+00 0.000000e+00 0.000000e+00 1.009667e+01 2.324148e+01 0.000000e+00 2.324148e+01 5.117550e+00 0.000000e+00 0.000000e+00 0.000000e+00 0.000000e+00 1.391762e+01 2.565633e+01 0.000000e+00 2.565633e+01 2.436409e+00 0.000000e+00 0.000000e+00 0.000000e+00 0.000000e+00 1.534149e+01 2.638199e+01 0.000000e+00 2.638199e+01 1.205014e-01 0.000000e+00 0.000000e+00 0.000000e+00 0.000000e+00 1.404577e+01 2.593062e+01 0.000000e+00 2.593062e+01 -9.686137e-01 0.000000e+00 0.000000e+00 0.000000e+00 0.000000e+00 9.560917e+00 2.520785e+01 0.000000e+00 2.520785e+01 -1.229476e+00 0.000000e+00 0.000000e+00 0.000000e+00 0.000000e+00 3.290548e+00 2.514051e+01 0.000000e+00 2.514051e+01 -1.077261e+00 0.000000e+00 0.000000e+00 0.000000e+00 0.000000e+00 -3.103218e+00 2.644353e+01 0.000000e+00 2.644353e+01 -7.715077e-01 0.000000e+00 0.000000e+00 0.000000e+00 0.000000e+00 -6.311934e+00 2.857990e+01 0.000000e+00 2.857990e+01 -2.372235e+00 0.000000e+00 0.000000e+00 0.000000e+00 0.000000e+00 -6.139009e+00 2.916068e+01 0.000000e+00 2.916068e+01 -6.032668e+00 0.000000e+00 0.000000e+00 0.000000e+00 0.000000e+00 -3.222134e+00 2.699234e+01 0.000000e+00 2.699234e+01 -1.013221e+01 0.000000e+00 0.000000e+00 0.000000e+00 0.000000e+00 5.729939e-02 2.249912e+01 0.000000e+00 2.249912e+01 -1.296222e+01 0.000000e+00 0.000000e+00 0.000000e+00 0.000000e+00 2.177849e+00 1.751890e+01 0.000000e+00 1.751890e+01 -1.463074e+01 0.000000e+00 0.000000e+00 0.000000e+00 0.000000e+00 3.221195e+00 1.153446e+01 0.000000e+00 1.153446e+01 -1.542082e+01 0.000000e+00 0.000000e+00 0.000000e+00 0.000000e+00 2.515133e+00 5.743453e+00 0.000000e+00 5.743453e+00 -1.402100e+01 0.000000e+00 0.000000e+00 0.000000e+00 0.000000e+00 3.670760e-01 1.578288e+00 0.000000e+00 1.578288e+00 -1.129621e+01 0.000000e+00 0.000000e+00 0.000000e+00 0.000000e+00 -2.516529e+00 7.430308e-01 0.000000e+00 7.430308e-01 -6.806241e+00 0.000000e+00 0.000000e+00 0.000000e+00 0.000000e+00 -3.209217e+00 1.878584e+00 0.000000e+00 1.878584e+00 -4.115810e+00 0.000000e+00 0.000000e+00 0.000000e+00 0.000000e+00 -2.135519e+00 3.187089e+00 0.000000e+00 3.187089e+00 -2.837265e+00 0.000000e+00 0.000000e+00 0.000000e+00 0.000000e+00 -3.107297e-01 3.875544e+00 0.000000e+00 3.875544e+00 -2.646436e+00 0.000000e+00 0.000000e+00 0.000000e+00 0.000000e+00 1.224262e-02 -8.671896e-01 0.000000e+00 -8.671896e-01 -7.223835e-01 0.000000e+00 0.000000e+00 0.000000e+00 0.000000e+00 -2.903636e+01 -5.964712e+00 0.000000e+00 -5.964712e+00 -1.416920e+02 0.000000e+00 0.000000e+00 0.000000e+00 0.000000e+00 -1.024307e+01 -4.407775e+00 0.000000e+00 -4.407775e+00 -1.311158e+02 0.000000e+00 0.000000e+00 0.000000e+00 0.000000e+00 -7.804383e+00 -3.093656e+00 0.000000e+00 -3.093656e+00 -1.321958e+02 0.000000e+00 0.000000e+00 0.000000e+00 0.000000e+00 -4.570668e+00 -1.264327e+00 0.000000e+00 -1.264327e+00 -1.260718e+02 0.000000e+00 0.000000e+00 0.000000e+00 0.000000e+00 -2.087046e+00 -2.553961e+00 0.000000e+00 -2.553961e+00 -1.167346e+02 0.000000e+00 0.000000e+00 0.000000e+00 0.000000e+00 9.842788e-03 -1.570767e-01 0.000000e+00 -1.570767e-01 -1.130271e+02 0.000000e+00 0.000000e+00 0.000000e+00 0.000000e+00 2.612983e+00 -2.164148e+00 0.000000e+00 -2.164148e+00 -1.035223e+02 0.000000e+00 0.000000e+00 0.000000e+00 0.000000e+00 6.417152e+00 -2.000941e+00 0.000000e+00 -2.000941e+00 -9.146792e+01 0.000000e+00 0.000000e+00 0.000000e+00 0.000000e+00 1.028238e+01 -2.123998e+00 0.000000e+00 -2.123998e+00 -8.006162e+01 0.000000e+00 0.000000e+00 0.000000e+00 0.000000e+00 9.067994e+00 1.696153e-02 0.000000e+00 1.696153e-02 -8.289780e+01 0.000000e+00 0.000000e+00 0.000000e+00 0.000000e+00 1.147380e+01 -8.405013e-02 0.000000e+00 -8.405013e-02 -7.726516e+01 0.000000e+00 0.000000e+00 0.000000e+00 0.000000e+00 1.444782e+01 -1.985428e+00 0.000000e+00 -1.985428e+00 -6.912095e+01 0.000000e+00 0.000000e+00 0.000000e+00 0.000000e+00 1.916376e+01 -1.976330e+00 0.000000e+00 -1.976330e+00 -5.952898e+01 0.000000e+00 0.000000e+00 0.000000e+00 0.000000e+00 2.400823e+01 -2.084844e+00 0.000000e+00 -2.084844e+00 -4.951671e+01 0.000000e+00 0.000000e+00 0.000000e+00 0.000000e+00 2.944541e+01 -2.215114e+00 0.000000e+00 -2.215114e+00 -4.034039e+01 0.000000e+00 0.000000e+00 0.000000e+00 0.000000e+00 2.782658e+01 -5.792965e-01 0.000000e+00 -5.792965e-01 -4.263665e+01 0.000000e+00 0.000000e+00 0.000000e+00 0.000000e+00 3.076103e+01 -7.234924e-01 0.000000e+00 -7.234924e-01 -3.812349e+01 0.000000e+00 0.000000e+00 0.000000e+00 0.000000e+00 3.536294e+01 -2.360281e+00 0.000000e+00 -2.360281e+00 -3.151203e+01 0.000000e+00 0.000000e+00 0.000000e+00 0.000000e+00 4.162469e+01 -2.441241e+00 0.000000e+00 -2.441241e+00 -2.232004e+01 0.000000e+00 0.000000e+00 0.000000e+00 0.000000e+00 4.860273e+01 -2.567079e+00 0.000000e+00 -2.567079e+00 -1.382486e+01 0.000000e+00 0.000000e+00 0.000000e+00 0.000000e+00 4.654024e+01 -1.040767e+00 0.000000e+00 -1.040767e+00 -1.599090e+01 0.000000e+00 0.000000e+00 0.000000e+00 0.000000e+00 4.999108e+01 -1.112362e+00 0.000000e+00 -1.112362e+00 -1.165792e+01 0.000000e+00 0.000000e+00 0.000000e+00 0.000000e+00 5.610037e+01 -2.775164e+00 0.000000e+00 -2.775164e+00 -4.991890e+00 0.000000e+00 0.000000e+00 0.000000e+00 0.000000e+00 6.408922e+01 -2.893767e+00 0.000000e+00 -2.893767e+00 4.718548e+00 0.000000e+00 0.000000e+00 0.000000e+00 0.000000e+00 7.306682e+01 -3.195097e+00 0.000000e+00 -3.195097e+00 1.421167e+01 0.000000e+00 0.000000e+00 0.000000e+00 0.000000e+00 7.021832e+01 -1.464856e+00 0.000000e+00 -1.464856e+00 1.164747e+01 0.000000e+00 0.000000e+00 0.000000e+00 0.000000e+00 7.488833e+01 -1.437827e+00 0.000000e+00 -1.437827e+00 1.683039e+01 0.000000e+00 0.000000e+00 0.000000e+00 0.000000e+00 8.263153e+01 -3.605639e+00 0.000000e+00 -3.605639e+00 2.548554e+01 0.000000e+00 0.000000e+00 0.000000e+00 0.000000e+00 8.458147e+01 -1.767050e+00 0.000000e+00 -1.767050e+00 2.804388e+01 0.000000e+00 0.000000e+00 0.000000e+00 0.000000e+00 9.371243e+01 -4.120799e+00 0.000000e+00 -4.120799e+00 3.669426e+01 0.000000e+00 0.000000e+00 0.000000e+00 0.000000e+00 1.060996e+02 -4.403715e+00 0.000000e+00 -4.403715e+00 5.014677e+01 0.000000e+00 0.000000e+00 0.000000e+00 0.000000e+00 1.210105e+02 -4.818373e+00 0.000000e+00 -4.818373e+00 6.501026e+01 0.000000e+00 0.000000e+00 0.000000e+00 0.000000e+00 1.160310e+02 -2.319223e+00 0.000000e+00 -2.319223e+00 6.108509e+01 0.000000e+00 0.000000e+00 0.000000e+00 0.000000e+00 1.222231e+02 -2.594591e+00 0.000000e+00 -2.594591e+00 6.874326e+01 0.000000e+00 0.000000e+00 0.000000e+00 0.000000e+00 1.385096e+02 -6.701318e+00 0.000000e+00 -6.701318e+00 8.316742e+01 0.000000e+00 0.000000e+00 0.000000e+00 0.000000e+00 1.617334e+02 -8.827223e+00 0.000000e+00 -8.827223e+00 1.054570e+02 0.000000e+00 0.000000e+00 0.000000e+00 0.000000e+00 1.950841e+02 -1.244724e+01 0.000000e+00 -1.244724e+01 1.374872e+02 0.000000e+00 0.000000e+00 0.000000e+00 0.000000e+00 2.507106e+02 -2.623076e+01 0.000000e+00 -2.623076e+01 1.878558e+02 0.000000e+00 0.000000e+00 0.000000e+00 0.000000e+00 2.096932e+02 -1.225132e+01 0.000000e+00 -1.225132e+01 1.660171e+02 0.000000e+00 0.000000e+00 0.000000e+00 0.000000e+00 2.260372e+02 -1.948442e+01 0.000000e+00 -1.948442e+01 1.947590e+02 0.000000e+00 0.000000e+00 0.000000e+00 0.000000e+00 3.690986e+02 -7.538235e+01 0.000000e+00 -7.538235e+01 3.075617e+02 0.000000e+00 0.000000e+00 0.000000e+00 0.000000e+00 7.898305e+01 1.878960e+00 0.000000e+00 1.878960e+00 -3.230861e-01 0.000000e+00 0.000000e+00 0.000000e+00 0.000000e+00 4.721310e+01 3.418428e-01 0.000000e+00 3.418428e-01 -2.814142e+00 0.000000e+00 0.000000e+00 0.000000e+00 0.000000e+00 4.746663e+01 2.362218e+00 0.000000e+00 2.362218e+00 -3.325065e-01 0.000000e+00 0.000000e+00 0.000000e+00 0.000000e+00 3.958612e+01 3.522173e+00 0.000000e+00 3.522173e+00 -4.523235e-01 0.000000e+00 0.000000e+00 0.000000e+00 0.000000e+00 2.709131e+01 4.697430e+00 0.000000e+00 4.697430e+00 -6.455875e-01 0.000000e+00 0.000000e+00 0.000000e+00 0.000000e+00 2.403446e+01 1.041482e+01 0.000000e+00 1.041482e+01 9.570833e-01 0.000000e+00 0.000000e+00 0.000000e+00 0.000000e+00 3.126046e+01 8.861353e+00 0.000000e+00 8.861353e+00 5.064443e+00 0.000000e+00 0.000000e+00 0.000000e+00 0.000000e+00 2.833348e+01 1.174184e+01 0.000000e+00 1.174184e+01 5.915059e+00 0.000000e+00 0.000000e+00 0.000000e+00 0.000000e+00 2.415241e+01 6.188517e+00 0.000000e+00 6.188517e+00 9.929759e-01 0.000000e+00 0.000000e+00 0.000000e+00 0.000000e+00 -1.117376e-01 4.403910e+00 0.000000e+00 4.403910e+00 2.426851e+00 0.000000e+00 0.000000e+00 0.000000e+00 0.000000e+00 -1.591859e+00 1.887362e+00 0.000000e+00 1.887362e+00 -1.198958e+00 0.000000e+00 0.000000e+00 0.000000e+00 0.000000e+00 -4.867182e+00 -9.017938e-01 0.000000e+00 -9.017938e-01 -8.156689e-01 0.000000e+00 0.000000e+00 0.000000e+00 0.000000e+00 -1.056904e+01 5.329355e-02 0.000000e+00 5.329355e-02 2.126235e+00 0.000000e+00 0.000000e+00 0.000000e+00 0.000000e+00 -3.186087e+00 -1.577457e+00 0.000000e+00 -1.577457e+00 -1.354549e-01 0.000000e+00 0.000000e+00 0.000000e+00 0.000000e+00 5.392613e-02 -9.024221e-01 0.000000e+00 -9.024221e-01 -2.529265e+00 0.000000e+00 0.000000e+00 0.000000e+00 0.000000e+00 7.101322e-01 -2.559474e-01 0.000000e+00 -2.559474e-01 -4.505410e+00 0.000000e+00 0.000000e+00 0.000000e+00 0.000000e+00 3.856268e-02 -7.003982e-02 0.000000e+00 -7.003982e-02 -3.390688e+00 0.000000e+00 0.000000e+00 0.000000e+00 0.000000e+00 4.241890e-01 1.181530e+00 0.000000e+00 1.181530e+00 -2.328389e+00 0.000000e+00 0.000000e+00 0.000000e+00 0.000000e+00 -4.535977e-01 9.683558e-01 0.000000e+00 9.683558e-01 2.746397e+00 0.000000e+00 0.000000e+00 0.000000e+00 0.000000e+00 -4.380737e-01 -1.761035e-01 0.000000e+00 -1.761035e-01 4.007968e+00 0.000000e+00 0.000000e+00 0.000000e+00 0.000000e+00 -2.772129e+01 6.914646e+00 0.000000e+00 6.914646e+00 3.359151e-03 0.000000e+00 0.000000e+00 0.000000e+00 0.000000e+00 -4.403784e+01 7.090384e+00 0.000000e+00 7.090384e+00 -1.620376e-01 0.000000e+00 0.000000e+00 0.000000e+00 0.000000e+00 7.545945e-01 -6.376734e-01 0.000000e+00 -6.376734e-01 2.584586e-01 0.000000e+00 0.000000e+00 0.000000e+00 0.000000e+00 5.969133e-02 4.695160e-01 0.000000e+00 4.695160e-01 3.736854e-01 0.000000e+00 0.000000e+00 0.000000e+00 0.000000e+00 1.712047e+00 1.509101e+00 0.000000e+00 1.509101e+00 -1.679662e+00 0.000000e+00 0.000000e+00 0.000000e+00 0.000000e+00 -3.488513e+00 2.122317e+00 0.000000e+00 2.122317e+00 2.539799e-01 0.000000e+00 0.000000e+00 0.000000e+00 0.000000e+00 -1.357266e+01 5.006350e+00 0.000000e+00 5.006350e+00 -1.505760e+00 0.000000e+00 0.000000e+00 0.000000e+00 0.000000e+00 -3.964259e+01 7.016955e+00 0.000000e+00 7.016955e+00 -5.495056e-01 0.000000e+00 0.000000e+00 0.000000e+00 0.000000e+00 -7.420319e+01 5.881708e+00 0.000000e+00 5.881708e+00 2.777908e+00 0.000000e+00 0.000000e+00 0.000000e+00 0.000000e+00 -5.196702e+01 -8.566882e+00 0.000000e+00 -8.566882e+00 -1.561236e+00 0.000000e+00 0.000000e+00 0.000000e+00 0.000000e+00 -8.037737e+01 -1.758547e+00 0.000000e+00 -1.758547e+00 6.356779e+00 0.000000e+00 0.000000e+00 0.000000e+00 0.000000e+00 -3.783840e+01 -9.356938e+00 0.000000e+00 -9.356938e+00 -2.563245e+00 0.000000e+00 0.000000e+00 0.000000e+00 0.000000e+00 3.891737e+00 1.891769e+00 0.000000e+00 1.891769e+00 -2.067253e+00 0.000000e+00 0.000000e+00 0.000000e+00 0.000000e+00 1.232324e+00 3.114205e+00 0.000000e+00 3.114205e+00 -2.186587e+00 0.000000e+00 0.000000e+00 0.000000e+00 0.000000e+00 5.545976e+00 -3.734929e-01 0.000000e+00 -3.734929e-01 -1.258234e+00 0.000000e+00 0.000000e+00 0.000000e+00 0.000000e+00 5.428046e+00 -2.515619e+00 0.000000e+00 -2.515619e+00 8.885050e-01 0.000000e+00 0.000000e+00 0.000000e+00 0.000000e+00 4.502520e+00 -3.538921e+00 0.000000e+00 -3.538921e+00 4.696382e+00 0.000000e+00 0.000000e+00 0.000000e+00 0.000000e+00 2.345809e+00 -1.656648e+00 0.000000e+00 -1.656648e+00 9.387666e+00 0.000000e+00 0.000000e+00 0.000000e+00 0.000000e+00 1.745790e+00 2.992415e+00 0.000000e+00 2.992415e+00 1.177140e+01 0.000000e+00 0.000000e+00 0.000000e+00 0.000000e+00 3.253315e+00 9.050914e+00 0.000000e+00 9.050914e+00 1.403926e+01 0.000000e+00 0.000000e+00 0.000000e+00 0.000000e+00 6.664958e+00 1.536233e+01 0.000000e+00 1.536233e+01 1.248944e+01 0.000000e+00 0.000000e+00 0.000000e+00 0.000000e+00 1.276063e+01 2.143696e+01 0.000000e+00 2.143696e+01 1.149945e+01 0.000000e+00 0.000000e+00 0.000000e+00 0.000000e+00 1.591790e+01 2.436859e+01 0.000000e+00 2.436859e+01 6.789029e+00 0.000000e+00 0.000000e+00 0.000000e+00 0.000000e+00 1.648505e+01 2.537867e+01 0.000000e+00 2.537867e+01 3.193772e+00 0.000000e+00 0.000000e+00 0.000000e+00 0.000000e+00 1.454751e+01 2.610876e+01 0.000000e+00 2.610876e+01 5.774597e-01 0.000000e+00 0.000000e+00 0.000000e+00 0.000000e+00 1.101036e+01 2.645491e+01 0.000000e+00 2.645491e+01 -3.007972e-01 0.000000e+00 0.000000e+00 0.000000e+00 0.000000e+00 6.268157e+00 2.682240e+01 0.000000e+00 2.682240e+01 -3.251168e-01 0.000000e+00 0.000000e+00 0.000000e+00 0.000000e+00 7.059240e-01 2.760282e+01 0.000000e+00 2.760282e+01 -2.325251e-01 0.000000e+00 0.000000e+00 0.000000e+00 0.000000e+00 -4.202233e+00 2.880617e+01 0.000000e+00 2.880617e+01 -1.976409e+00 0.000000e+00 0.000000e+00 0.000000e+00 0.000000e+00 -7.207500e+00 2.935686e+01 0.000000e+00 2.935686e+01 -6.140730e+00 0.000000e+00 0.000000e+00 0.000000e+00 0.000000e+00 -8.034484e+00 2.822072e+01 0.000000e+00 2.822072e+01 -1.139155e+01 0.000000e+00 0.000000e+00 0.000000e+00 0.000000e+00 -6.714428e+00 2.476537e+01 0.000000e+00 2.476537e+01 -1.567258e+01 0.000000e+00 0.000000e+00 0.000000e+00 0.000000e+00 -4.462193e+00 1.988889e+01 0.000000e+00 1.988889e+01 -1.822350e+01 0.000000e+00 0.000000e+00 0.000000e+00 0.000000e+00 -2.014658e+00 1.437166e+01 0.000000e+00 1.437166e+01 -2.024466e+01 0.000000e+00 0.000000e+00 0.000000e+00 0.000000e+00 -8.877663e-01 8.058671e+00 0.000000e+00 8.058671e+00 -1.996023e+01 0.000000e+00 0.000000e+00 0.000000e+00 0.000000e+00 -1.433749e+00 2.750599e+00 0.000000e+00 2.750599e+00 -1.670610e+01 0.000000e+00 0.000000e+00 0.000000e+00 0.000000e+00 -3.111415e+00 -2.346820e-01 0.000000e+00 -2.346820e-01 -1.161117e+01 0.000000e+00 0.000000e+00 0.000000e+00 0.000000e+00 -3.775571e+00 6.915410e-02 0.000000e+00 6.915410e-02 -6.496975e+00 0.000000e+00 0.000000e+00 0.000000e+00 0.000000e+00 -3.035114e+00 1.574457e+00 0.000000e+00 1.574457e+00 -3.652819e+00 0.000000e+00 0.000000e+00 0.000000e+00 0.000000e+00 -1.339762e+00 2.845298e+00 0.000000e+00 2.845298e+00 -2.370301e+00 0.000000e+00 0.000000e+00 0.000000e+00 0.000000e+00 1.287593e+01 5.847820e+00 0.000000e+00 5.847820e+00 9.212685e+01 0.000000e+00 0.000000e+00 0.000000e+00 0.000000e+00 -2.240785e+00 -5.515695e-01 0.000000e+00 -5.515695e-01 -1.195057e+02 0.000000e+00 0.000000e+00 0.000000e+00 0.000000e+00 1.958962e+00 8.025719e-02 0.000000e+00 8.025719e-02 -1.066155e+02 0.000000e+00 0.000000e+00 0.000000e+00 0.000000e+00 5.643785e+00 9.648769e-02 0.000000e+00 9.648769e-02 -9.430413e+01 0.000000e+00 0.000000e+00 0.000000e+00 0.000000e+00 1.568776e+01 -2.870476e-01 0.000000e+00 -2.870476e-01 -6.669019e+01 0.000000e+00 0.000000e+00 0.000000e+00 0.000000e+00 1.360498e+01 -1.462943e-01 0.000000e+00 -1.462943e-01 -7.183338e+01 0.000000e+00 0.000000e+00 0.000000e+00 0.000000e+00 1.788673e+01 -3.419764e-01 0.000000e+00 -3.419764e-01 -6.187090e+01 0.000000e+00 0.000000e+00 0.000000e+00 0.000000e+00 2.259167e+01 -4.293419e-01 0.000000e+00 -4.293419e-01 -5.197755e+01 0.000000e+00 0.000000e+00 0.000000e+00 0.000000e+00 3.661995e+01 -7.595571e-01 0.000000e+00 -7.595571e-01 -2.899060e+01 0.000000e+00 0.000000e+00 0.000000e+00 0.000000e+00 3.352920e+01 -6.892087e-01 0.000000e+00 -6.892087e-01 -3.365508e+01 0.000000e+00 0.000000e+00 0.000000e+00 0.000000e+00 3.997070e+01 -9.380509e-01 0.000000e+00 -9.380509e-01 -2.448061e+01 0.000000e+00 0.000000e+00 0.000000e+00 0.000000e+00 5.774893e+01 -1.178043e+00 0.000000e+00 -1.178043e+00 -2.505285e+00 0.000000e+00 0.000000e+00 0.000000e+00 0.000000e+00 5.387655e+01 -1.173603e+00 0.000000e+00 -1.173603e+00 -7.160772e+00 0.000000e+00 0.000000e+00 0.000000e+00 0.000000e+00 6.190713e+01 -1.238353e+00 0.000000e+00 -1.238353e+00 2.338445e+00 0.000000e+00 0.000000e+00 0.000000e+00 0.000000e+00 7.954775e+01 -1.523395e+00 0.000000e+00 -1.523395e+00 2.236486e+01 0.000000e+00 0.000000e+00 0.000000e+00 0.000000e+00 9.002898e+01 -2.044354e+00 0.000000e+00 -2.044354e+00 3.366939e+01 0.000000e+00 0.000000e+00 0.000000e+00 0.000000e+00 1.028553e+02 -1.938168e+00 0.000000e+00 -1.938168e+00 4.628688e+01 0.000000e+00 0.000000e+00 0.000000e+00 0.000000e+00 1.412880e+02 -3.628561e+00 0.000000e+00 -3.628561e+00 8.750320e+01 0.000000e+00 0.000000e+00 0.000000e+00 0.000000e+00 1.315440e+02 -3.136297e+00 0.000000e+00 -3.136297e+00 7.775000e+01 0.000000e+00 0.000000e+00 0.000000e+00 0.000000e+00 1.520983e+02 -4.202915e+00 0.000000e+00 -4.202915e+00 9.840981e+01 0.000000e+00 0.000000e+00 0.000000e+00 0.000000e+00 1.796791e+02 -5.843036e+00 0.000000e+00 -5.843036e+00 1.271358e+02 0.000000e+00 0.000000e+00 0.000000e+00 0.000000e+00 2.293683e+02 -4.086575e+01 0.000000e+00 -4.086575e+01 3.154467e+02 0.000000e+00 0.000000e+00 0.000000e+00 0.000000e+00 2.355295e+02 -3.081371e+01 0.000000e+00 -3.081371e+01 2.376840e+02 0.000000e+00 0.000000e+00 0.000000e+00 0.000000e+00 6.266592e+01 3.372792e+00 0.000000e+00 3.372792e+00 -3.039350e-01 0.000000e+00 0.000000e+00 0.000000e+00 0.000000e+00 4.549847e+01 3.553906e+00 0.000000e+00 3.553906e+00 1.886538e-01 0.000000e+00 0.000000e+00 0.000000e+00 0.000000e+00 3.368789e+01 4.374562e+00 0.000000e+00 4.374562e+00 9.069124e-02 0.000000e+00 0.000000e+00 0.000000e+00 0.000000e+00 2.575318e+01 6.902647e+00 0.000000e+00 6.902647e+00 -6.534074e-01 0.000000e+00 0.000000e+00 0.000000e+00 0.000000e+00 8.684783e+00 4.176843e+00 0.000000e+00 4.176843e+00 -7.719386e-01 0.000000e+00 0.000000e+00 0.000000e+00 0.000000e+00 -5.178556e+00 -1.971141e-01 0.000000e+00 -1.971141e-01 -1.328560e+00 0.000000e+00 0.000000e+00 0.000000e+00 0.000000e+00 -3.089550e+00 -1.362075e+00 0.000000e+00 -1.362075e+00 -3.784995e-01 0.000000e+00 0.000000e+00 0.000000e+00 0.000000e+00 -5.412434e-02 8.235311e-01 0.000000e+00 8.235311e-01 -2.829363e+00 0.000000e+00 0.000000e+00 0.000000e+00 0.000000e+00 -1.455970e-01 1.392335e+00 0.000000e+00 1.392335e+00 -1.460933e-01 0.000000e+00 0.000000e+00 0.000000e+00 0.000000e+00 -4.844345e-02 -4.676509e-03 0.000000e+00 -4.676509e-03 1.335919e+00 0.000000e+00 0.000000e+00 0.000000e+00 0.000000e+00 -9.402295e+00 3.929722e+00 0.000000e+00 3.929722e+00 2.209224e-02 0.000000e+00 0.000000e+00 0.000000e+00 0.000000e+00 -4.949385e+01 6.081926e+00 0.000000e+00 6.081926e+00 -1.040013e+00 0.000000e+00 0.000000e+00 0.000000e+00 0.000000e+00 -5.848778e+01 -1.554517e-01 0.000000e+00 -1.554517e-01 -1.040861e+00 0.000000e+00 0.000000e+00 0.000000e+00 0.000000e+00 1.428576e+00 -1.028000e+01 0.000000e+00 -1.028000e+01 -3.407490e+01 0.000000e+00 0.000000e+00 0.000000e+00 0.000000e+00 2.524617e+01 -5.215640e-01 0.000000e+00 -5.215640e-01 -4.722912e+01 0.000000e+00 0.000000e+00 0.000000e+00 0.000000e+00 1.922249e+02 -8.212808e+00 0.000000e+00 -8.212808e+00 1.439696e+02 0.000000e+00 0.000000e+00 0.000000e+00 0.000000e+00 3.915659e+01 3.861012e+00 0.000000e+00 3.861012e+00 1.712966e-01 0.000000e+00 0.000000e+00 0.000000e+00 0.000000e+00 2.815376e+01 4.937990e+00 0.000000e+00 4.937990e+00 -2.418751e-01 0.000000e+00 0.000000e+00 0.000000e+00 0.000000e+00 -1.391690e-01 -4.976009e-01 0.000000e+00 -4.976009e-01 9.197924e-01 0.000000e+00 0.000000e+00 0.000000e+00 0.000000e+00 7.365806e+00 2.360802e-02 0.000000e+00 2.360802e-02 -8.854828e+01 0.000000e+00 0.000000e+00 0.000000e+00 0.000000e+00 4.000338e+00 1.511228e-01 0.000000e+00 1.511228e-01 -1.002942e+02 0.000000e+00 0.000000e+00 0.000000e+00 0.000000e+00 2.020109e+01 -2.774885e-01 0.000000e+00 -2.774885e-01 -5.691557e+01 0.000000e+00 0.000000e+00 0.000000e+00 0.000000e+00 4.323413e+01 -1.014519e+00 0.000000e+00 -1.014519e+00 -2.021677e+01 0.000000e+00 0.000000e+00 0.000000e+00 0.000000e+00 6.589762e+01 -1.421370e+00 0.000000e+00 -1.421370e+00 6.960875e+00 0.000000e+00 0.000000e+00 0.000000e+00 0.000000e+00 1.096024e+02 -1.937922e+00 0.000000e+00 -1.937922e+00 5.375656e+01 0.000000e+00 0.000000e+00 0.000000e+00 0.000000e+00 9.616490e+01 -2.117505e+00 0.000000e+00 -2.117505e+00 3.956011e+01 0.000000e+00 0.000000e+00 0.000000e+00 0.000000e+00 1.657519e+02 -4.472263e+00 0.000000e+00 -4.472263e+00 1.118241e+02 0.000000e+00 0.000000e+00 0.000000e+00 0.000000e+00 5.337840e+01 3.501508e+00 0.000000e+00 3.501508e+00 2.727151e-01 0.000000e+00 0.000000e+00 0.000000e+00 0.000000e+00 1.822384e+01 5.426878e+00 0.000000e+00 5.426878e+00 -2.144818e-01 0.000000e+00 0.000000e+00 0.000000e+00 0.000000e+00 -1.724408e-02 5.168427e-01 0.000000e+00 5.168427e-01 1.248916e+00 0.000000e+00 0.000000e+00 0.000000e+00 0.000000e+00 -2.460269e-04 1.383961e+00 0.000000e+00 1.383961e+00 -1.460492e+00 0.000000e+00 0.000000e+00 0.000000e+00 0.000000e+00 -1.742423e+01 5.572843e+00 0.000000e+00 5.572843e+00 -6.359836e-02 0.000000e+00 0.000000e+00 0.000000e+00 0.000000e+00 -5.687344e+01 3.931440e+00 0.000000e+00 3.931440e+00 -1.652320e+00 0.000000e+00 0.000000e+00 0.000000e+00 0.000000e+00 2.124559e+00 -4.328943e+00 0.000000e+00 -4.328943e+00 -1.071912e+02 0.000000e+00 0.000000e+00 0.000000e+00 0.000000e+00 5.483094e+00 -4.073747e+00 0.000000e+00 -4.073747e+00 -9.467770e+01 0.000000e+00 0.000000e+00 0.000000e+00 0.000000e+00 2.025819e+01 -4.506232e+00 0.000000e+00 -4.506232e+00 -5.692278e+01 0.000000e+00 0.000000e+00 0.000000e+00 0.000000e+00 1.553049e+01 -4.309201e+00 0.000000e+00 -4.309201e+00 -6.678712e+01 0.000000e+00 0.000000e+00 0.000000e+00 0.000000e+00 3.708643e+00 -4.209319e+00 0.000000e+00 -4.209319e+00 -1.010450e+02 0.000000e+00 0.000000e+00 0.000000e+00 0.000000e+00 5.441228e+00 -1.641232e+00 0.000000e+00 -1.641232e+00 -9.757130e+01 0.000000e+00 0.000000e+00 0.000000e+00 0.000000e+00 1.787372e+01 -4.340402e+00 0.000000e+00 -4.340402e+00 -6.162269e+01 0.000000e+00 0.000000e+00 0.000000e+00 0.000000e+00 1.680865e+01 -2.589665e+00 0.000000e+00 -2.589665e+00 -6.420463e+01 0.000000e+00 0.000000e+00 0.000000e+00 0.000000e+00 1.821152e+01 -2.690131e+00 0.000000e+00 -2.690131e+00 -5.939242e+01 0.000000e+00 0.000000e+00 0.000000e+00 0.000000e+00 1.317239e+01 -4.403473e+00 0.000000e+00 -4.403473e+00 -7.168788e+01 0.000000e+00 0.000000e+00 0.000000e+00 0.000000e+00 1.535066e+01 -2.496113e+00 0.000000e+00 -2.496113e+00 -6.918888e+01 0.000000e+00 0.000000e+00 0.000000e+00 0.000000e+00 4.322520e+01 -5.993478e+00 0.000000e+00 -5.993478e+00 -2.022114e+01 0.000000e+00 0.000000e+00 0.000000e+00 0.000000e+00 3.655810e+01 -5.842239e+00 0.000000e+00 -5.842239e+00 -2.919014e+01 0.000000e+00 0.000000e+00 0.000000e+00 0.000000e+00 1.991239e+02 -3.170869e+01 0.000000e+00 -3.170869e+01 1.511213e+02 0.000000e+00 0.000000e+00 0.000000e+00 0.000000e+00 3.963850e+01 -5.907738e+00 0.000000e+00 -5.907738e+00 -2.449770e+01 0.000000e+00 0.000000e+00 0.000000e+00 0.000000e+00 3.841204e+01 -4.139102e+00 0.000000e+00 -4.139102e+00 -2.682060e+01 0.000000e+00 0.000000e+00 0.000000e+00 0.000000e+00 4.134687e+01 -4.432236e+00 0.000000e+00 -4.432236e+00 -2.233025e+01 0.000000e+00 0.000000e+00 0.000000e+00 0.000000e+00 3.373924e+01 -5.591527e+00 0.000000e+00 -5.591527e+00 -3.370595e+01 0.000000e+00 0.000000e+00 0.000000e+00 0.000000e+00 3.427500e+01 -3.995324e+00 0.000000e+00 -3.995324e+00 -3.153201e+01 0.000000e+00 0.000000e+00 0.000000e+00 0.000000e+00 5.754689e+01 -7.198661e+00 0.000000e+00 -7.198661e+00 -2.361475e+00 0.000000e+00 0.000000e+00 0.000000e+00 0.000000e+00 6.589127e+01 -7.323176e+00 0.000000e+00 -7.323176e+00 7.039018e+00 0.000000e+00 0.000000e+00 0.000000e+00 0.000000e+00 6.163909e+01 -7.278950e+00 0.000000e+00 -7.278950e+00 2.229682e+00 0.000000e+00 0.000000e+00 0.000000e+00 0.000000e+00 5.939785e+01 -5.585844e+00 0.000000e+00 -5.585844e+00 -1.087099e-01 0.000000e+00 0.000000e+00 0.000000e+00 0.000000e+00 6.406099e+01 -5.536012e+00 0.000000e+00 -5.536012e+00 4.623835e+00 0.000000e+00 0.000000e+00 0.000000e+00 0.000000e+00 5.371135e+01 -6.940044e+00 0.000000e+00 -6.940044e+00 -7.249371e+00 0.000000e+00 0.000000e+00 0.000000e+00 0.000000e+00 5.454022e+01 -5.255354e+00 0.000000e+00 -5.255354e+00 -4.973108e+00 0.000000e+00 0.000000e+00 0.000000e+00 0.000000e+00 8.014611e+01 -8.926680e+00 0.000000e+00 -8.926680e+00 2.321721e+01 0.000000e+00 0.000000e+00 0.000000e+00 0.000000e+00 1.078143e+02 -1.127129e+01 0.000000e+00 -1.127129e+01 5.469828e+01 0.000000e+00 0.000000e+00 0.000000e+00 0.000000e+00 9.061247e+01 -1.021662e+01 0.000000e+00 -1.021662e+01 3.479413e+01 0.000000e+00 0.000000e+00 0.000000e+00 0.000000e+00 1.017444e+02 -1.133556e+01 0.000000e+00 -1.133556e+01 4.760334e+01 0.000000e+00 0.000000e+00 0.000000e+00 0.000000e+00 1.053375e+02 -8.734630e+00 0.000000e+00 -8.734630e+00 5.063476e+01 0.000000e+00 0.000000e+00 0.000000e+00 0.000000e+00 1.636508e+02 -2.267170e+01 0.000000e+00 -2.267170e+01 1.151800e+02 0.000000e+00 0.000000e+00 0.000000e+00 0.000000e+00 1.420429e+02 -1.828701e+01 0.000000e+00 -1.828701e+01 9.054722e+01 0.000000e+00 0.000000e+00 0.000000e+00 0.000000e+00 9.590898e+01 -1.091219e+01 0.000000e+00 -1.091219e+01 4.091861e+01 0.000000e+00 0.000000e+00 0.000000e+00 0.000000e+00 9.084572e+01 -8.342632e+00 0.000000e+00 -8.342632e+00 3.696032e+01 0.000000e+00 0.000000e+00 0.000000e+00 0.000000e+00 9.667295e+01 -8.583989e+00 0.000000e+00 -8.583989e+00 4.337923e+01 0.000000e+00 0.000000e+00 0.000000e+00 0.000000e+00 1.526294e+02 -2.072152e+01 0.000000e+00 -2.072152e+01 1.025407e+02 0.000000e+00 0.000000e+00 0.000000e+00 0.000000e+00 1.390561e+02 -1.528514e+01 0.000000e+00 -1.528514e+01 9.420556e+01 0.000000e+00 0.000000e+00 0.000000e+00 0.000000e+00 1.500812e+02 -1.684595e+01 0.000000e+00 -1.684595e+01 1.060546e+02 0.000000e+00 0.000000e+00 0.000000e+00 0.000000e+00 1.330597e+02 -1.591462e+01 0.000000e+00 -1.591462e+01 7.981955e+01 0.000000e+00 0.000000e+00 0.000000e+00 0.000000e+00 1.291362e+02 -1.343525e+01 0.000000e+00 -1.343525e+01 8.332339e+01 0.000000e+00 0.000000e+00 0.000000e+00 0.000000e+00 1.806135e+02 -2.550642e+01 0.000000e+00 -2.550642e+01 1.321150e+02 0.000000e+00 0.000000e+00 0.000000e+00 0.000000e+00 1.647731e+02 -1.801700e+01 0.000000e+00 -1.801700e+01 1.201812e+02 0.000000e+00 0.000000e+00 0.000000e+00 0.000000e+00 1.673631e+02 -2.329767e+01 0.000000e+00 -2.329767e+01 1.373140e+02 0.000000e+00 0.000000e+00 0.000000e+00 0.000000e+00 5.244714e+01 1.044540e+01 0.000000e+00 1.044540e+01 1.074159e+00 0.000000e+00 0.000000e+00 0.000000e+00 0.000000e+00 2.406542e+02 -6.180008e+01 0.000000e+00 -6.180008e+01 3.345886e+02 0.000000e+00 0.000000e+00 0.000000e+00 0.000000e+00 3.941224e+01 9.254626e+00 0.000000e+00 9.254626e+00 -3.844107e-01 0.000000e+00 0.000000e+00 0.000000e+00 0.000000e+00 6.287675e+01 1.352450e+01 0.000000e+00 1.352450e+01 4.233464e+00 0.000000e+00 0.000000e+00 0.000000e+00 0.000000e+00 6.044086e+01 1.137841e+01 0.000000e+00 1.137841e+01 4.290294e-01 0.000000e+00 0.000000e+00 0.000000e+00 0.000000e+00 7.792412e+01 2.133275e+01 0.000000e+00 2.133275e+01 1.114138e+01 0.000000e+00 0.000000e+00 0.000000e+00 0.000000e+00 7.164671e+01 1.538082e+01 0.000000e+00 1.538082e+01 1.437990e+00 0.000000e+00 0.000000e+00 0.000000e+00 0.000000e+00 2.509122e+02 -6.641234e+01 0.000000e+00 -6.641234e+01 2.695371e+02 0.000000e+00 0.000000e+00 0.000000e+00 0.000000e+00 1.659733e+02 -3.616675e+01 0.000000e+00 -3.616675e+01 2.946395e+02 0.000000e+00 0.000000e+00 0.000000e+00 0.000000e+00 4.551948e+01 9.597419e+00 0.000000e+00 9.597419e+00 2.586712e-01 0.000000e+00 0.000000e+00 0.000000e+00 0.000000e+00 4.295549e+01 9.199521e+00 0.000000e+00 9.199521e+00 -2.711675e-01 0.000000e+00 0.000000e+00 0.000000e+00 0.000000e+00 9.739574e+01 -7.060452e+00 0.000000e+00 -7.060452e+00 -3.524709e+01 0.000000e+00 0.000000e+00 0.000000e+00 0.000000e+00 1.589122e+01 1.303036e+01 0.000000e+00 1.303036e+01 1.581022e+00 0.000000e+00 0.000000e+00 0.000000e+00 0.000000e+00 2.944518e+01 9.601379e+00 0.000000e+00 9.601379e+00 -9.762860e-01 0.000000e+00 0.000000e+00 0.000000e+00 0.000000e+00 2.359822e+01 1.371032e+01 0.000000e+00 1.371032e+01 3.664652e+00 0.000000e+00 0.000000e+00 0.000000e+00 0.000000e+00 2.187999e+01 1.307411e+01 0.000000e+00 1.307411e+01 3.012219e+00 0.000000e+00 0.000000e+00 0.000000e+00 0.000000e+00 -9.085199e-01 -7.492275e-01 0.000000e+00 -7.492275e-01 5.875591e-01 0.000000e+00 0.000000e+00 0.000000e+00 0.000000e+00 3.174198e+01 9.436832e+00 0.000000e+00 9.436832e+00 -6.885152e-01 0.000000e+00 0.000000e+00 0.000000e+00 0.000000e+00 7.801425e+00 1.136732e+01 0.000000e+00 1.136732e+01 2.433986e+00 0.000000e+00 0.000000e+00 0.000000e+00 0.000000e+00 -1.439994e+00 1.434811e+00 0.000000e+00 1.434811e+00 5.813042e-01 0.000000e+00 0.000000e+00 0.000000e+00 0.000000e+00 1.839640e+00 1.468395e+00 0.000000e+00 1.468395e+00 -2.357967e+00 0.000000e+00 0.000000e+00 0.000000e+00 0.000000e+00 -3.644074e+00 -1.588256e+00 0.000000e+00 -1.588256e+00 2.804895e+00 0.000000e+00 0.000000e+00 0.000000e+00 0.000000e+00 -2.133286e+00 -2.829340e+00 0.000000e+00 -2.829340e+00 4.832495e-01 0.000000e+00 0.000000e+00 0.000000e+00 0.000000e+00 -1.234299e+00 -1.630599e+00 0.000000e+00 -1.630599e+00 -6.779013e-01 0.000000e+00 0.000000e+00 0.000000e+00 0.000000e+00 -2.638470e+00 -5.413525e+00 0.000000e+00 -5.413525e+00 -1.211223e+02 0.000000e+00 0.000000e+00 0.000000e+00 0.000000e+00 1.355450e+00 -1.532554e+00 0.000000e+00 -1.532554e+00 -2.053621e+00 0.000000e+00 0.000000e+00 0.000000e+00 0.000000e+00 2.451575e+00 -1.041872e-01 0.000000e+00 -1.041872e-01 -2.667127e+00 0.000000e+00 0.000000e+00 0.000000e+00 0.000000e+00 7.514535e-01 -1.229176e+00 0.000000e+00 -1.229176e+00 -2.347920e+00 0.000000e+00 0.000000e+00 0.000000e+00 0.000000e+00 8.342918e-01 9.425075e-01 0.000000e+00 9.425075e-01 -2.938052e+00 0.000000e+00 0.000000e+00 0.000000e+00 0.000000e+00 -2.054637e+01 1.335099e+01 0.000000e+00 1.335099e+01 -3.521446e+00 0.000000e+00 0.000000e+00 0.000000e+00 0.000000e+00 -1.229851e+00 -1.275770e-02 0.000000e+00 -1.275770e-02 1.005110e+00 0.000000e+00 0.000000e+00 0.000000e+00 0.000000e+00 -5.522039e-01 6.584194e-01 0.000000e+00 6.584194e-01 -6.820955e-01 0.000000e+00 0.000000e+00 0.000000e+00 0.000000e+00 -7.191609e-01 8.760738e-02 0.000000e+00 8.760738e-02 -1.445831e+00 0.000000e+00 0.000000e+00 0.000000e+00 0.000000e+00 4.903139e-01 2.403589e+00 0.000000e+00 2.403589e+00 -1.215456e+00 0.000000e+00 0.000000e+00 0.000000e+00 0.000000e+00 -1.123927e+01 9.872810e+00 0.000000e+00 9.872810e+00 -4.078313e+00 0.000000e+00 0.000000e+00 0.000000e+00 0.000000e+00 -2.985888e+01 1.538034e+01 0.000000e+00 1.538034e+01 -1.032138e+00 0.000000e+00 0.000000e+00 0.000000e+00 0.000000e+00 -2.222908e-01 -8.276357e-01 0.000000e+00 -8.276357e-01 3.113933e-01 0.000000e+00 0.000000e+00 0.000000e+00 0.000000e+00 -4.804703e-01 -4.295197e-01 0.000000e+00 -4.295197e-01 -1.839490e+00 0.000000e+00 0.000000e+00 0.000000e+00 0.000000e+00 9.050288e-02 -3.176757e-01 0.000000e+00 -3.176757e-01 -2.180293e+00 0.000000e+00 0.000000e+00 0.000000e+00 0.000000e+00 -4.882167e+01 1.346888e+01 0.000000e+00 1.346888e+01 4.940504e+00 0.000000e+00 0.000000e+00 0.000000e+00 0.000000e+00 -4.854476e+01 -1.259761e+01 0.000000e+00 -1.259761e+01 1.250053e+01 0.000000e+00 0.000000e+00 0.000000e+00 0.000000e+00 -4.692310e+00 5.854575e+00 0.000000e+00 5.854575e+00 -4.496321e+00 0.000000e+00 0.000000e+00 0.000000e+00 0.000000e+00 -5.494854e+00 7.777469e+00 0.000000e+00 7.777469e+00 -8.001199e-01 0.000000e+00 0.000000e+00 0.000000e+00 0.000000e+00 -3.978071e+01 1.592596e+01 0.000000e+00 1.592596e+01 2.175538e+00 0.000000e+00 0.000000e+00 0.000000e+00 0.000000e+00 -2.559654e+01 1.628841e+01 0.000000e+00 1.628841e+01 -4.781497e-01 0.000000e+00 0.000000e+00 0.000000e+00 0.000000e+00 -3.243491e+01 1.537474e+01 0.000000e+00 1.537474e+01 2.480449e-01 0.000000e+00 0.000000e+00 0.000000e+00 0.000000e+00 -3.508651e+01 -2.211667e+01 0.000000e+00 -2.211667e+01 6.002611e+00 0.000000e+00 0.000000e+00 0.000000e+00 0.000000e+00 -3.110629e+00 -2.416658e+01 0.000000e+00 -2.416658e+01 -3.501502e+01 0.000000e+00 0.000000e+00 0.000000e+00 0.000000e+00 -1.506568e+01 -2.212584e+01 0.000000e+00 -2.212584e+01 -2.720686e+00 0.000000e+00 0.000000e+00 0.000000e+00 0.000000e+00 -3.319497e+00 -1.107090e+01 0.000000e+00 -1.107090e+01 -2.143516e+01 0.000000e+00 0.000000e+00 0.000000e+00 0.000000e+00 7.177480e-02 -4.633987e+00 0.000000e+00 -4.633987e+00 -1.141067e+02 0.000000e+00 0.000000e+00 0.000000e+00 0.000000e+00 7.811061e-01 -2.587705e+00 0.000000e+00 -2.587705e+00 -1.166994e+02 0.000000e+00 0.000000e+00 0.000000e+00 0.000000e+00 1.901960e+00 -1.768950e+00 0.000000e+00 -1.768950e+00 -1.099955e+02 0.000000e+00 0.000000e+00 0.000000e+00 0.000000e+00 8.526181e+01 -9.528396e+00 0.000000e+00 -9.528396e+00 2.911369e+01 0.000000e+00 0.000000e+00 0.000000e+00 0.000000e+00 8.099161e+01 -7.077037e+00 0.000000e+00 -7.077037e+00 2.550204e+01 0.000000e+00 0.000000e+00 0.000000e+00 0.000000e+00 8.585591e+01 -7.736216e+00 0.000000e+00 -7.736216e+00 3.121940e+01 0.000000e+00 0.000000e+00 0.000000e+00 0.000000e+00 1.992785e+02 2.960183e+01 0.000000e+00 2.960183e+01 4.801737e+02 0.000000e+00 0.000000e+00 0.000000e+00 0.000000e+00 -1.196143e+00 2.230500e+00 0.000000e+00 2.230500e+00 -4.212500e+00 0.000000e+00 0.000000e+00 0.000000e+00 0.000000e+00 -2.930556e-01 6.052152e-01 0.000000e+00 6.052152e-01 -2.760376e-01 0.000000e+00 0.000000e+00 0.000000e+00 0.000000e+00 -2.204999e+00 4.077357e+00 0.000000e+00 4.077357e+00 -8.384859e-01 0.000000e+00 0.000000e+00 0.000000e+00 0.000000e+00 -4.471700e+00 -8.045149e+00 0.000000e+00 -8.045149e+00 -6.486725e+01 0.000000e+00 0.000000e+00 0.000000e+00 0.000000e+00 1.719456e+00 2.334433e+00 0.000000e+00 2.334433e+00 -2.860504e+00 0.000000e+00 0.000000e+00 0.000000e+00 0.000000e+00 2.536338e+01 -4.755566e+00 0.000000e+00 -4.755566e+00 -4.743108e+01 0.000000e+00 0.000000e+00 0.000000e+00 0.000000e+00 4.079133e+00 -1.636001e+00 0.000000e+00 -1.636001e+00 -1.011749e+00 0.000000e+00 0.000000e+00 0.000000e+00 0.000000e+00 2.489482e+00 -2.185524e+00 0.000000e+00 -2.185524e+00 1.215613e+00 0.000000e+00 0.000000e+00 0.000000e+00 0.000000e+00 2.589903e-01 -3.440392e-01 0.000000e+00 -3.440392e-01 3.016280e+00 0.000000e+00 0.000000e+00 0.000000e+00 0.000000e+00 -3.411700e-01 2.486783e+00 0.000000e+00 2.486783e+00 3.187038e+00 0.000000e+00 0.000000e+00 0.000000e+00 0.000000e+00 2.990478e+00 1.280897e+01 0.000000e+00 1.280897e+01 3.496498e+00 0.000000e+00 0.000000e+00 0.000000e+00 0.000000e+00 7.473735e+00 1.772219e+01 0.000000e+00 1.772219e+01 3.190826e+00 0.000000e+00 0.000000e+00 0.000000e+00 0.000000e+00 1.263988e+01 2.234122e+01 0.000000e+00 2.234122e+01 2.180886e+00 0.000000e+00 0.000000e+00 0.000000e+00 0.000000e+00 1.742429e+01 2.540461e+01 0.000000e+00 2.540461e+01 -8.262502e-02 0.000000e+00 0.000000e+00 0.000000e+00 0.000000e+00 7.011860e+00 2.521989e+01 0.000000e+00 2.521989e+01 -1.064401e-01 0.000000e+00 0.000000e+00 0.000000e+00 0.000000e+00 -6.396258e+00 2.725186e+01 0.000000e+00 2.725186e+01 -1.026977e-01 0.000000e+00 0.000000e+00 0.000000e+00 0.000000e+00 -8.546930e+00 2.801043e+01 0.000000e+00 2.801043e+01 -2.163730e+00 0.000000e+00 0.000000e+00 0.000000e+00 0.000000e+00 -7.070825e+00 2.690591e+01 0.000000e+00 2.690591e+01 -5.270247e+00 0.000000e+00 0.000000e+00 0.000000e+00 0.000000e+00 -4.105462e+00 2.334467e+01 0.000000e+00 2.334467e+01 -7.863044e+00 0.000000e+00 0.000000e+00 0.000000e+00 0.000000e+00 7.202737e-01 1.324988e+01 0.000000e+00 1.324988e+01 -1.094802e+01 0.000000e+00 0.000000e+00 0.000000e+00 0.000000e+00 1.407457e+00 7.730551e+00 0.000000e+00 7.730551e+00 -1.055729e+01 0.000000e+00 0.000000e+00 0.000000e+00 0.000000e+00 4.235824e-01 3.362087e+00 0.000000e+00 3.362087e+00 -8.684473e+00 0.000000e+00 0.000000e+00 0.000000e+00 0.000000e+00 -2.295064e+00 1.462331e+00 0.000000e+00 1.462331e+00 -3.772726e+00 0.000000e+00 0.000000e+00 0.000000e+00 0.000000e+00 -2.059097e+00 2.506902e+00 0.000000e+00 2.506902e+00 -2.323897e+00 0.000000e+00 0.000000e+00 0.000000e+00 0.000000e+00 1.783506e+02 6.707936e+01 0.000000e+00 6.707936e+01 -3.190562e+01 0.000000e+00 0.000000e+00 0.000000e+00 0.000000e+00 1.149340e+02 4.607482e+01 0.000000e+00 4.607482e+01 3.065274e+01 0.000000e+00 0.000000e+00 0.000000e+00 0.000000e+00 8.473036e+01 2.765770e+01 0.000000e+00 2.765770e+01 1.565028e+00 0.000000e+00 0.000000e+00 0.000000e+00 0.000000e+00 -1.028636e-01 -2.232511e+00 0.000000e+00 -2.232511e+00 -1.175147e+00 0.000000e+00 0.000000e+00 0.000000e+00 0.000000e+00 4.784503e+00 -1.994770e+01 0.000000e+00 -1.994770e+01 -4.621065e+01 0.000000e+00 0.000000e+00 0.000000e+00 0.000000e+00 1.323754e+02 8.851173e+01 0.000000e+00 8.851173e+01 9.674587e+01 0.000000e+00 0.000000e+00 0.000000e+00 0.000000e+00 -1.061665e+01 -1.047296e+01 0.000000e+00 -1.047296e+01 -1.380059e+02 0.000000e+00 0.000000e+00 0.000000e+00 0.000000e+00 1.624256e+01 1.339502e+01 0.000000e+00 1.339502e+01 2.426679e+00 0.000000e+00 0.000000e+00 0.000000e+00 0.000000e+00 3.681153e+00 -1.702273e+00 0.000000e+00 -1.702273e+00 -1.035327e+02 0.000000e+00 0.000000e+00 0.000000e+00 0.000000e+00 9.514923e+00 -4.313031e+00 0.000000e+00 -4.313031e+00 -8.279280e+01 0.000000e+00 0.000000e+00 0.000000e+00 0.000000e+00 4.386953e+01 -4.543312e+00 0.000000e+00 -4.543312e+00 -1.808768e+01 0.000000e+00 0.000000e+00 0.000000e+00 0.000000e+00 4.673341e+01 -6.288518e+00 0.000000e+00 -6.288518e+00 -1.577206e+01 0.000000e+00 0.000000e+00 0.000000e+00 0.000000e+00 2.272816e+01 -4.663213e+00 0.000000e+00 -4.663213e+00 -5.169603e+01 0.000000e+00 0.000000e+00 0.000000e+00 0.000000e+00 4.249271e-01 -2.450640e+00 0.000000e+00 -2.450640e+00 -9.155992e-01 0.000000e+00 0.000000e+00 0.000000e+00 0.000000e+00 6.676881e+01 -5.858556e+00 0.000000e+00 -5.858556e+00 9.255496e+00 0.000000e+00 0.000000e+00 0.000000e+00 0.000000e+00 7.038983e+01 -7.730591e+00 0.000000e+00 -7.730591e+00 1.210926e+01 0.000000e+00 0.000000e+00 0.000000e+00 0.000000e+00 2.137304e+01 -2.689484e+00 0.000000e+00 -2.689484e+00 -5.442919e+01 0.000000e+00 0.000000e+00 0.000000e+00 0.000000e+00 1.128037e+02 -9.013701e+00 0.000000e+00 -9.013701e+00 5.765863e+01 0.000000e+00 0.000000e+00 0.000000e+00 0.000000e+00 1.160995e+02 -1.159599e+01 0.000000e+00 -1.159599e+01 6.198946e+01 0.000000e+00 0.000000e+00 0.000000e+00 0.000000e+00 1.345849e+02 6.628229e+01 0.000000e+00 6.628229e+01 3.173742e+02 0.000000e+00 0.000000e+00 0.000000e+00 0.000000e+00 5.063406e+01 9.806150e+00 0.000000e+00 9.806150e+00 8.685537e-02 0.000000e+00 0.000000e+00 0.000000e+00 0.000000e+00 1.504588e+02 3.452590e+00 0.000000e+00 3.452590e+00 4.056972e+02 0.000000e+00 0.000000e+00 0.000000e+00 0.000000e+00 3.759627e+01 9.127678e+00 0.000000e+00 9.127678e+00 -6.703280e-01 0.000000e+00 0.000000e+00 0.000000e+00 0.000000e+00 3.412158e+01 9.377602e+00 0.000000e+00 9.377602e+00 -9.856362e-01 0.000000e+00 0.000000e+00 0.000000e+00 0.000000e+00 1.134398e+02 6.191992e+01 0.000000e+00 6.191992e+01 1.591455e+01 0.000000e+00 0.000000e+00 0.000000e+00 0.000000e+00 1.744839e+02 -2.881752e+01 0.000000e+00 -2.881752e+01 1.581716e+02 0.000000e+00 0.000000e+00 0.000000e+00 0.000000e+00 2.167433e+02 -4.149995e+01 0.000000e+00 -4.149995e+01 1.782942e+02 0.000000e+00 0.000000e+00 0.000000e+00 0.000000e+00 3.363037e+01 9.222453e+00 0.000000e+00 9.222453e+00 -1.228904e+00 0.000000e+00 0.000000e+00 0.000000e+00 0.000000e+00 2.766569e+01 1.126531e+01 0.000000e+00 1.126531e+01 5.473047e+00 0.000000e+00 0.000000e+00 0.000000e+00 0.000000e+00 -3.787857e+01 1.238093e+01 0.000000e+00 1.238093e+01 6.445203e-01 0.000000e+00 0.000000e+00 0.000000e+00 0.000000e+00 -5.456297e+01 7.904761e+00 0.000000e+00 7.904761e+00 8.827464e+00 0.000000e+00 0.000000e+00 0.000000e+00 0.000000e+00 3.279494e+01 1.009263e+01 0.000000e+00 1.009263e+01 1.733948e+00 0.000000e+00 0.000000e+00 0.000000e+00 0.000000e+00 2.793972e+01 1.081699e+01 0.000000e+00 1.081699e+01 1.094496e+00 0.000000e+00 0.000000e+00 0.000000e+00 0.000000e+00 7.549520e+00 1.147108e+01 0.000000e+00 1.147108e+01 2.986247e+00 0.000000e+00 0.000000e+00 0.000000e+00 0.000000e+00 -1.035081e+01 1.151712e+01 0.000000e+00 1.151712e+01 -3.392223e-01 0.000000e+00 0.000000e+00 0.000000e+00 0.000000e+00 -3.542382e+00 1.570769e+00 0.000000e+00 1.570769e+00 4.962579e+00 0.000000e+00 0.000000e+00 0.000000e+00 0.000000e+00 -1.780445e+00 -5.512762e-02 0.000000e+00 -5.512762e-02 1.328491e-01 0.000000e+00 0.000000e+00 0.000000e+00 0.000000e+00 -5.960905e-01 -2.463000e+00 0.000000e+00 -2.463000e+00 -8.476286e-02 0.000000e+00 0.000000e+00 0.000000e+00 0.000000e+00 -1.009624e+00 -1.732945e+01 0.000000e+00 -1.732945e+01 -7.089921e+01 0.000000e+00 0.000000e+00 0.000000e+00 0.000000e+00 -2.910778e+00 -2.422751e+01 0.000000e+00 -2.422751e+01 -5.094401e+01 0.000000e+00 0.000000e+00 0.000000e+00 0.000000e+00 -1.656542e+01 1.543713e+01 0.000000e+00 1.543713e+01 2.528052e-01 0.000000e+00 0.000000e+00 0.000000e+00 0.000000e+00 7.476228e+00 -4.104003e+00 0.000000e+00 -4.104003e+00 -8.864020e+01 0.000000e+00 0.000000e+00 0.000000e+00 0.000000e+00 -3.986381e+01 -1.441848e+01 0.000000e+00 -1.441848e+01 8.536694e+00 0.000000e+00 0.000000e+00 0.000000e+00 0.000000e+00 1.263434e+02 8.121628e+01 0.000000e+00 8.121628e+01 9.997598e+01 0.000000e+00 0.000000e+00 0.000000e+00 0.000000e+00 6.723031e+00 -1.817470e+00 0.000000e+00 -1.817470e+00 -9.147859e+01 0.000000e+00 0.000000e+00 0.000000e+00 0.000000e+00 -1.325157e+00 -2.537820e+01 0.000000e+00 -2.537820e+01 -3.158691e+01 0.000000e+00 0.000000e+00 0.000000e+00 0.000000e+00 7.673832e+00 -1.946348e+00 0.000000e+00 -1.946348e+00 -8.576189e+01 0.000000e+00 0.000000e+00 0.000000e+00 0.000000e+00 -2.451159e+01 -2.317638e+01 0.000000e+00 -2.317638e+01 -3.216209e+00 0.000000e+00 0.000000e+00 0.000000e+00 0.000000e+00 -5.202597e+00 -1.960549e+01 0.000000e+00 -1.960549e+01 -9.085323e+00 0.000000e+00 0.000000e+00 0.000000e+00 0.000000e+00 4.396769e+00 -1.218355e+01 0.000000e+00 -1.218355e+01 -7.138845e+01 0.000000e+00 0.000000e+00 0.000000e+00 0.000000e+00 4.095851e-01 3.403687e+00 0.000000e+00 3.403687e+00 -2.414811e+00 0.000000e+00 0.000000e+00 0.000000e+00 0.000000e+00 2.616384e+01 -3.092707e+00 0.000000e+00 -3.092707e+00 -4.506951e+01 0.000000e+00 0.000000e+00 0.000000e+00 0.000000e+00 2.806502e+01 -4.937520e+00 0.000000e+00 -4.937520e+00 -4.243213e+01 0.000000e+00 0.000000e+00 0.000000e+00 0.000000e+00 -1.697712e+00 2.143077e+00 0.000000e+00 2.143077e+00 -1.555600e+00 0.000000e+00 0.000000e+00 0.000000e+00 0.000000e+00 -1.066528e+00 3.359083e+00 0.000000e+00 3.359083e+00 -1.982979e+00 0.000000e+00 0.000000e+00 0.000000e+00 0.000000e+00 -2.893074e+00 8.892564e-01 0.000000e+00 8.892564e-01 -3.006776e+00 0.000000e+00 0.000000e+00 0.000000e+00 0.000000e+00 -1.945620e+00 1.110117e+00 0.000000e+00 1.110117e+00 -1.019482e+01 0.000000e+00 0.000000e+00 0.000000e+00 0.000000e+00 -1.475895e+00 1.154133e+00 0.000000e+00 1.154133e+00 -6.102154e+00 0.000000e+00 0.000000e+00 0.000000e+00 0.000000e+00 -1.629097e+00 4.944721e+00 0.000000e+00 4.944721e+00 -1.399056e+01 0.000000e+00 0.000000e+00 0.000000e+00 0.000000e+00 -2.531666e+00 1.019964e+01 0.000000e+00 1.019964e+01 -1.563487e+01 0.000000e+00 0.000000e+00 0.000000e+00 0.000000e+00 -8.497960e+00 2.078271e+01 0.000000e+00 2.078271e+01 -1.305235e+01 0.000000e+00 0.000000e+00 0.000000e+00 0.000000e+00 -1.359080e+00 1.837125e+01 0.000000e+00 1.837125e+01 -9.530713e+00 0.000000e+00 0.000000e+00 0.000000e+00 0.000000e+00 -1.050010e+01 2.458500e+01 0.000000e+00 2.458500e+01 -1.001011e+01 0.000000e+00 0.000000e+00 0.000000e+00 0.000000e+00 -8.678101e+00 2.336787e+01 0.000000e+00 2.336787e+01 -3.767430e+00 0.000000e+00 0.000000e+00 0.000000e+00 0.000000e+00 -1.001805e+01 2.708121e+01 0.000000e+00 2.708121e+01 -6.049916e+00 0.000000e+00 0.000000e+00 0.000000e+00 0.000000e+00 -7.081861e+00 2.829660e+01 0.000000e+00 2.829660e+01 -1.648383e+00 0.000000e+00 0.000000e+00 0.000000e+00 0.000000e+00 3.582528e+00 2.760524e+01 0.000000e+00 2.760524e+01 1.299958e+00 0.000000e+00 0.000000e+00 0.000000e+00 0.000000e+00 -5.516333e-01 2.591675e+01 0.000000e+00 2.591675e+01 2.988313e-01 0.000000e+00 0.000000e+00 0.000000e+00 0.000000e+00 1.390764e+01 2.560317e+01 0.000000e+00 2.560317e+01 3.277246e-01 0.000000e+00 0.000000e+00 0.000000e+00 0.000000e+00 1.348150e+01 2.528329e+01 0.000000e+00 2.528329e+01 -4.283491e-01 0.000000e+00 0.000000e+00 0.000000e+00 0.000000e+00 1.863601e+01 2.245204e+01 0.000000e+00 2.245204e+01 3.918974e+00 0.000000e+00 0.000000e+00 0.000000e+00 0.000000e+00 1.668274e+01 2.454421e+01 0.000000e+00 2.454421e+01 8.345545e-01 0.000000e+00 0.000000e+00 0.000000e+00 0.000000e+00 1.586533e+01 2.000457e+01 0.000000e+00 2.000457e+01 6.324737e+00 0.000000e+00 0.000000e+00 0.000000e+00 0.000000e+00 9.499870e+00 1.594719e+01 0.000000e+00 1.594719e+01 8.040862e+00 0.000000e+00 0.000000e+00 0.000000e+00 0.000000e+00 1.068543e+00 5.207072e+00 0.000000e+00 5.207072e+00 8.846350e+00 0.000000e+00 0.000000e+00 0.000000e+00 0.000000e+00 -1.255098e+00 2.994625e+00 0.000000e+00 2.994625e+00 2.239047e-02 0.000000e+00 0.000000e+00 0.000000e+00 0.000000e+00 2.182148e-01 7.206674e+00 0.000000e+00 7.206674e+00 4.469489e+00 0.000000e+00 0.000000e+00 0.000000e+00 0.000000e+00 -5.758484e-02 -1.538481e-01 0.000000e+00 -1.538481e-01 6.691501e+00 0.000000e+00 0.000000e+00 0.000000e+00 0.000000e+00 3.186873e+00 -3.122955e+00 0.000000e+00 -3.122955e+00 1.323592e+00 0.000000e+00 0.000000e+00 0.000000e+00 0.000000e+00 -1.569211e+01 -2.276354e+01 0.000000e+00 -2.276354e+01 -1.379761e+01 0.000000e+00 0.000000e+00 0.000000e+00 0.000000e+00 3.609430e+00 7.230217e-01 0.000000e+00 7.230217e-01 -2.103008e+00 0.000000e+00 0.000000e+00 0.000000e+00 0.000000e+00 2.394562e+01 -3.208807e+00 0.000000e+00 -3.208807e+00 -4.961363e+01 0.000000e+00 0.000000e+00 0.000000e+00 0.000000e+00 5.063003e+00 1.078122e+01 0.000000e+00 1.078122e+01 9.179632e+00 0.000000e+00 0.000000e+00 0.000000e+00 0.000000e+00 1.737038e+01 2.404303e+01 0.000000e+00 2.404303e+01 1.506642e+00 0.000000e+00 0.000000e+00 0.000000e+00 0.000000e+00 9.184525e+00 2.661687e+01 0.000000e+00 2.661687e+01 5.665329e-01 0.000000e+00 0.000000e+00 0.000000e+00 0.000000e+00 -2.272266e+00 2.827709e+01 0.000000e+00 2.827709e+01 8.635079e-01 0.000000e+00 0.000000e+00 0.000000e+00 0.000000e+00 -5.319883e+00 1.574230e+01 0.000000e+00 1.574230e+01 -1.488394e+01 0.000000e+00 0.000000e+00 0.000000e+00 0.000000e+00 -2.665451e+00 -1.179648e-01 0.000000e+00 -1.179648e-01 -5.389866e+00 0.000000e+00 0.000000e+00 0.000000e+00 0.000000e+00 3.344037e+00 4.767746e-01 0.000000e+00 4.767746e-01 -2.582397e+00 0.000000e+00 0.000000e+00 0.000000e+00 0.000000e+00 -6.163866e+00 -6.926361e+00 0.000000e+00 -6.926361e+00 -1.287765e+02 0.000000e+00 0.000000e+00 0.000000e+00 0.000000e+00 9.796981e-01 -5.501506e+00 0.000000e+00 -5.501506e+00 -1.310511e+02 0.000000e+00 0.000000e+00 0.000000e+00 0.000000e+00 -8.935847e-02 -3.561407e+00 0.000000e+00 -3.561407e+00 -1.236265e+02 0.000000e+00 0.000000e+00 0.000000e+00 0.000000e+00 1.109711e+01 -4.441262e+00 0.000000e+00 -4.441262e+00 -7.705095e+01 0.000000e+00 0.000000e+00 0.000000e+00 0.000000e+00 1.018930e+01 -2.119888e+00 0.000000e+00 -2.119888e+00 -8.000732e+01 0.000000e+00 0.000000e+00 0.000000e+00 0.000000e+00 1.266490e+01 -2.310198e+00 0.000000e+00 -2.310198e+00 -7.443493e+01 0.000000e+00 0.000000e+00 0.000000e+00 0.000000e+00 3.089600e+01 -5.240870e+00 0.000000e+00 -5.240870e+00 -3.799485e+01 0.000000e+00 0.000000e+00 0.000000e+00 0.000000e+00 2.886902e+01 -3.580029e+00 0.000000e+00 -3.580029e+00 -4.030958e+01 0.000000e+00 0.000000e+00 0.000000e+00 0.000000e+00 3.072486e+01 -3.809427e+00 0.000000e+00 -3.809427e+00 -3.595253e+01 0.000000e+00 0.000000e+00 0.000000e+00 0.000000e+00 5.028128e+01 -6.664264e+00 0.000000e+00 -6.664264e+00 -1.151893e+01 0.000000e+00 0.000000e+00 0.000000e+00 0.000000e+00 4.709910e+01 -4.938178e+00 0.000000e+00 -4.938178e+00 -1.384133e+01 0.000000e+00 0.000000e+00 0.000000e+00 0.000000e+00 5.087245e+01 -5.155378e+00 0.000000e+00 -5.155378e+00 -9.522393e+00 0.000000e+00 0.000000e+00 0.000000e+00 0.000000e+00 7.524147e+01 -8.287987e+00 0.000000e+00 -8.287987e+00 1.723188e+01 0.000000e+00 0.000000e+00 0.000000e+00 0.000000e+00 7.027843e+01 -6.196025e+00 0.000000e+00 -6.196025e+00 1.420310e+01 0.000000e+00 0.000000e+00 0.000000e+00 0.000000e+00 7.539671e+01 -6.537996e+00 0.000000e+00 -6.537996e+00 1.979309e+01 0.000000e+00 0.000000e+00 0.000000e+00 0.000000e+00 1.255232e+02 -1.336764e+01 0.000000e+00 -1.336764e+01 7.000701e+01 0.000000e+00 0.000000e+00 0.000000e+00 0.000000e+00 1.135462e+02 -1.016767e+01 0.000000e+00 -1.016767e+01 6.476069e+01 0.000000e+00 0.000000e+00 0.000000e+00 0.000000e+00 1.206289e+02 -1.170892e+01 0.000000e+00 -1.170892e+01 7.354382e+01 0.000000e+00 0.000000e+00 0.000000e+00 0.000000e+00 2.371054e+02 -5.390614e+01 0.000000e+00 -5.390614e+01 2.166134e+02 0.000000e+00 0.000000e+00 0.000000e+00 0.000000e+00 1.802427e+02 -3.559132e+01 0.000000e+00 -3.559132e+01 1.880265e+02 0.000000e+00 0.000000e+00 0.000000e+00 0.000000e+00 1.772484e+02 -4.122230e+01 0.000000e+00 -4.122230e+01 2.303877e+02 0.000000e+00 0.000000e+00 0.000000e+00 0.000000e+00 1.122615e+00 6.996554e+00 0.000000e+00 6.996554e+00 5.080846e+00 0.000000e+00 0.000000e+00 0.000000e+00 0.000000e+00 -6.795338e-01 2.123438e+00 0.000000e+00 2.123438e+00 9.895948e-03 0.000000e+00 0.000000e+00 0.000000e+00 0.000000e+00 -5.407546e+01 -2.473196e+00 0.000000e+00 -2.473196e+00 1.174773e+01 0.000000e+00 0.000000e+00 0.000000e+00 0.000000e+00 9.006886e-01 -1.390279e+01 0.000000e+00 -1.390279e+01 -6.812692e+01 0.000000e+00 0.000000e+00 0.000000e+00 0.000000e+00 -1.278452e+01 -1.694915e+00 0.000000e+00 -1.694915e+00 -8.986760e+01 0.000000e+00 0.000000e+00 0.000000e+00 0.000000e+00 -1.586883e+00 -1.849438e+01 0.000000e+00 -1.849438e+01 -7.305552e+01 0.000000e+00 0.000000e+00 0.000000e+00 0.000000e+00 1.279632e+02 5.301077e+01 0.000000e+00 5.301077e+01 2.718336e+02 0.000000e+00 0.000000e+00 0.000000e+00 0.000000e+00 -4.181899e+01 7.433657e+00 0.000000e+00 7.433657e+00 2.290830e+00 0.000000e+00 0.000000e+00 0.000000e+00 0.000000e+00 -1.555601e-01 2.954010e+00 0.000000e+00 2.954010e+00 -1.480624e+00 0.000000e+00 0.000000e+00 0.000000e+00 0.000000e+00 -6.309727e+00 -2.313631e+01 0.000000e+00 -2.313631e+01 -2.271143e+01 0.000000e+00 0.000000e+00 0.000000e+00 0.000000e+00 3.752344e+00 -1.915667e+01 0.000000e+00 -1.915667e+01 -7.419406e+01 0.000000e+00 0.000000e+00 0.000000e+00 0.000000e+00 3.494842e+00 -1.760687e+00 0.000000e+00 -1.760687e+00 -1.233457e+00 0.000000e+00 0.000000e+00 0.000000e+00 0.000000e+00 2.327300e+00 -2.546189e+01 0.000000e+00 -2.546189e+01 -5.366912e+01 0.000000e+00 0.000000e+00 0.000000e+00 0.000000e+00 1.700853e+00 -2.360107e+01 0.000000e+00 -2.360107e+01 -6.094389e+01 0.000000e+00 0.000000e+00 0.000000e+00 0.000000e+00 5.511643e+00 -2.149773e+01 0.000000e+00 -2.149773e+01 -7.698675e+01 0.000000e+00 0.000000e+00 0.000000e+00 0.000000e+00 -3.959675e+00 -1.361749e+01 0.000000e+00 -1.361749e+01 -8.044401e+01 0.000000e+00 0.000000e+00 0.000000e+00 0.000000e+00 1.240135e+01 1.796801e+01 0.000000e+00 1.796801e+01 2.245802e+00 0.000000e+00 0.000000e+00 0.000000e+00 0.000000e+00 3.570916e+00 -6.103808e+00 0.000000e+00 -6.103808e+00 -1.044579e+02 0.000000e+00 0.000000e+00 0.000000e+00 0.000000e+00 3.493218e+01 -9.508889e+00 0.000000e+00 -9.508889e+00 -3.136506e+01 0.000000e+00 0.000000e+00 0.000000e+00 0.000000e+00 9.550646e-01 -2.779793e+00 0.000000e+00 -2.779793e+00 -5.823494e-01 0.000000e+00 0.000000e+00 0.000000e+00 0.000000e+00 1.315157e+02 -2.624288e+01 0.000000e+00 -2.624288e+01 8.660002e+01 0.000000e+00 0.000000e+00 0.000000e+00 0.000000e+00 5.484137e+01 -1.179768e+01 0.000000e+00 -1.179768e+01 -4.360501e+00 0.000000e+00 0.000000e+00 0.000000e+00 0.000000e+00 -3.710898e+01 6.999075e+00 0.000000e+00 6.999075e+00 1.822904e+01 0.000000e+00 0.000000e+00 0.000000e+00 0.000000e+00 1.012062e+02 -1.864395e+01 0.000000e+00 -1.864395e+01 5.438914e+01 0.000000e+00 0.000000e+00 0.000000e+00 0.000000e+00 5.103517e+01 1.779353e+01 0.000000e+00 1.779353e+01 3.595576e+00 0.000000e+00 0.000000e+00 0.000000e+00 0.000000e+00 2.107995e+01 -7.838455e+00 0.000000e+00 -7.838455e+00 -5.371488e+01 0.000000e+00 0.000000e+00 0.000000e+00 0.000000e+00 6.025180e+01 2.223991e+01 0.000000e+00 2.223991e+01 8.077401e+00 0.000000e+00 0.000000e+00 0.000000e+00 0.000000e+00 5.014109e+01 1.861594e+01 0.000000e+00 1.861594e+01 2.405905e+00 0.000000e+00 0.000000e+00 0.000000e+00 0.000000e+00 2.256195e+01 1.409664e+01 0.000000e+00 1.409664e+01 2.379968e+00 0.000000e+00 0.000000e+00 0.000000e+00 0.000000e+00 3.897982e+01 1.360496e+01 0.000000e+00 1.360496e+01 5.721722e-02 0.000000e+00 0.000000e+00 0.000000e+00 0.000000e+00 1.042130e+02 2.408932e+01 0.000000e+00 2.408932e+01 2.649290e+02 0.000000e+00 0.000000e+00 0.000000e+00 0.000000e+00 3.520414e+01 1.214672e+01 0.000000e+00 1.214672e+01 -5.187347e-02 0.000000e+00 0.000000e+00 0.000000e+00 0.000000e+00 3.384925e+01 1.294376e+01 0.000000e+00 1.294376e+01 -1.496317e+00 0.000000e+00 0.000000e+00 0.000000e+00 0.000000e+00 3.034203e+01 1.170442e+01 0.000000e+00 1.170442e+01 -1.443371e+00 0.000000e+00 0.000000e+00 0.000000e+00 0.000000e+00 7.428360e+01 3.088254e+01 0.000000e+00 3.088254e+01 1.784221e+01 0.000000e+00 0.000000e+00 0.000000e+00 0.000000e+00 5.827709e+01 2.356051e+01 0.000000e+00 2.356051e+01 6.208995e+00 0.000000e+00 0.000000e+00 0.000000e+00 0.000000e+00 1.596166e+02 -3.778063e+01 0.000000e+00 -3.778063e+01 2.698809e+02 0.000000e+00 0.000000e+00 0.000000e+00 0.000000e+00 1.114988e+02 -1.876908e+00 0.000000e+00 -1.876908e+00 3.102516e+02 0.000000e+00 0.000000e+00 0.000000e+00 0.000000e+00 4.417618e+01 1.529648e+01 0.000000e+00 1.529648e+01 1.528089e+00 0.000000e+00 0.000000e+00 0.000000e+00 0.000000e+00 3.793787e+01 1.404544e+01 0.000000e+00 1.404544e+01 -6.493097e-01 0.000000e+00 0.000000e+00 0.000000e+00 0.000000e+00 1.961016e+02 9.957791e+01 0.000000e+00 9.957791e+01 1.381171e+02 0.000000e+00 0.000000e+00 0.000000e+00 0.000000e+00 1.081014e+02 9.499564e+01 0.000000e+00 9.499564e+01 1.696164e+02 0.000000e+00 0.000000e+00 0.000000e+00 0.000000e+00 -3.476661e+01 -1.367348e+01 0.000000e+00 -1.367348e+01 2.544214e+01 0.000000e+00 0.000000e+00 0.000000e+00 0.000000e+00 -1.383681e+01 1.581695e+01 0.000000e+00 1.581695e+01 -6.304348e+00 0.000000e+00 0.000000e+00 0.000000e+00 0.000000e+00 -3.569385e+01 1.498366e+01 0.000000e+00 1.498366e+01 1.114867e+01 0.000000e+00 0.000000e+00 0.000000e+00 0.000000e+00 4.082772e+00 -3.175361e+01 0.000000e+00 -3.175361e+01 -3.494312e+01 0.000000e+00 0.000000e+00 0.000000e+00 0.000000e+00 1.067579e+02 5.961980e+01 0.000000e+00 5.961980e+01 2.931469e+02 0.000000e+00 0.000000e+00 0.000000e+00 0.000000e+00 9.109974e+00 -6.515703e+00 0.000000e+00 -6.515703e+00 -8.549464e+01 0.000000e+00 0.000000e+00 0.000000e+00 0.000000e+00 -2.030819e+01 1.915810e+01 0.000000e+00 1.915810e+01 -4.251678e+00 0.000000e+00 0.000000e+00 0.000000e+00 0.000000e+00 2.995591e+00 -1.502494e+00 0.000000e+00 -1.502494e+00 -1.692528e+00 0.000000e+00 0.000000e+00 0.000000e+00 0.000000e+00 1.329781e+01 -6.966179e+00 0.000000e+00 -6.966179e+00 -6.919152e+01 0.000000e+00 0.000000e+00 0.000000e+00 0.000000e+00 -2.131000e+01 -3.037393e+01 0.000000e+00 -3.037393e+01 4.251470e+00 0.000000e+00 0.000000e+00 0.000000e+00 0.000000e+00 -9.309757e-01 3.359015e-02 0.000000e+00 3.359015e-02 -1.370001e+00 0.000000e+00 0.000000e+00 0.000000e+00 0.000000e+00 -3.374887e+01 -1.981038e+01 0.000000e+00 -1.981038e+01 1.370404e+00 0.000000e+00 0.000000e+00 0.000000e+00 0.000000e+00 2.039773e+01 1.846264e+01 0.000000e+00 1.846264e+01 4.525056e+00 0.000000e+00 0.000000e+00 0.000000e+00 0.000000e+00 1.811803e+01 1.723124e+01 0.000000e+00 1.723124e+01 2.483464e+00 0.000000e+00 0.000000e+00 0.000000e+00 0.000000e+00 1.673405e+01 2.129851e+01 0.000000e+00 2.129851e+01 1.409840e+00 0.000000e+00 0.000000e+00 0.000000e+00 0.000000e+00 1.910535e+00 2.532418e+00 0.000000e+00 2.532418e+00 -2.018871e+00 0.000000e+00 0.000000e+00 0.000000e+00 0.000000e+00 9.346098e+01 4.980661e+01 0.000000e+00 4.980661e+01 3.916745e+01 0.000000e+00 0.000000e+00 0.000000e+00 0.000000e+00 6.428495e+01 3.292891e+01 0.000000e+00 3.292891e+01 1.432209e+01 0.000000e+00 0.000000e+00 0.000000e+00 0.000000e+00 3.230991e+01 -3.962290e+01 0.000000e+00 -3.962290e+01 6.513469e+01 0.000000e+00 0.000000e+00 0.000000e+00 0.000000e+00 -2.523131e+00 1.383991e+01 0.000000e+00 1.383991e+01 -6.488259e+00 0.000000e+00 0.000000e+00 0.000000e+00 0.000000e+00 -5.360186e+00 2.650958e+01 0.000000e+00 2.650958e+01 1.593740e+00 0.000000e+00 0.000000e+00 0.000000e+00 0.000000e+00 1.201518e+01 2.521813e+01 0.000000e+00 2.521813e+01 9.843232e-01 0.000000e+00 0.000000e+00 0.000000e+00 0.000000e+00 1.957111e+00 -3.357900e+00 0.000000e+00 -3.357900e+00 3.261294e+00 0.000000e+00 0.000000e+00 0.000000e+00 0.000000e+00 -1.364985e+00 -3.276864e+01 0.000000e+00 -3.276864e+01 -2.883839e+01 0.000000e+00 0.000000e+00 0.000000e+00 0.000000e+00 3.223038e-01 -2.731552e+01 0.000000e+00 -2.731552e+01 -5.533758e+01 0.000000e+00 0.000000e+00 0.000000e+00 0.000000e+00 -8.690165e+00 -2.844220e+01 0.000000e+00 -2.844220e+01 -7.445066e+00 0.000000e+00 0.000000e+00 0.000000e+00 0.000000e+00 -1.494735e+01 -3.216068e+01 0.000000e+00 -3.216068e+01 -5.743328e+00 0.000000e+00 0.000000e+00 0.000000e+00 0.000000e+00 -8.035785e+00 -3.045766e+01 0.000000e+00 -3.045766e+01 -1.763783e+01 0.000000e+00 0.000000e+00 0.000000e+00 0.000000e+00 2.055291e+01 2.340841e+01 0.000000e+00 2.340841e+01 6.674714e-01 0.000000e+00 0.000000e+00 0.000000e+00 0.000000e+00 1.875665e+01 2.515797e+01 0.000000e+00 2.515797e+01 5.381328e-01 0.000000e+00 0.000000e+00 0.000000e+00 0.000000e+00 2.860714e+00 2.581519e+01 0.000000e+00 2.581519e+01 1.409838e+00 0.000000e+00 0.000000e+00 0.000000e+00 0.000000e+00 6.887578e+00 2.773481e+01 0.000000e+00 2.773481e+01 2.597839e+00 0.000000e+00 0.000000e+00 0.000000e+00 0.000000e+00 -3.639968e-03 2.830789e+01 0.000000e+00 2.830789e+01 3.074321e+00 0.000000e+00 0.000000e+00 0.000000e+00 0.000000e+00 -1.083925e+01 2.722447e+01 0.000000e+00 2.722447e+01 7.722624e-01 0.000000e+00 0.000000e+00 0.000000e+00 0.000000e+00 -1.146366e+01 2.638704e+01 0.000000e+00 2.638704e+01 -1.413186e+00 0.000000e+00 0.000000e+00 0.000000e+00 0.000000e+00 -1.145941e+01 2.637268e+01 0.000000e+00 2.637268e+01 -1.423374e+00 0.000000e+00 0.000000e+00 0.000000e+00 0.000000e+00 -1.459104e+01 2.342761e+01 0.000000e+00 2.342761e+01 -5.542286e+00 0.000000e+00 0.000000e+00 0.000000e+00 0.000000e+00 -5.144335e+00 1.876704e+01 0.000000e+00 1.876704e+01 -4.997068e+00 0.000000e+00 0.000000e+00 0.000000e+00 0.000000e+00 -7.618869e-01 9.028383e+00 0.000000e+00 9.028383e+00 -7.752435e+00 0.000000e+00 0.000000e+00 0.000000e+00 0.000000e+00 5.695537e-02 4.676328e+00 0.000000e+00 4.676328e+00 -6.571368e+00 0.000000e+00 0.000000e+00 0.000000e+00 0.000000e+00 2.761478e+01 -3.885376e+01 0.000000e+00 -3.885376e+01 4.883760e+01 0.000000e+00 0.000000e+00 0.000000e+00 0.000000e+00 4.961842e-01 -1.955308e+01 0.000000e+00 -1.955308e+01 -7.251480e+01 0.000000e+00 0.000000e+00 0.000000e+00 0.000000e+00 -1.062091e+00 2.515031e+00 0.000000e+00 2.515031e+00 -1.060818e+00 0.000000e+00 0.000000e+00 0.000000e+00 0.000000e+00 6.153391e+00 -2.772249e+01 0.000000e+00 -2.772249e+01 -6.048314e+01 0.000000e+00 0.000000e+00 0.000000e+00 0.000000e+00 -2.976002e+01 -2.431249e+01 0.000000e+00 -2.431249e+01 1.745074e+01 0.000000e+00 0.000000e+00 0.000000e+00 0.000000e+00 -2.856997e+01 -2.084144e+01 0.000000e+00 -2.084144e+01 1.214552e+01 0.000000e+00 0.000000e+00 0.000000e+00 0.000000e+00 -2.120048e+01 -3.072665e+01 0.000000e+00 -3.072665e+01 4.861463e+00 0.000000e+00 0.000000e+00 0.000000e+00 0.000000e+00 4.965274e+00 -3.276076e+00 0.000000e+00 -3.276076e+00 -1.010949e+02 0.000000e+00 0.000000e+00 0.000000e+00 0.000000e+00 4.591946e+00 -5.979909e+00 0.000000e+00 -5.979909e+00 -9.781922e+01 0.000000e+00 0.000000e+00 0.000000e+00 0.000000e+00 7.637520e+01 -1.456631e+01 0.000000e+00 -1.456631e+01 2.084385e+01 0.000000e+00 0.000000e+00 0.000000e+00 0.000000e+00 3.280792e+01 -8.862635e+00 0.000000e+00 -8.862635e+00 -3.579151e+01 0.000000e+00 0.000000e+00 0.000000e+00 0.000000e+00 3.127306e+01 -7.443347e+00 0.000000e+00 -7.443347e+00 -3.399879e+01 0.000000e+00 0.000000e+00 0.000000e+00 0.000000e+00 1.977819e+01 -7.323092e+00 0.000000e+00 -7.323092e+00 -5.879454e+01 0.000000e+00 0.000000e+00 0.000000e+00 0.000000e+00 1.838852e+01 -5.668225e+00 0.000000e+00 -5.668225e+00 -5.652680e+01 0.000000e+00 0.000000e+00 0.000000e+00 0.000000e+00 4.469233e+01 -9.846167e+00 0.000000e+00 -9.846167e+00 -1.769707e+01 0.000000e+00 0.000000e+00 0.000000e+00 0.000000e+00 9.747338e+01 -1.851587e+01 0.000000e+00 -1.851587e+01 4.680620e+01 0.000000e+00 0.000000e+00 0.000000e+00 0.000000e+00 9.702926e+01 -1.554928e+01 0.000000e+00 -1.554928e+01 4.871637e+01 0.000000e+00 0.000000e+00 0.000000e+00 0.000000e+00 1.244539e+02 -2.243138e+01 0.000000e+00 -2.243138e+01 7.469906e+01 0.000000e+00 0.000000e+00 0.000000e+00 0.000000e+00 1.150515e+02 -2.128130e+01 0.000000e+00 -2.128130e+01 7.909064e+01 0.000000e+00 0.000000e+00 0.000000e+00 0.000000e+00 -2.664350e+01 1.516989e+01 0.000000e+00 1.516989e+01 7.158790e+00 0.000000e+00 0.000000e+00 0.000000e+00 0.000000e+00 1.829789e+02 -5.430295e+01 0.000000e+00 -5.430295e+01 2.350374e+02 0.000000e+00 0.000000e+00 0.000000e+00 0.000000e+00 1.270897e+02 -3.268927e+01 0.000000e+00 -3.268927e+01 2.595659e+02 0.000000e+00 0.000000e+00 0.000000e+00 0.000000e+00 2.996174e+01 1.224897e+01 0.000000e+00 1.224897e+01 4.338392e+00 0.000000e+00 0.000000e+00 0.000000e+00 0.000000e+00 1.479525e+02 -3.359642e+01 0.000000e+00 -3.359642e+01 1.151237e+02 0.000000e+00 0.000000e+00 0.000000e+00 0.000000e+00 6.189160e+01 -1.192848e+01 0.000000e+00 -1.192848e+01 4.790375e+00 0.000000e+00 0.000000e+00 0.000000e+00 0.000000e+00 9.218772e+01 -1.709838e+01 0.000000e+00 -1.709838e+01 3.989256e+01 0.000000e+00 0.000000e+00 0.000000e+00 0.000000e+00 8.901801e+01 -1.507203e+01 0.000000e+00 -1.507203e+01 4.140033e+01 0.000000e+00 0.000000e+00 0.000000e+00 0.000000e+00 2.512857e+01 1.569971e+01 0.000000e+00 1.569971e+01 4.722585e+00 0.000000e+00 0.000000e+00 0.000000e+00 0.000000e+00 4.053202e+01 -9.466756e+00 0.000000e+00 -9.466756e+00 -2.250792e+01 0.000000e+00 0.000000e+00 0.000000e+00 0.000000e+00 4.084294e+01 -7.942955e+00 0.000000e+00 -7.942955e+00 -2.012928e+01 0.000000e+00 0.000000e+00 0.000000e+00 0.000000e+00 1.738134e+02 -3.477150e+01 0.000000e+00 -3.477150e+01 1.365568e+02 0.000000e+00 0.000000e+00 0.000000e+00 0.000000e+00 4.365264e+01 1.585551e+01 0.000000e+00 1.585551e+01 6.040242e-01 0.000000e+00 0.000000e+00 0.000000e+00 0.000000e+00 -4.289176e+01 5.435749e-01 0.000000e+00 5.435749e-01 7.911692e+00 0.000000e+00 0.000000e+00 0.000000e+00 0.000000e+00 1.159767e+00 7.216672e+00 0.000000e+00 7.216672e+00 2.706786e+00 0.000000e+00 0.000000e+00 0.000000e+00 0.000000e+00 6.547934e+00 -3.407447e+00 0.000000e+00 -3.407447e+00 -9.477718e+01 0.000000e+00 0.000000e+00 0.000000e+00 0.000000e+00 6.582651e+00 -6.028479e+00 0.000000e+00 -6.028479e+00 -9.153406e+01 0.000000e+00 0.000000e+00 0.000000e+00 0.000000e+00 9.169878e+01 7.008435e+01 0.000000e+00 7.008435e+01 9.195321e+01 0.000000e+00 0.000000e+00 0.000000e+00 0.000000e+00 1.227011e+02 -2.391277e+01 0.000000e+00 -2.391277e+01 9.100302e+01 0.000000e+00 0.000000e+00 0.000000e+00 0.000000e+00 1.392322e+02 -3.009358e+01 0.000000e+00 -3.009358e+01 1.003309e+02 0.000000e+00 0.000000e+00 0.000000e+00 0.000000e+00 -2.282260e+01 2.038640e+01 0.000000e+00 2.038640e+01 3.962813e+00 0.000000e+00 0.000000e+00 0.000000e+00 0.000000e+00 -4.432208e+00 -3.042772e+01 0.000000e+00 -3.042772e+01 -3.409811e+01 0.000000e+00 0.000000e+00 0.000000e+00 0.000000e+00 -1.277286e+00 1.064683e+00 0.000000e+00 1.064683e+00 -5.895772e-01 0.000000e+00 0.000000e+00 0.000000e+00 0.000000e+00 8.043390e+00 -4.322444e+00 0.000000e+00 -4.322444e+00 -8.258838e+01 0.000000e+00 0.000000e+00 0.000000e+00 0.000000e+00 1.032304e+01 -7.059682e+00 0.000000e+00 -7.059682e+00 -7.965655e+01 0.000000e+00 0.000000e+00 0.000000e+00 0.000000e+00 8.652677e+01 -1.586538e+01 0.000000e+00 -1.586538e+01 3.310845e+01 0.000000e+00 0.000000e+00 0.000000e+00 0.000000e+00 8.563167e+01 -1.401808e+01 0.000000e+00 -1.401808e+01 3.507462e+01 0.000000e+00 0.000000e+00 0.000000e+00 0.000000e+00 -1.457086e+00 7.823051e-01 0.000000e+00 7.823051e-01 -5.306313e+00 0.000000e+00 0.000000e+00 0.000000e+00 0.000000e+00 1.851473e+01 2.323591e+01 0.000000e+00 2.323591e+01 1.252590e+00 0.000000e+00 0.000000e+00 0.000000e+00 0.000000e+00 1.065974e+02 -1.730120e+01 0.000000e+00 -1.730120e+01 6.064994e+01 0.000000e+00 0.000000e+00 0.000000e+00 0.000000e+00 1.089870e+02 -1.703358e+01 0.000000e+00 -1.703358e+01 5.711847e+01 0.000000e+00 0.000000e+00 0.000000e+00 0.000000e+00 1.194670e+02 -1.765288e+01 0.000000e+00 -1.765288e+01 6.452663e+01 0.000000e+00 0.000000e+00 0.000000e+00 0.000000e+00 -1.681991e+00 -1.077780e-01 0.000000e+00 -1.077780e-01 -1.809062e+00 0.000000e+00 0.000000e+00 0.000000e+00 0.000000e+00 2.283641e+01 1.999770e+01 0.000000e+00 1.999770e+01 3.266340e+00 0.000000e+00 0.000000e+00 0.000000e+00 0.000000e+00 2.040019e+01 1.846604e+01 0.000000e+00 1.846604e+01 1.003528e+00 0.000000e+00 0.000000e+00 0.000000e+00 0.000000e+00 1.935081e+01 2.184373e+01 0.000000e+00 2.184373e+01 7.342420e-01 0.000000e+00 0.000000e+00 0.000000e+00 0.000000e+00 8.484420e+01 7.333407e+01 0.000000e+00 7.333407e+01 8.986052e+01 0.000000e+00 0.000000e+00 0.000000e+00 0.000000e+00 -3.229302e+01 1.977932e+01 0.000000e+00 1.977932e+01 5.462016e+00 0.000000e+00 0.000000e+00 0.000000e+00 0.000000e+00 5.133189e+01 -1.123520e+01 0.000000e+00 -1.123520e+01 -9.107794e+00 0.000000e+00 0.000000e+00 0.000000e+00 0.000000e+00 5.053361e+01 -9.670036e+00 0.000000e+00 -9.670036e+00 -7.293618e+00 0.000000e+00 0.000000e+00 0.000000e+00 0.000000e+00 8.127287e+01 -1.519528e+01 0.000000e+00 -1.519528e+01 2.656421e+01 0.000000e+00 0.000000e+00 0.000000e+00 0.000000e+00 7.641328e+01 -1.263952e+01 0.000000e+00 -1.263952e+01 2.301506e+01 0.000000e+00 0.000000e+00 0.000000e+00 0.000000e+00 8.191408e+01 -1.301475e+01 0.000000e+00 -1.301475e+01 2.909807e+01 0.000000e+00 0.000000e+00 0.000000e+00 0.000000e+00 -6.272488e+00 2.805333e+01 0.000000e+00 2.805333e+01 1.805571e+00 0.000000e+00 0.000000e+00 0.000000e+00 0.000000e+00 -1.166326e+01 2.610599e+01 0.000000e+00 2.610599e+01 2.982273e+00 0.000000e+00 0.000000e+00 0.000000e+00 0.000000e+00 1.668326e+01 -5.038387e+00 0.000000e+00 -5.038387e+00 -6.677993e+01 0.000000e+00 0.000000e+00 0.000000e+00 0.000000e+00 1.649805e+01 -6.754318e+00 0.000000e+00 -6.754318e+00 -6.418924e+01 0.000000e+00 0.000000e+00 0.000000e+00 0.000000e+00 3.107519e+00 -5.984998e+00 0.000000e+00 -5.984998e+00 -1.118661e+02 0.000000e+00 0.000000e+00 0.000000e+00 0.000000e+00 2.648419e+01 -7.770930e+00 0.000000e+00 -7.770930e+00 -4.459426e+01 0.000000e+00 0.000000e+00 0.000000e+00 0.000000e+00 1.183559e+01 -7.241641e+00 0.000000e+00 -7.241641e+00 -7.388402e+01 0.000000e+00 0.000000e+00 0.000000e+00 0.000000e+00 1.491120e+01 -5.223527e+00 0.000000e+00 -5.223527e+00 -7.150310e+01 0.000000e+00 0.000000e+00 0.000000e+00 0.000000e+00 1.938119e+00 -8.489939e+00 0.000000e+00 -8.489939e+00 -1.444874e+02 0.000000e+00 0.000000e+00 0.000000e+00 0.000000e+00 -9.027945e+00 1.628861e+01 0.000000e+00 1.628861e+01 -1.032904e+01 0.000000e+00 0.000000e+00 0.000000e+00 0.000000e+00 -1.320409e+01 2.066209e+01 0.000000e+00 2.066209e+01 -8.268825e+00 0.000000e+00 0.000000e+00 0.000000e+00 0.000000e+00 1.314314e+01 2.602192e+01 0.000000e+00 2.602192e+01 1.433559e+00 0.000000e+00 0.000000e+00 0.000000e+00 0.000000e+00 -1.525926e+00 1.565853e+00 0.000000e+00 1.565853e+00 -4.856878e+00 0.000000e+00 0.000000e+00 0.000000e+00 0.000000e+00 -3.156965e-01 2.771624e+00 0.000000e+00 2.771624e+00 -1.589013e+00 0.000000e+00 0.000000e+00 0.000000e+00 0.000000e+00 -3.586572e+01 -4.316910e+00 0.000000e+00 -4.316910e+00 2.340738e+01 0.000000e+00 0.000000e+00 0.000000e+00 0.000000e+00 -3.013626e+01 5.929617e+00 0.000000e+00 5.929617e+00 1.264453e+01 0.000000e+00 0.000000e+00 0.000000e+00 0.000000e+00 -3.142901e+01 -7.445868e+00 0.000000e+00 -7.445868e+00 1.439418e+01 0.000000e+00 0.000000e+00 0.000000e+00 0.000000e+00 6.337554e+00 -3.807864e+00 0.000000e+00 -3.807864e+00 -8.823456e+01 0.000000e+00 0.000000e+00 0.000000e+00 0.000000e+00 6.470790e+01 -1.000466e+01 0.000000e+00 -1.000466e+01 7.117076e+00 0.000000e+00 0.000000e+00 0.000000e+00 0.000000e+00 6.781235e+01 -1.226078e+01 0.000000e+00 -1.226078e+01 1.032973e+01 0.000000e+00 0.000000e+00 0.000000e+00 0.000000e+00 1.467859e+02 -3.658414e+01 0.000000e+00 -3.658414e+01 1.507841e+02 0.000000e+00 0.000000e+00 0.000000e+00 0.000000e+00 1.806384e+02 -4.481555e+01 0.000000e+00 -4.481555e+01 1.645124e+02 0.000000e+00 0.000000e+00 0.000000e+00 0.000000e+00 8.243701e+01 6.438685e+01 0.000000e+00 6.438685e+01 6.524980e+01 0.000000e+00 0.000000e+00 0.000000e+00 0.000000e+00 6.208817e+01 4.416871e+01 0.000000e+00 4.416871e+01 4.717499e+01 0.000000e+00 0.000000e+00 0.000000e+00 0.000000e+00 4.145696e+00 -2.963676e+00 0.000000e+00 -2.963676e+00 -1.072988e+02 0.000000e+00 0.000000e+00 0.000000e+00 0.000000e+00 5.261338e+00 -5.137721e+00 0.000000e+00 -5.137721e+00 -1.386573e+02 0.000000e+00 0.000000e+00 0.000000e+00 0.000000e+00 -1.843801e+00 -9.189766e+00 0.000000e+00 -9.189766e+00 -1.350363e+02 0.000000e+00 0.000000e+00 0.000000e+00 0.000000e+00 -1.687465e+00 1.744647e+00 0.000000e+00 1.744647e+00 -1.609661e+00 0.000000e+00 0.000000e+00 0.000000e+00 0.000000e+00 -7.867787e+00 1.131243e+01 0.000000e+00 1.131243e+01 -7.239693e+00 0.000000e+00 0.000000e+00 0.000000e+00 0.000000e+00 2.333300e+01 -7.713556e+00 0.000000e+00 -7.713556e+00 -4.951271e+01 0.000000e+00 0.000000e+00 0.000000e+00 0.000000e+00 -1.453346e+01 2.299915e+01 0.000000e+00 2.299915e+01 -4.396083e-01 0.000000e+00 0.000000e+00 0.000000e+00 0.000000e+00 -7.438847e+00 -3.137866e+01 0.000000e+00 -3.137866e+01 -1.818501e+01 0.000000e+00 0.000000e+00 0.000000e+00 0.000000e+00 1.185946e+00 -6.401815e+00 0.000000e+00 -6.401815e+00 -1.191788e+02 0.000000e+00 0.000000e+00 0.000000e+00 0.000000e+00 2.636869e+00 -3.302336e+00 0.000000e+00 -3.302336e+00 -1.136637e+02 0.000000e+00 0.000000e+00 0.000000e+00 0.000000e+00 -2.217574e+00 6.389176e+00 0.000000e+00 6.389176e+00 -1.090431e+01 0.000000e+00 0.000000e+00 0.000000e+00 0.000000e+00 -9.994746e-01 1.190274e+00 0.000000e+00 1.190274e+00 -4.832676e+00 0.000000e+00 0.000000e+00 0.000000e+00 0.000000e+00 8.414068e+00 -1.964838e+01 0.000000e+00 -1.964838e+01 -8.695282e+01 0.000000e+00 0.000000e+00 0.000000e+00 0.000000e+00 -1.450566e+00 -7.563620e+00 0.000000e+00 -7.563620e+00 -1.255063e+02 0.000000e+00 0.000000e+00 0.000000e+00 0.000000e+00 3.932751e+00 -4.980132e+00 0.000000e+00 -4.980132e+00 -1.301809e+02 0.000000e+00 0.000000e+00 0.000000e+00 0.000000e+00 3.469774e+00 -4.508602e+00 0.000000e+00 -4.508602e+00 -1.211586e+02 0.000000e+00 0.000000e+00 0.000000e+00 0.000000e+00 2.432970e+01 -6.322673e+00 0.000000e+00 -6.322673e+00 -5.184871e+01 0.000000e+00 0.000000e+00 0.000000e+00 0.000000e+00 5.616921e+01 -9.966704e+00 0.000000e+00 -9.966704e+00 -2.187654e+00 0.000000e+00 0.000000e+00 0.000000e+00 0.000000e+00 5.807425e+01 -1.202891e+01 0.000000e+00 -1.202891e+01 5.954235e-01 0.000000e+00 0.000000e+00 0.000000e+00 0.000000e+00 3.580184e+01 -7.624467e+00 0.000000e+00 -7.624467e+00 -2.910873e+01 0.000000e+00 0.000000e+00 0.000000e+00 0.000000e+00 3.703166e+01 -9.632524e+00 0.000000e+00 -9.632524e+00 -2.648520e+01 0.000000e+00 0.000000e+00 0.000000e+00 0.000000e+00 2.401649e+01 -5.875207e+00 0.000000e+00 -5.875207e+00 -4.716605e+01 0.000000e+00 0.000000e+00 0.000000e+00 0.000000e+00 -5.792121e+00 1.354497e+01 0.000000e+00 1.354497e+01 -2.700272e+00 0.000000e+00 0.000000e+00 0.000000e+00 0.000000e+00 -1.796536e+01 2.210142e+01 0.000000e+00 2.210142e+01 -1.771556e+00 0.000000e+00 0.000000e+00 0.000000e+00 0.000000e+00 -1.676950e+01 2.594642e+01 0.000000e+00 2.594642e+01 1.654070e+00 0.000000e+00 0.000000e+00 0.000000e+00 0.000000e+00 -2.567218e+01 2.238549e+01 0.000000e+00 2.238549e+01 2.350303e+00 0.000000e+00 0.000000e+00 0.000000e+00 0.000000e+00 5.159429e+00 -1.378929e+01 0.000000e+00 -1.378929e+01 -8.945980e+01 0.000000e+00 0.000000e+00 0.000000e+00 0.000000e+00 -2.317476e+00 3.425837e-01 0.000000e+00 3.425837e-01 -1.312327e+00 0.000000e+00 0.000000e+00 0.000000e+00 0.000000e+00 2.004815e+00 -2.669478e+01 0.000000e+00 -2.669478e+01 -5.382998e+01 0.000000e+00 0.000000e+00 0.000000e+00 0.000000e+00 9.974431e+00 -2.620795e+01 0.000000e+00 -2.620795e+01 -6.745241e+01 0.000000e+00 0.000000e+00 0.000000e+00 0.000000e+00 4.574016e+00 -1.197524e+01 0.000000e+00 -1.197524e+01 -9.998753e+01 0.000000e+00 0.000000e+00 0.000000e+00 0.000000e+00 -1.678887e+00 9.665277e-01 0.000000e+00 9.665277e-01 -3.325740e+00 0.000000e+00 0.000000e+00 0.000000e+00 0.000000e+00 5.446466e+00 -1.737255e+01 0.000000e+00 -1.737255e+01 -1.044184e+02 0.000000e+00 0.000000e+00 0.000000e+00 0.000000e+00 5.350534e+00 -9.756464e+00 0.000000e+00 -9.756464e+00 -1.106534e+02 0.000000e+00 0.000000e+00 0.000000e+00 0.000000e+00 -3.723980e+00 -1.280599e+01 0.000000e+00 -1.280599e+01 -9.767637e+01 0.000000e+00 0.000000e+00 0.000000e+00 0.000000e+00 -2.304976e+01 6.329420e+00 0.000000e+00 6.329420e+00 -1.277615e+02 0.000000e+00 0.000000e+00 0.000000e+00 0.000000e+00 1.970741e+00 -6.720283e+00 0.000000e+00 -6.720283e+00 -1.113617e+02 0.000000e+00 0.000000e+00 0.000000e+00 0.000000e+00 1.644631e+00 -8.413007e+00 0.000000e+00 -8.413007e+00 -1.014913e+02 0.000000e+00 0.000000e+00 0.000000e+00 0.000000e+00 4.762375e+00 -7.920240e+00 0.000000e+00 -7.920240e+00 -1.127702e+02 0.000000e+00 0.000000e+00 0.000000e+00 0.000000e+00 7.128762e+00 -1.192429e+01 0.000000e+00 -1.192429e+01 -9.950400e+01 0.000000e+00 0.000000e+00 0.000000e+00 0.000000e+00 -7.460814e-01 -5.029197e+00 0.000000e+00 -5.029197e+00 -1.071856e+02 0.000000e+00 0.000000e+00 0.000000e+00 0.000000e+00 -5.672024e+00 -1.005001e+00 0.000000e+00 -1.005001e+00 -1.168131e+02 0.000000e+00 0.000000e+00 0.000000e+00 0.000000e+00 2.634269e+00 -6.848704e+00 0.000000e+00 -6.848704e+00 -1.113590e+02 0.000000e+00 0.000000e+00 0.000000e+00 0.000000e+00 2.133391e+00 2.183431e+00 0.000000e+00 2.183431e+00 -1.375493e+02 0.000000e+00 0.000000e+00 0.000000e+00 0.000000e+00 8.099071e+00 -1.729434e+01 0.000000e+00 -1.729434e+01 -9.290152e+01 0.000000e+00 0.000000e+00 0.000000e+00 0.000000e+00 2.345829e+00 -1.672218e+01 0.000000e+00 -1.672218e+01 -8.198562e+01 0.000000e+00 0.000000e+00 0.000000e+00 0.000000e+00 3.980377e-01 -1.262950e+01 0.000000e+00 -1.262950e+01 -8.920562e+01 0.000000e+00 0.000000e+00 0.000000e+00 0.000000e+00 6.422414e+00 -3.163256e+00 0.000000e+00 -3.163256e+00 -1.201865e+02 0.000000e+00 0.000000e+00 0.000000e+00 0.000000e+00 5.370220e+00 -5.073170e+00 0.000000e+00 -5.073170e+00 -1.203404e+02 0.000000e+00 0.000000e+00 0.000000e+00 0.000000e+00 2.955874e+01 -8.149791e+00 0.000000e+00 -8.149791e+00 -4.005310e+01 0.000000e+00 0.000000e+00 0.000000e+00 0.000000e+00 2.775064e+01 -6.158403e+00 0.000000e+00 -6.158403e+00 -4.261173e+01 0.000000e+00 0.000000e+00 0.000000e+00 0.000000e+00 2.799092e+01 -7.107357e+00 0.000000e+00 -7.107357e+00 -3.814318e+01 0.000000e+00 0.000000e+00 0.000000e+00 0.000000e+00 4.827588e+01 -1.057637e+01 0.000000e+00 -1.057637e+01 -1.347381e+01 0.000000e+00 0.000000e+00 0.000000e+00 0.000000e+00 4.405668e+01 -8.760857e+00 0.000000e+00 -8.760857e+00 -1.595417e+01 0.000000e+00 0.000000e+00 0.000000e+00 0.000000e+00 4.692657e+01 -9.270845e+00 0.000000e+00 -9.270845e+00 -1.169477e+01 0.000000e+00 0.000000e+00 0.000000e+00 0.000000e+00 2.421169e+00 -2.611849e+00 0.000000e+00 -2.611849e+00 -2.848301e-01 0.000000e+00 0.000000e+00 0.000000e+00 0.000000e+00 -2.302395e+01 1.571942e+01 0.000000e+00 1.571942e+01 2.055999e+01 0.000000e+00 0.000000e+00 0.000000e+00 0.000000e+00 2.596611e+01 -1.046073e+01 0.000000e+00 -1.046073e+01 -4.675823e+01 0.000000e+00 0.000000e+00 0.000000e+00 0.000000e+00 1.645652e+00 -3.054482e+01 0.000000e+00 -3.054482e+01 -4.244691e+01 0.000000e+00 0.000000e+00 0.000000e+00 0.000000e+00 7.247936e+01 -1.344695e+01 0.000000e+00 -1.344695e+01 1.527710e+01 0.000000e+00 0.000000e+00 0.000000e+00 0.000000e+00 6.461746e+01 -1.127943e+01 0.000000e+00 -1.127943e+01 1.186066e+01 0.000000e+00 0.000000e+00 0.000000e+00 0.000000e+00 6.925792e+01 -1.193710e+01 0.000000e+00 -1.193710e+01 1.697705e+01 0.000000e+00 0.000000e+00 0.000000e+00 0.000000e+00 1.438886e+02 -2.816935e+01 0.000000e+00 -2.816935e+01 1.185567e+02 0.000000e+00 0.000000e+00 0.000000e+00 0.000000e+00 1.861326e+02 -5.195805e+01 0.000000e+00 -5.195805e+01 1.957164e+02 0.000000e+00 0.000000e+00 0.000000e+00 0.000000e+00 1.449502e+02 -4.080272e+01 0.000000e+00 -4.080272e+01 1.776808e+02 0.000000e+00 0.000000e+00 0.000000e+00 0.000000e+00 1.415029e+02 -4.157252e+01 0.000000e+00 -4.157252e+01 2.150001e+02 0.000000e+00 0.000000e+00 0.000000e+00 0.000000e+00 2.555116e+01 1.464533e+01 0.000000e+00 1.464533e+01 2.190386e-01 0.000000e+00 0.000000e+00 0.000000e+00 0.000000e+00 2.849549e+01 1.695835e+01 0.000000e+00 1.695835e+01 3.086362e+00 0.000000e+00 0.000000e+00 0.000000e+00 0.000000e+00 6.707981e+00 -3.659228e+01 0.000000e+00 -3.659228e+01 -3.939128e+01 0.000000e+00 0.000000e+00 0.000000e+00 0.000000e+00 -5.262803e-02 -2.445909e+00 0.000000e+00 -2.445909e+00 1.804831e+00 0.000000e+00 0.000000e+00 0.000000e+00 0.000000e+00 6.027766e+01 -1.036959e+01 0.000000e+00 -1.036959e+01 2.717120e+00 0.000000e+00 0.000000e+00 0.000000e+00 0.000000e+00 5.204534e+00 -4.805462e+00 0.000000e+00 -4.805462e+00 -1.348276e+02 0.000000e+00 0.000000e+00 0.000000e+00 0.000000e+00 4.562268e+01 2.273581e+01 0.000000e+00 2.273581e+01 6.025291e+00 0.000000e+00 0.000000e+00 0.000000e+00 0.000000e+00 -9.675145e+00 1.828473e+01 0.000000e+00 1.828473e+01 -1.146374e+00 0.000000e+00 0.000000e+00 0.000000e+00 0.000000e+00 8.577359e+01 1.189483e+01 0.000000e+00 1.189483e+01 2.330061e+02 0.000000e+00 0.000000e+00 0.000000e+00 0.000000e+00 -2.041332e+01 2.209736e+01 0.000000e+00 2.209736e+01 1.403500e+00 0.000000e+00 0.000000e+00 0.000000e+00 0.000000e+00 -2.156114e+01 2.114735e+01 0.000000e+00 2.114735e+01 1.001074e+01 0.000000e+00 0.000000e+00 0.000000e+00 0.000000e+00 1.296682e+02 -2.647480e+01 0.000000e+00 -2.647480e+01 1.040817e+02 0.000000e+00 0.000000e+00 0.000000e+00 0.000000e+00 1.616247e+00 -3.909143e+01 0.000000e+00 -3.909143e+01 -2.309771e+01 0.000000e+00 0.000000e+00 0.000000e+00 0.000000e+00 1.362012e+02 -4.345162e+01 0.000000e+00 -4.345162e+01 1.292320e+02 0.000000e+00 0.000000e+00 0.000000e+00 0.000000e+00 8.289300e+01 6.590549e+01 0.000000e+00 6.590549e+01 2.059881e+02 0.000000e+00 0.000000e+00 0.000000e+00 0.000000e+00 2.104008e+01 2.336502e+01 0.000000e+00 2.336502e+01 7.131883e-02 0.000000e+00 0.000000e+00 0.000000e+00 0.000000e+00 4.371062e+00 -7.514751e+00 0.000000e+00 -7.514751e+00 -9.945420e+01 0.000000e+00 0.000000e+00 0.000000e+00 0.000000e+00 1.546094e+02 1.318278e+02 0.000000e+00 1.318278e+02 2.078410e+02 0.000000e+00 0.000000e+00 0.000000e+00 0.000000e+00 8.512614e+00 -1.235406e+01 0.000000e+00 -1.235406e+01 -9.904268e+01 0.000000e+00 0.000000e+00 0.000000e+00 0.000000e+00 5.421730e+00 -5.151749e-01 0.000000e+00 -5.151749e-01 -1.147510e+02 0.000000e+00 0.000000e+00 0.000000e+00 0.000000e+00 8.611624e+00 -4.947237e+00 0.000000e+00 -4.947237e+00 -1.403781e+02 0.000000e+00 0.000000e+00 0.000000e+00 0.000000e+00 7.101813e+01 4.403986e+01 0.000000e+00 4.403986e+01 3.663381e+01 0.000000e+00 0.000000e+00 0.000000e+00 0.000000e+00 7.251667e+01 6.083138e+01 0.000000e+00 6.083138e+01 1.503960e+02 0.000000e+00 0.000000e+00 0.000000e+00 0.000000e+00 -3.299007e+00 6.298048e+00 0.000000e+00 6.298048e+00 -7.017898e+00 0.000000e+00 0.000000e+00 0.000000e+00 0.000000e+00 6.876870e+00 -8.798271e+00 0.000000e+00 -8.798271e+00 -1.040165e+02 0.000000e+00 0.000000e+00 0.000000e+00 0.000000e+00 -2.003053e+00 2.778775e+00 0.000000e+00 2.778775e+00 -9.142247e+00 0.000000e+00 0.000000e+00 0.000000e+00 0.000000e+00 1.811203e+00 -8.907547e+00 0.000000e+00 -8.907547e+00 -9.465111e+01 0.000000e+00 0.000000e+00 0.000000e+00 0.000000e+00 1.956495e+01 -9.150792e+00 0.000000e+00 -9.150792e+00 -4.915549e+01 0.000000e+00 0.000000e+00 0.000000e+00 0.000000e+00 -1.310993e+01 -3.531302e+01 0.000000e+00 -3.531302e+01 -2.700630e+00 0.000000e+00 0.000000e+00 0.000000e+00 0.000000e+00 -6.741747e+00 -3.740369e+01 0.000000e+00 -3.740369e+01 -1.201476e+01 0.000000e+00 0.000000e+00 0.000000e+00 0.000000e+00 6.327087e+00 -6.127312e+00 0.000000e+00 -6.127312e+00 -1.340735e+02 0.000000e+00 0.000000e+00 0.000000e+00 0.000000e+00 -3.042645e+00 9.081839e+00 0.000000e+00 9.081839e+00 -3.532580e+00 0.000000e+00 0.000000e+00 0.000000e+00 0.000000e+00 2.660081e+00 -7.241960e+00 0.000000e+00 -7.241960e+00 -9.843343e+01 0.000000e+00 0.000000e+00 0.000000e+00 0.000000e+00 8.322688e+01 5.442340e+01 0.000000e+00 5.442340e+01 1.797855e+02 0.000000e+00 0.000000e+00 0.000000e+00 0.000000e+00 8.781230e+01 3.151319e+01 0.000000e+00 3.151319e+01 2.642500e+02 0.000000e+00 0.000000e+00 0.000000e+00 0.000000e+00 -5.226872e+00 1.113990e+01 0.000000e+00 1.113990e+01 -1.130424e+01 0.000000e+00 0.000000e+00 0.000000e+00 0.000000e+00 1.712473e+01 2.488781e+01 0.000000e+00 2.488781e+01 2.149200e+00 0.000000e+00 0.000000e+00 0.000000e+00 0.000000e+00 9.453681e+00 -1.359474e+01 0.000000e+00 -1.359474e+01 -9.019585e+01 0.000000e+00 0.000000e+00 0.000000e+00 0.000000e+00 5.154047e+01 2.746396e+01 0.000000e+00 2.746396e+01 1.147999e+01 0.000000e+00 0.000000e+00 0.000000e+00 0.000000e+00 3.800997e+01 2.325917e+01 0.000000e+00 2.325917e+01 4.858688e+00 0.000000e+00 0.000000e+00 0.000000e+00 0.000000e+00 -9.842311e-01 -1.345636e+01 0.000000e+00 -1.345636e+01 -1.150474e+02 0.000000e+00 0.000000e+00 0.000000e+00 0.000000e+00 -1.202134e+01 2.633571e+01 0.000000e+00 2.633571e+01 2.078298e+00 0.000000e+00 0.000000e+00 0.000000e+00 0.000000e+00 4.584048e+01 -1.396682e+01 0.000000e+00 -1.396682e+01 -1.597552e+01 0.000000e+00 0.000000e+00 0.000000e+00 0.000000e+00 4.831179e+00 -3.845750e+00 0.000000e+00 -3.845750e+00 -1.053205e+02 0.000000e+00 0.000000e+00 0.000000e+00 0.000000e+00 1.628370e+01 -5.159407e+00 0.000000e+00 -5.159407e+00 -6.134259e+01 0.000000e+00 0.000000e+00 0.000000e+00 0.000000e+00 5.616766e+01 5.294935e+01 0.000000e+00 5.294935e+01 1.031667e+02 0.000000e+00 0.000000e+00 0.000000e+00 0.000000e+00 5.144410e+01 4.827991e+01 0.000000e+00 4.827991e+01 9.825807e+01 0.000000e+00 0.000000e+00 0.000000e+00 0.000000e+00 2.554599e+01 -8.967439e+00 0.000000e+00 -8.967439e+00 -4.426876e+01 0.000000e+00 0.000000e+00 0.000000e+00 0.000000e+00 2.650490e+01 -1.077043e+01 0.000000e+00 -1.077043e+01 -4.137803e+01 0.000000e+00 0.000000e+00 0.000000e+00 0.000000e+00 -1.571012e+01 1.595498e+01 0.000000e+00 1.595498e+01 1.835992e+01 0.000000e+00 0.000000e+00 0.000000e+00 0.000000e+00 1.174636e+02 -3.092736e+01 0.000000e+00 -3.092736e+01 8.010858e+01 0.000000e+00 0.000000e+00 0.000000e+00 0.000000e+00 1.555033e+02 -3.474504e+01 0.000000e+00 -3.474504e+01 1.310770e+02 0.000000e+00 0.000000e+00 0.000000e+00 0.000000e+00 7.638886e+01 5.502683e+01 0.000000e+00 5.502683e+01 2.030184e+02 0.000000e+00 0.000000e+00 0.000000e+00 0.000000e+00 6.479762e+01 3.583813e+01 0.000000e+00 3.583813e+01 1.838752e+02 0.000000e+00 0.000000e+00 0.000000e+00 0.000000e+00 5.901418e+01 4.885284e+01 0.000000e+00 4.885284e+01 1.389107e+02 0.000000e+00 0.000000e+00 0.000000e+00 0.000000e+00 9.344575e+01 -2.511009e+01 0.000000e+00 -2.511009e+01 4.649523e+01 0.000000e+00 0.000000e+00 0.000000e+00 0.000000e+00 7.493321e+01 -2.098073e+01 0.000000e+00 -2.098073e+01 2.471554e+01 0.000000e+00 0.000000e+00 0.000000e+00 0.000000e+00 1.156964e+02 -2.719067e+01 0.000000e+00 -2.719067e+01 2.272431e+02 0.000000e+00 0.000000e+00 0.000000e+00 0.000000e+00 9.237631e+01 -8.478540e+00 0.000000e+00 -8.478540e+00 2.567611e+02 0.000000e+00 0.000000e+00 0.000000e+00 0.000000e+00 3.485241e+01 -1.382626e+01 0.000000e+00 -1.382626e+01 -2.795753e+01 0.000000e+00 0.000000e+00 0.000000e+00 0.000000e+00 1.087911e+02 -1.958707e+01 0.000000e+00 -1.958707e+01 6.907102e+01 0.000000e+00 0.000000e+00 0.000000e+00 0.000000e+00 4.988385e+01 3.318779e+01 0.000000e+00 3.318779e+01 1.918752e+01 0.000000e+00 0.000000e+00 0.000000e+00 0.000000e+00 5.918538e+01 3.371092e+01 0.000000e+00 3.371092e+01 2.061923e+01 0.000000e+00 0.000000e+00 0.000000e+00 0.000000e+00 2.590084e+01 2.233350e+01 0.000000e+00 2.233350e+01 1.694640e+00 0.000000e+00 0.000000e+00 0.000000e+00 0.000000e+00 1.931944e+01 2.602714e+01 0.000000e+00 2.602714e+01 2.830420e+00 0.000000e+00 0.000000e+00 0.000000e+00 0.000000e+00 4.246422e+01 -1.276931e+01 0.000000e+00 -1.276931e+01 -2.096089e+01 0.000000e+00 0.000000e+00 0.000000e+00 0.000000e+00 4.101318e+01 -1.180855e+01 0.000000e+00 -1.180855e+01 -1.855587e+01 0.000000e+00 0.000000e+00 0.000000e+00 0.000000e+00 1.863453e+02 1.076124e+02 0.000000e+00 1.076124e+02 3.169006e+02 0.000000e+00 0.000000e+00 0.000000e+00 0.000000e+00 6.904373e+01 5.235683e+01 0.000000e+00 5.235683e+01 5.983288e+01 0.000000e+00 0.000000e+00 0.000000e+00 0.000000e+00 4.826331e+01 3.951974e+01 0.000000e+00 3.951974e+01 4.288168e+01 0.000000e+00 0.000000e+00 0.000000e+00 0.000000e+00 3.618778e+01 1.649803e+01 0.000000e+00 1.649803e+01 1.062185e+00 0.000000e+00 0.000000e+00 0.000000e+00 0.000000e+00 -8.141668e+00 -3.591856e+01 0.000000e+00 -3.591856e+01 -1.414429e+01 0.000000e+00 0.000000e+00 0.000000e+00 0.000000e+00 1.235118e+02 -3.524951e+01 0.000000e+00 -3.524951e+01 1.350692e+02 0.000000e+00 0.000000e+00 0.000000e+00 0.000000e+00 1.502521e+02 -4.511853e+01 0.000000e+00 -4.511853e+01 1.500773e+02 0.000000e+00 0.000000e+00 0.000000e+00 0.000000e+00 -2.040565e+01 2.409752e+01 0.000000e+00 2.409752e+01 4.472582e+00 0.000000e+00 0.000000e+00 0.000000e+00 0.000000e+00 4.058253e+01 1.921859e+01 0.000000e+00 1.921859e+01 2.455366e+00 0.000000e+00 0.000000e+00 0.000000e+00 0.000000e+00 3.162918e-01 2.301936e+00 0.000000e+00 2.301936e+00 -2.455437e+00 0.000000e+00 0.000000e+00 0.000000e+00 0.000000e+00 -1.126878e+01 2.356123e+01 0.000000e+00 2.356123e+01 1.063680e+01 0.000000e+00 0.000000e+00 0.000000e+00 0.000000e+00 8.826891e+00 -7.242290e+00 0.000000e+00 -7.242290e+00 -9.104800e+01 0.000000e+00 0.000000e+00 0.000000e+00 0.000000e+00 -1.154974e+01 2.661024e+01 0.000000e+00 2.661024e+01 5.916383e+00 0.000000e+00 0.000000e+00 0.000000e+00 0.000000e+00 1.298203e+02 -3.992979e+01 0.000000e+00 -3.992979e+01 1.112430e+02 0.000000e+00 0.000000e+00 0.000000e+00 0.000000e+00 1.141649e+02 -3.489177e+01 0.000000e+00 -3.489177e+01 1.160003e+02 0.000000e+00 0.000000e+00 0.000000e+00 0.000000e+00 -2.019396e+00 -3.564153e+01 0.000000e+00 -3.564153e+01 -2.516332e+01 0.000000e+00 0.000000e+00 0.000000e+00 0.000000e+00 5.009328e+00 -7.186841e+00 0.000000e+00 -7.186841e+00 -9.217810e+01 0.000000e+00 0.000000e+00 0.000000e+00 0.000000e+00 1.139710e+01 -4.537922e+00 0.000000e+00 -4.537922e+00 -7.687046e+01 0.000000e+00 0.000000e+00 0.000000e+00 0.000000e+00 5.813493e+01 -1.686072e+01 0.000000e+00 -1.686072e+01 4.221765e+00 0.000000e+00 0.000000e+00 0.000000e+00 0.000000e+00 2.527679e+01 2.045886e+01 0.000000e+00 2.045886e+01 1.840567e+00 0.000000e+00 0.000000e+00 0.000000e+00 0.000000e+00 8.741709e+01 -2.248844e+01 0.000000e+00 -2.248844e+01 3.838082e+01 0.000000e+00 0.000000e+00 0.000000e+00 0.000000e+00 8.120172e+01 -2.103510e+01 0.000000e+00 -2.103510e+01 4.017787e+01 0.000000e+00 0.000000e+00 0.000000e+00 0.000000e+00 5.804325e+00 -4.964904e+00 0.000000e+00 -4.964904e+00 -9.684614e+01 0.000000e+00 0.000000e+00 0.000000e+00 0.000000e+00 3.343099e+01 -1.303792e+01 0.000000e+00 -1.303792e+01 -3.375110e+01 0.000000e+00 0.000000e+00 0.000000e+00 0.000000e+00 3.150721e+01 -1.148013e+01 0.000000e+00 -1.148013e+01 -3.116910e+01 0.000000e+00 0.000000e+00 0.000000e+00 0.000000e+00 5.142731e+00 -7.324427e+00 0.000000e+00 -7.324427e+00 -9.033312e+01 0.000000e+00 0.000000e+00 0.000000e+00 0.000000e+00 1.087877e+01 -9.633520e+00 0.000000e+00 -9.633520e+00 -7.034030e+01 0.000000e+00 0.000000e+00 0.000000e+00 0.000000e+00 5.212441e+01 -1.651004e+01 0.000000e+00 -1.651004e+01 -6.027768e+00 0.000000e+00 0.000000e+00 0.000000e+00 0.000000e+00 4.080512e+01 -8.135388e+00 0.000000e+00 -8.135388e+00 -2.434627e+01 0.000000e+00 0.000000e+00 0.000000e+00 0.000000e+00 3.154250e+01 -3.818456e+01 0.000000e+00 -3.818456e+01 3.602864e+01 0.000000e+00 0.000000e+00 0.000000e+00 0.000000e+00 3.122378e+01 1.782813e+01 0.000000e+00 1.782813e+01 -5.295037e-01 0.000000e+00 0.000000e+00 0.000000e+00 0.000000e+00 1.126178e+01 -1.769788e+01 0.000000e+00 -1.769788e+01 -8.388847e+01 0.000000e+00 0.000000e+00 0.000000e+00 0.000000e+00 2.460898e+01 -1.200786e+01 0.000000e+00 -1.200786e+01 -5.101983e+01 0.000000e+00 0.000000e+00 0.000000e+00 0.000000e+00 -6.712825e-01 1.936637e+00 0.000000e+00 1.936637e+00 -4.276333e+00 0.000000e+00 0.000000e+00 0.000000e+00 0.000000e+00 1.331478e+01 -8.263695e+00 0.000000e+00 -8.263695e+00 -6.490691e+01 0.000000e+00 0.000000e+00 0.000000e+00 0.000000e+00 1.614710e+01 -8.248829e+00 0.000000e+00 -8.248829e+00 -6.829439e+01 0.000000e+00 0.000000e+00 0.000000e+00 0.000000e+00 1.894957e+01 -8.368649e+00 0.000000e+00 -8.368649e+00 -6.322928e+01 0.000000e+00 0.000000e+00 0.000000e+00 0.000000e+00 3.584725e+01 1.999006e+01 0.000000e+00 1.999006e+01 1.672393e+00 0.000000e+00 0.000000e+00 0.000000e+00 0.000000e+00 -2.445247e+01 -8.060497e+00 0.000000e+00 -8.060497e+00 3.775804e+01 0.000000e+00 0.000000e+00 0.000000e+00 0.000000e+00 5.439231e+01 -1.698443e+01 0.000000e+00 -1.698443e+01 -8.930012e-01 0.000000e+00 0.000000e+00 0.000000e+00 0.000000e+00 5.102636e+01 -1.471333e+01 0.000000e+00 -1.471333e+01 -4.135381e+00 0.000000e+00 0.000000e+00 0.000000e+00 0.000000e+00 5.811578e+01 -1.522253e+01 0.000000e+00 -1.522253e+01 1.263096e+00 0.000000e+00 0.000000e+00 0.000000e+00 0.000000e+00 4.191709e+00 -7.318646e+00 0.000000e+00 -7.318646e+00 -1.096787e+02 0.000000e+00 0.000000e+00 0.000000e+00 0.000000e+00 3.327253e+01 1.415810e+01 0.000000e+00 1.415810e+01 2.116147e+00 0.000000e+00 0.000000e+00 0.000000e+00 0.000000e+00 7.262192e+00 2.589613e+01 0.000000e+00 2.589613e+01 2.731479e+00 0.000000e+00 0.000000e+00 0.000000e+00 0.000000e+00 4.135335e+00 -3.913842e+00 0.000000e+00 -3.913842e+00 -1.116643e+02 0.000000e+00 0.000000e+00 0.000000e+00 0.000000e+00 3.157707e+00 -1.175036e+01 0.000000e+00 -1.175036e+01 -8.282895e+01 0.000000e+00 0.000000e+00 0.000000e+00 0.000000e+00 4.416509e+01 2.728215e+01 0.000000e+00 2.728215e+01 1.030498e+01 0.000000e+00 0.000000e+00 0.000000e+00 0.000000e+00 6.896266e+00 -1.027313e+01 0.000000e+00 -1.027313e+01 -9.566656e+01 0.000000e+00 0.000000e+00 0.000000e+00 0.000000e+00 1.062201e+02 -2.866818e+01 0.000000e+00 -2.866818e+01 8.563760e+01 0.000000e+00 0.000000e+00 0.000000e+00 0.000000e+00 1.247331e+02 -3.529478e+01 0.000000e+00 -3.529478e+01 9.566785e+01 0.000000e+00 0.000000e+00 0.000000e+00 0.000000e+00 -2.477487e+01 5.501064e+00 0.000000e+00 5.501064e+00 3.133550e+01 0.000000e+00 0.000000e+00 0.000000e+00 0.000000e+00 5.698502e+00 -6.026823e+00 0.000000e+00 -6.026823e+00 -8.580042e+01 0.000000e+00 0.000000e+00 0.000000e+00 0.000000e+00 8.325548e+00 -1.147420e+01 0.000000e+00 -1.147420e+01 -8.453612e+01 0.000000e+00 0.000000e+00 0.000000e+00 0.000000e+00 1.032468e+01 -9.479876e+00 0.000000e+00 -9.479876e+00 -8.245767e+01 0.000000e+00 0.000000e+00 0.000000e+00 0.000000e+00 5.992844e+01 -1.483271e+01 0.000000e+00 -1.483271e+01 6.041751e+00 0.000000e+00 0.000000e+00 0.000000e+00 0.000000e+00 6.162223e+01 -1.655736e+01 0.000000e+00 -1.655736e+01 9.217920e+00 0.000000e+00 0.000000e+00 0.000000e+00 0.000000e+00 -1.822024e+00 5.447963e+00 0.000000e+00 5.447963e+00 -5.674132e+00 0.000000e+00 0.000000e+00 0.000000e+00 0.000000e+00 -2.291521e+01 -1.312801e+01 0.000000e+00 -1.312801e+01 2.309472e+01 0.000000e+00 0.000000e+00 0.000000e+00 0.000000e+00 1.112110e+01 2.802531e+01 0.000000e+00 2.802531e+01 4.842194e+00 0.000000e+00 0.000000e+00 0.000000e+00 0.000000e+00 3.698692e+01 -4.477242e+01 0.000000e+00 -4.477242e+01 3.376662e+01 0.000000e+00 0.000000e+00 0.000000e+00 0.000000e+00 1.147143e+01 -2.220082e+01 0.000000e+00 -2.220082e+01 -7.679902e+01 0.000000e+00 0.000000e+00 0.000000e+00 0.000000e+00 2.952915e+00 -2.169552e+01 0.000000e+00 -2.169552e+01 -6.581431e+01 0.000000e+00 0.000000e+00 0.000000e+00 0.000000e+00 7.870805e+00 5.443888e+00 0.000000e+00 5.443888e+00 -1.470953e+02 0.000000e+00 0.000000e+00 0.000000e+00 0.000000e+00 -2.168491e+01 -2.297311e+01 0.000000e+00 -2.297311e+01 3.408139e+01 0.000000e+00 0.000000e+00 0.000000e+00 0.000000e+00 4.236392e+01 -1.347318e+01 0.000000e+00 -1.347318e+01 -1.392404e+01 0.000000e+00 0.000000e+00 0.000000e+00 0.000000e+00 4.900928e+01 -1.521319e+01 0.000000e+00 -1.521319e+01 -1.131077e+01 0.000000e+00 0.000000e+00 0.000000e+00 0.000000e+00 -1.470377e+01 -1.385772e+01 0.000000e+00 -1.385772e+01 5.054113e+01 0.000000e+00 0.000000e+00 0.000000e+00 0.000000e+00 2.850652e+01 1.621126e+01 0.000000e+00 1.621126e+01 -9.330789e-01 0.000000e+00 0.000000e+00 0.000000e+00 0.000000e+00 2.184161e+01 -1.051944e+01 0.000000e+00 -1.051944e+01 -5.717546e+01 0.000000e+00 0.000000e+00 0.000000e+00 0.000000e+00 1.556738e+01 -8.731861e+00 0.000000e+00 -8.731861e+00 -5.947235e+01 0.000000e+00 0.000000e+00 0.000000e+00 0.000000e+00 1.709956e+01 -1.042529e+01 0.000000e+00 -1.042529e+01 -5.369315e+01 0.000000e+00 0.000000e+00 0.000000e+00 0.000000e+00 -1.173303e+01 -3.841493e+01 0.000000e+00 -3.841493e+01 2.877024e+00 0.000000e+00 0.000000e+00 0.000000e+00 0.000000e+00 6.874601e+01 -1.829307e+01 0.000000e+00 -1.829307e+01 2.088223e+01 0.000000e+00 0.000000e+00 0.000000e+00 0.000000e+00 7.247026e+01 -1.959688e+01 0.000000e+00 -1.959688e+01 1.855816e+01 0.000000e+00 0.000000e+00 0.000000e+00 0.000000e+00 1.133613e+02 -2.512811e+01 0.000000e+00 -2.512811e+01 6.710497e+01 0.000000e+00 0.000000e+00 0.000000e+00 0.000000e+00 1.006694e+02 -2.766132e+01 0.000000e+00 -2.766132e+01 7.388882e+01 0.000000e+00 0.000000e+00 0.000000e+00 0.000000e+00 2.370416e+01 1.943447e+01 0.000000e+00 1.943447e+01 -4.866116e-02 0.000000e+00 0.000000e+00 0.000000e+00 0.000000e+00 2.312760e+00 -3.333855e+01 0.000000e+00 -3.333855e+01 -3.628989e+01 0.000000e+00 0.000000e+00 0.000000e+00 0.000000e+00 3.540684e+00 -1.686698e+01 0.000000e+00 -1.686698e+01 -7.546174e+01 0.000000e+00 0.000000e+00 0.000000e+00 0.000000e+00 -2.160442e+01 2.164507e+00 0.000000e+00 2.164507e+00 2.293665e+01 0.000000e+00 0.000000e+00 0.000000e+00 0.000000e+00 2.043480e+01 -1.196285e+01 0.000000e+00 -1.196285e+01 -4.748134e+01 0.000000e+00 0.000000e+00 0.000000e+00 0.000000e+00 4.704594e+00 -4.230189e+01 0.000000e+00 -4.230189e+01 -1.742506e+01 0.000000e+00 0.000000e+00 0.000000e+00 0.000000e+00 1.076107e+01 -1.035576e+01 0.000000e+00 -1.035576e+01 -7.584535e+01 0.000000e+00 0.000000e+00 0.000000e+00 0.000000e+00 8.657940e+00 -7.462188e+00 0.000000e+00 -7.462188e+00 -7.873934e+01 0.000000e+00 0.000000e+00 0.000000e+00 0.000000e+00 1.434078e+01 -8.398230e+00 0.000000e+00 -8.398230e+00 -7.359226e+01 0.000000e+00 0.000000e+00 0.000000e+00 0.000000e+00 4.161884e+01 2.956681e+01 0.000000e+00 2.956681e+01 1.290598e+01 0.000000e+00 0.000000e+00 0.000000e+00 0.000000e+00 4.755549e+01 3.933034e+01 0.000000e+00 3.933034e+01 3.870466e+01 0.000000e+00 0.000000e+00 0.000000e+00 0.000000e+00 1.176520e+01 -3.276227e+01 0.000000e+00 -3.276227e+01 -4.878632e+01 0.000000e+00 0.000000e+00 0.000000e+00 0.000000e+00 4.568676e+01 -1.412959e+01 0.000000e+00 -1.412959e+01 -9.397793e+00 0.000000e+00 0.000000e+00 0.000000e+00 0.000000e+00 3.615781e+01 -1.252715e+01 0.000000e+00 -1.252715e+01 -2.284860e+01 0.000000e+00 0.000000e+00 0.000000e+00 0.000000e+00 7.953685e+01 -2.133407e+01 0.000000e+00 -2.133407e+01 3.104858e+01 0.000000e+00 0.000000e+00 0.000000e+00 0.000000e+00 7.515321e+01 -1.866902e+01 0.000000e+00 -1.866902e+01 2.719386e+01 0.000000e+00 0.000000e+00 0.000000e+00 0.000000e+00 8.146365e+01 -1.923957e+01 0.000000e+00 -1.923957e+01 3.324640e+01 0.000000e+00 0.000000e+00 0.000000e+00 0.000000e+00 -1.969301e+01 -2.533383e+01 0.000000e+00 -2.533383e+01 2.106606e+01 0.000000e+00 0.000000e+00 0.000000e+00 0.000000e+00 3.390928e+01 2.166336e+01 0.000000e+00 2.166336e+01 2.526990e+00 0.000000e+00 0.000000e+00 0.000000e+00 0.000000e+00 4.402039e+01 3.475669e+01 0.000000e+00 3.475669e+01 2.487394e+01 0.000000e+00 0.000000e+00 0.000000e+00 0.000000e+00 3.525958e+01 3.209355e+01 0.000000e+00 3.209355e+01 2.366100e+01 0.000000e+00 0.000000e+00 0.000000e+00 0.000000e+00 2.909864e+01 2.783865e+01 0.000000e+00 2.783865e+01 1.337845e+01 0.000000e+00 0.000000e+00 0.000000e+00 0.000000e+00 1.355624e+01 -1.677142e+01 0.000000e+00 -1.677142e+01 -7.717726e+01 0.000000e+00 0.000000e+00 0.000000e+00 0.000000e+00 -4.884174e+00 2.845332e+01 0.000000e+00 2.845332e+01 5.072117e+00 0.000000e+00 0.000000e+00 0.000000e+00 0.000000e+00 3.184555e+01 1.902039e+01 0.000000e+00 1.902039e+01 2.130219e+00 0.000000e+00 0.000000e+00 0.000000e+00 0.000000e+00 6.941710e+01 -2.604809e+01 0.000000e+00 -2.604809e+01 2.294421e+01 0.000000e+00 0.000000e+00 0.000000e+00 0.000000e+00 6.194078e+01 -1.702043e+01 0.000000e+00 -1.702043e+01 1.434026e+01 0.000000e+00 0.000000e+00 0.000000e+00 0.000000e+00 1.430260e+01 -2.308502e+01 0.000000e+00 -2.308502e+01 -6.775745e+01 0.000000e+00 0.000000e+00 0.000000e+00 0.000000e+00 4.234140e+00 -2.851195e+01 0.000000e+00 -2.851195e+01 -4.718937e+01 0.000000e+00 0.000000e+00 0.000000e+00 0.000000e+00 -2.771888e+00 2.606245e+01 0.000000e+00 2.606245e+01 3.080709e+00 0.000000e+00 0.000000e+00 0.000000e+00 0.000000e+00 2.453234e+01 2.146226e+01 0.000000e+00 2.146226e+01 -9.518638e-03 0.000000e+00 0.000000e+00 0.000000e+00 0.000000e+00 3.155501e+01 -1.044184e+01 0.000000e+00 -1.044184e+01 -3.983585e+01 0.000000e+00 0.000000e+00 0.000000e+00 0.000000e+00 4.019955e+01 -4.393873e+01 0.000000e+00 -4.393873e+01 7.278143e+01 0.000000e+00 0.000000e+00 0.000000e+00 0.000000e+00 2.755563e+01 -1.109479e+01 0.000000e+00 -1.109479e+01 -3.634487e+01 0.000000e+00 0.000000e+00 0.000000e+00 0.000000e+00 1.121925e+01 2.615070e+01 0.000000e+00 2.615070e+01 4.746596e+00 0.000000e+00 0.000000e+00 0.000000e+00 0.000000e+00 9.619986e+01 -2.692346e+01 0.000000e+00 -2.692346e+01 5.479447e+01 0.000000e+00 0.000000e+00 0.000000e+00 0.000000e+00 -1.101094e+01 1.700232e+01 0.000000e+00 1.700232e+01 3.585444e+01 0.000000e+00 0.000000e+00 0.000000e+00 0.000000e+00 4.403275e+00 -4.638305e+00 0.000000e+00 -4.638305e+00 -1.206825e+02 0.000000e+00 0.000000e+00 0.000000e+00 0.000000e+00 9.953226e+01 -2.480636e+01 0.000000e+00 -2.480636e+01 6.294497e+01 0.000000e+00 0.000000e+00 0.000000e+00 0.000000e+00 2.917632e+00 2.870788e+01 0.000000e+00 2.870788e+01 5.325146e+00 0.000000e+00 0.000000e+00 0.000000e+00 0.000000e+00 -9.040238e+00 2.306872e+01 0.000000e+00 2.306872e+01 1.816247e+01 0.000000e+00 0.000000e+00 0.000000e+00 0.000000e+00 8.683067e-01 2.569212e+01 0.000000e+00 2.569212e+01 2.009593e+01 0.000000e+00 0.000000e+00 0.000000e+00 0.000000e+00 1.013093e+02 -2.453908e+01 0.000000e+00 -2.453908e+01 5.700489e+01 0.000000e+00 0.000000e+00 0.000000e+00 0.000000e+00 3.053713e+00 -7.003627e+00 0.000000e+00 -7.003627e+00 -1.227732e+02 0.000000e+00 0.000000e+00 0.000000e+00 0.000000e+00 1.432195e+00 2.576901e+01 0.000000e+00 2.576901e+01 4.936526e+00 0.000000e+00 0.000000e+00 0.000000e+00 0.000000e+00 1.049089e+02 -3.411299e+01 0.000000e+00 -3.411299e+01 7.268716e+01 0.000000e+00 0.000000e+00 0.000000e+00 0.000000e+00 8.563845e+01 -2.264130e+01 0.000000e+00 -2.264130e+01 4.800168e+01 0.000000e+00 0.000000e+00 0.000000e+00 0.000000e+00 4.226885e+01 -4.002604e+01 0.000000e+00 -4.002604e+01 4.930841e+01 0.000000e+00 0.000000e+00 0.000000e+00 0.000000e+00 3.336946e+01 -3.362134e+01 0.000000e+00 -3.362134e+01 9.920268e+01 0.000000e+00 0.000000e+00 0.000000e+00 0.000000e+00 -1.377546e+01 3.682290e+00 0.000000e+00 3.682290e+00 4.943758e+01 0.000000e+00 0.000000e+00 0.000000e+00 0.000000e+00 -7.955380e+00 1.427053e+01 0.000000e+00 1.427053e+01 3.008682e+01 0.000000e+00 0.000000e+00 0.000000e+00 0.000000e+00 -1.457585e+01 -2.197524e+00 0.000000e+00 -2.197524e+00 3.606297e+01 0.000000e+00 0.000000e+00 0.000000e+00 0.000000e+00 1.481921e+01 -2.875652e+01 0.000000e+00 -2.875652e+01 -5.771739e+01 0.000000e+00 0.000000e+00 0.000000e+00 0.000000e+00 -8.101228e+00 -1.189933e+01 0.000000e+00 -1.189933e+01 -1.478875e+02 0.000000e+00 0.000000e+00 0.000000e+00 0.000000e+00 -1.440976e+01 -1.851988e+01 0.000000e+00 -1.851988e+01 3.545798e+01 0.000000e+00 0.000000e+00 0.000000e+00 0.000000e+00 6.712923e+01 -2.348181e+01 0.000000e+00 -2.348181e+01 2.524283e+01 0.000000e+00 0.000000e+00 0.000000e+00 0.000000e+00 7.263142e+01 -2.672950e+01 0.000000e+00 -2.672950e+01 3.088338e+01 0.000000e+00 0.000000e+00 0.000000e+00 0.000000e+00 2.187851e+01 -1.351722e+01 0.000000e+00 -1.351722e+01 -5.648586e+01 0.000000e+00 0.000000e+00 0.000000e+00 0.000000e+00 5.012909e+01 5.131550e+01 0.000000e+00 5.131550e+01 9.324516e+01 0.000000e+00 0.000000e+00 0.000000e+00 0.000000e+00 3.902194e+01 3.885918e+01 0.000000e+00 3.885918e+01 7.265710e+01 0.000000e+00 0.000000e+00 0.000000e+00 0.000000e+00 7.450279e+00 2.938883e+01 0.000000e+00 2.938883e+01 1.048019e+01 0.000000e+00 0.000000e+00 0.000000e+00 0.000000e+00 7.116795e+01 2.709928e+00 0.000000e+00 2.709928e+00 1.951511e+02 0.000000e+00 0.000000e+00 0.000000e+00 0.000000e+00 6.530530e+00 -2.097686e+01 0.000000e+00 -2.097686e+01 -6.028502e+01 0.000000e+00 0.000000e+00 0.000000e+00 0.000000e+00 9.006365e+01 -3.112146e+01 0.000000e+00 -3.112146e+01 5.058374e+01 0.000000e+00 0.000000e+00 0.000000e+00 0.000000e+00 3.921533e+01 -1.223206e+01 0.000000e+00 -1.223206e+01 -2.574576e+01 0.000000e+00 0.000000e+00 0.000000e+00 0.000000e+00 1.385068e+02 -4.313168e+01 0.000000e+00 -4.313168e+01 2.019257e+02 0.000000e+00 0.000000e+00 0.000000e+00 0.000000e+00 1.068237e+02 -3.342410e+01 0.000000e+00 -3.342410e+01 2.292488e+02 0.000000e+00 0.000000e+00 0.000000e+00 0.000000e+00 4.865078e+01 -2.040688e+01 0.000000e+00 -2.040688e+01 -8.930941e+00 0.000000e+00 0.000000e+00 0.000000e+00 0.000000e+00 1.463706e+02 -4.763166e+01 0.000000e+00 -4.763166e+01 1.763520e+02 0.000000e+00 0.000000e+00 0.000000e+00 0.000000e+00 1.123482e+02 -3.743438e+01 0.000000e+00 -3.743438e+01 1.917349e+02 0.000000e+00 0.000000e+00 0.000000e+00 0.000000e+00 2.181058e+01 2.471147e+01 0.000000e+00 2.471147e+01 3.500201e+00 0.000000e+00 0.000000e+00 0.000000e+00 0.000000e+00 1.663496e+01 2.923244e+01 0.000000e+00 2.923244e+01 8.389036e+00 0.000000e+00 0.000000e+00 0.000000e+00 0.000000e+00 6.805554e+01 1.455318e+01 0.000000e+00 1.455318e+01 2.182225e+02 0.000000e+00 0.000000e+00 0.000000e+00 0.000000e+00 1.578721e+01 -3.437066e+01 0.000000e+00 -3.437066e+01 -4.062832e+01 0.000000e+00 0.000000e+00 0.000000e+00 0.000000e+00 5.841111e+01 3.194499e+01 0.000000e+00 3.194499e+01 1.806527e+02 0.000000e+00 0.000000e+00 0.000000e+00 0.000000e+00 -2.707734e+00 -4.195690e+01 0.000000e+00 -4.195690e+01 -4.556996e+00 0.000000e+00 0.000000e+00 0.000000e+00 0.000000e+00 1.208959e+02 -4.028134e+01 0.000000e+00 -4.028134e+01 1.649825e+02 0.000000e+00 0.000000e+00 0.000000e+00 0.000000e+00 2.078197e+00 -3.851632e+01 0.000000e+00 -3.851632e+01 -1.517104e+01 0.000000e+00 0.000000e+00 0.000000e+00 0.000000e+00 2.641546e+01 -1.425700e+01 0.000000e+00 -1.425700e+01 -4.446863e+01 0.000000e+00 0.000000e+00 0.000000e+00 0.000000e+00 1.123858e+02 -4.578546e+01 0.000000e+00 -4.578546e+01 1.225696e+02 0.000000e+00 0.000000e+00 0.000000e+00 0.000000e+00 -3.886476e+00 -3.926032e+01 0.000000e+00 -3.926032e+01 -5.046719e+00 0.000000e+00 0.000000e+00 0.000000e+00 0.000000e+00 1.113723e+01 -3.988899e+01 0.000000e+00 -3.988899e+01 -2.872172e+01 0.000000e+00 0.000000e+00 0.000000e+00 0.000000e+00 5.278074e+01 -2.129431e+01 0.000000e+00 -2.129431e+01 4.250978e+00 0.000000e+00 0.000000e+00 0.000000e+00 0.000000e+00 4.717605e+01 3.938887e+01 0.000000e+00 3.938887e+01 3.859965e+01 0.000000e+00 0.000000e+00 0.000000e+00 0.000000e+00 3.878520e+01 2.490721e+01 0.000000e+00 2.490721e+01 6.278500e+00 0.000000e+00 0.000000e+00 0.000000e+00 0.000000e+00 1.819937e+00 2.777075e+01 0.000000e+00 2.777075e+01 9.798835e+00 0.000000e+00 0.000000e+00 0.000000e+00 0.000000e+00 2.910132e+01 2.570688e+01 0.000000e+00 2.570688e+01 6.808447e+00 0.000000e+00 0.000000e+00 0.000000e+00 0.000000e+00 3.329171e+01 -1.798463e+01 0.000000e+00 -1.798463e+01 -3.066808e+01 0.000000e+00 0.000000e+00 0.000000e+00 0.000000e+00 6.618992e+01 -2.406885e+01 0.000000e+00 -2.406885e+01 1.537236e+01 0.000000e+00 0.000000e+00 0.000000e+00 0.000000e+00 6.139073e+01 -2.275836e+01 0.000000e+00 -2.275836e+01 1.790427e+01 0.000000e+00 0.000000e+00 0.000000e+00 0.000000e+00 -1.209676e+01 -2.831596e+01 0.000000e+00 -2.831596e+01 4.432721e+01 0.000000e+00 0.000000e+00 0.000000e+00 0.000000e+00 1.055264e+02 -3.952969e+01 0.000000e+00 -3.952969e+01 9.287064e+01 0.000000e+00 0.000000e+00 0.000000e+00 0.000000e+00 5.911187e+00 -1.539035e+01 0.000000e+00 -1.539035e+01 -7.060782e+01 0.000000e+00 0.000000e+00 0.000000e+00 0.000000e+00 1.099736e+02 -3.342637e+01 0.000000e+00 -3.342637e+01 1.014317e+02 0.000000e+00 0.000000e+00 0.000000e+00 0.000000e+00 -1.997522e+01 -3.222012e+01 0.000000e+00 -3.222012e+01 1.225324e+01 0.000000e+00 0.000000e+00 0.000000e+00 0.000000e+00 -1.126940e+01 -3.719694e+01 0.000000e+00 -3.719694e+01 3.979464e+00 0.000000e+00 0.000000e+00 0.000000e+00 0.000000e+00 5.104786e+01 -2.213251e+01 0.000000e+00 -2.213251e+01 -2.083698e+00 0.000000e+00 0.000000e+00 0.000000e+00 0.000000e+00 5.295501e+01 -2.005493e+01 0.000000e+00 -2.005493e+01 2.681555e-01 0.000000e+00 0.000000e+00 0.000000e+00 0.000000e+00 8.919163e+01 -3.166737e+01 0.000000e+00 -3.166737e+01 6.725513e+01 0.000000e+00 0.000000e+00 0.000000e+00 0.000000e+00 1.200713e+01 -1.058232e+01 0.000000e+00 -1.058232e+01 -6.477483e+01 0.000000e+00 0.000000e+00 0.000000e+00 0.000000e+00 1.862013e+01 -1.082323e+01 0.000000e+00 -1.082323e+01 -6.282009e+01 0.000000e+00 0.000000e+00 0.000000e+00 0.000000e+00 -6.617874e+00 -4.148934e+01 0.000000e+00 -4.148934e+01 1.344380e+01 0.000000e+00 0.000000e+00 0.000000e+00 0.000000e+00 8.976614e+01 -3.303909e+01 0.000000e+00 -3.303909e+01 8.251741e+01 0.000000e+00 0.000000e+00 0.000000e+00 0.000000e+00 1.706312e+01 -1.482023e+01 0.000000e+00 -1.482023e+01 -5.159560e+01 0.000000e+00 0.000000e+00 0.000000e+00 0.000000e+00 2.393997e+01 -1.678518e+01 0.000000e+00 -1.678518e+01 -4.909555e+01 0.000000e+00 0.000000e+00 0.000000e+00 0.000000e+00 7.020003e+00 -3.378171e+01 0.000000e+00 -3.378171e+01 -2.940519e+01 0.000000e+00 0.000000e+00 0.000000e+00 0.000000e+00 1.591597e+01 -1.286470e+01 0.000000e+00 -1.286470e+01 -6.704385e+01 0.000000e+00 0.000000e+00 0.000000e+00 0.000000e+00 3.427692e+01 -1.803412e+01 0.000000e+00 -1.803412e+01 -2.348829e+01 0.000000e+00 0.000000e+00 0.000000e+00 0.000000e+00 4.476547e+01 -1.941511e+01 0.000000e+00 -1.941511e+01 -6.020180e+00 0.000000e+00 0.000000e+00 0.000000e+00 0.000000e+00 4.298308e+01 2.984368e+01 0.000000e+00 2.984368e+01 1.294502e+02 0.000000e+00 0.000000e+00 0.000000e+00 0.000000e+00 4.826680e+01 3.911552e+01 0.000000e+00 3.911552e+01 1.394222e+02 0.000000e+00 0.000000e+00 0.000000e+00 0.000000e+00 9.478099e+01 -3.629416e+01 0.000000e+00 -3.629416e+01 1.292073e+02 0.000000e+00 0.000000e+00 0.000000e+00 0.000000e+00 1.153441e+02 -4.711971e+01 0.000000e+00 -4.711971e+01 1.488863e+02 0.000000e+00 0.000000e+00 0.000000e+00 0.000000e+00 2.648523e+01 -3.857987e+01 0.000000e+00 -3.857987e+01 2.220873e+01 0.000000e+00 0.000000e+00 0.000000e+00 0.000000e+00 6.070167e+01 -2.195883e+01 0.000000e+00 -2.195883e+01 6.675144e+00 0.000000e+00 0.000000e+00 0.000000e+00 0.000000e+00 3.408890e+01 -1.582507e+01 0.000000e+00 -1.582507e+01 -2.760508e+01 0.000000e+00 0.000000e+00 0.000000e+00 0.000000e+00 -1.540774e+01 -3.556915e+01 0.000000e+00 -3.556915e+01 2.331818e+01 0.000000e+00 0.000000e+00 0.000000e+00 0.000000e+00 8.396511e+00 -1.171552e+01 0.000000e+00 -1.171552e+01 -6.958113e+01 0.000000e+00 0.000000e+00 0.000000e+00 0.000000e+00 4.597061e+01 -1.713689e+01 0.000000e+00 -1.713689e+01 -1.544531e+01 0.000000e+00 0.000000e+00 0.000000e+00 0.000000e+00 3.939834e+01 -1.755284e+01 0.000000e+00 -1.755284e+01 -1.746437e+01 0.000000e+00 0.000000e+00 0.000000e+00 0.000000e+00 3.992671e+01 -1.846586e+01 0.000000e+00 -1.846586e+01 -1.213276e+01 0.000000e+00 0.000000e+00 0.000000e+00 0.000000e+00 4.055176e+01 -1.654536e+01 0.000000e+00 -1.654536e+01 -2.099110e+01 0.000000e+00 0.000000e+00 0.000000e+00 0.000000e+00 -9.226485e+00 -3.156858e+01 0.000000e+00 -3.156858e+01 2.875274e+01 0.000000e+00 0.000000e+00 0.000000e+00 0.000000e+00 1.600890e+01 -2.795192e+01 0.000000e+00 -2.795192e+01 -4.961618e+01 0.000000e+00 0.000000e+00 0.000000e+00 0.000000e+00 5.064395e+01 2.000678e+01 0.000000e+00 2.000678e+01 1.618234e+02 0.000000e+00 0.000000e+00 0.000000e+00 0.000000e+00 4.684717e+01 -2.620456e+01 0.000000e+00 -2.620456e+01 -5.095454e+00 0.000000e+00 0.000000e+00 0.000000e+00 0.000000e+00 9.886680e+00 -4.359573e+01 0.000000e+00 -4.359573e+01 -8.601727e+00 0.000000e+00 0.000000e+00 0.000000e+00 0.000000e+00 3.347089e+00 2.560561e+01 0.000000e+00 2.560561e+01 9.399920e+00 0.000000e+00 0.000000e+00 0.000000e+00 0.000000e+00 1.300533e+01 -3.330388e+01 0.000000e+00 -3.330388e+01 -3.335594e+01 0.000000e+00 0.000000e+00 0.000000e+00 0.000000e+00 1.536776e+01 -2.551066e+01 0.000000e+00 -2.551066e+01 -4.721779e+01 0.000000e+00 0.000000e+00 0.000000e+00 0.000000e+00 9.057722e+01 -3.268653e+01 0.000000e+00 -3.268653e+01 6.133072e+01 0.000000e+00 0.000000e+00 0.000000e+00 0.000000e+00 2.431403e+01 -1.284037e+01 0.000000e+00 -1.284037e+01 -4.110782e+01 0.000000e+00 0.000000e+00 0.000000e+00 0.000000e+00 2.520832e+01 -1.737256e+01 0.000000e+00 -1.737256e+01 1.018497e+02 0.000000e+00 0.000000e+00 0.000000e+00 0.000000e+00 1.041572e+00 -4.414131e+01 0.000000e+00 -4.414131e+01 2.743310e+00 0.000000e+00 0.000000e+00 0.000000e+00 0.000000e+00 -6.398394e+00 -3.877607e+01 0.000000e+00 -3.877607e+01 1.313488e+01 0.000000e+00 0.000000e+00 0.000000e+00 0.000000e+00 5.328974e-01 -4.133839e+01 0.000000e+00 -4.133839e+01 5.344288e+00 0.000000e+00 0.000000e+00 0.000000e+00 0.000000e+00 6.096924e+00 -1.204319e+01 0.000000e+00 -1.204319e+01 -7.528792e+01 0.000000e+00 0.000000e+00 0.000000e+00 0.000000e+00 8.638359e+01 -2.612564e+01 0.000000e+00 -2.612564e+01 4.027227e+01 0.000000e+00 0.000000e+00 0.000000e+00 0.000000e+00 7.651636e+01 -2.606054e+01 0.000000e+00 -2.606054e+01 3.731266e+01 0.000000e+00 0.000000e+00 0.000000e+00 0.000000e+00 7.582453e+01 -2.839994e+01 0.000000e+00 -2.839994e+01 4.543302e+01 0.000000e+00 0.000000e+00 0.000000e+00 0.000000e+00 3.380124e+01 3.726120e+01 0.000000e+00 3.726120e+01 6.066162e+01 0.000000e+00 0.000000e+00 0.000000e+00 0.000000e+00 2.759282e+01 2.225539e+01 0.000000e+00 2.225539e+01 1.996551e+00 0.000000e+00 0.000000e+00 0.000000e+00 0.000000e+00 -3.799392e+00 2.866508e+01 0.000000e+00 2.866508e+01 9.536010e+00 0.000000e+00 0.000000e+00 0.000000e+00 0.000000e+00 1.109155e+02 -3.709726e+01 0.000000e+00 -3.709726e+01 9.525938e+01 0.000000e+00 0.000000e+00 0.000000e+00 0.000000e+00 1.583942e+01 -2.119645e+01 0.000000e+00 -2.119645e+01 -6.216394e+01 0.000000e+00 0.000000e+00 0.000000e+00 0.000000e+00 7.721914e+01 -3.157005e+01 0.000000e+00 -3.157005e+01 5.721049e+01 0.000000e+00 0.000000e+00 0.000000e+00 0.000000e+00 5.681040e+01 -2.511075e+00 0.000000e+00 -2.511075e+00 1.867989e+02 0.000000e+00 0.000000e+00 0.000000e+00 0.000000e+00 7.850112e+01 -3.901849e+01 0.000000e+00 -3.901849e+01 7.409408e+01 0.000000e+00 0.000000e+00 0.000000e+00 0.000000e+00 2.713258e+01 2.703967e+01 0.000000e+00 2.703967e+01 5.811607e+00 0.000000e+00 0.000000e+00 0.000000e+00 0.000000e+00 8.073114e+01 -3.706320e+01 0.000000e+00 -3.706320e+01 5.599484e+01 0.000000e+00 0.000000e+00 0.000000e+00 0.000000e+00 -5.996569e+00 -1.954826e+01 0.000000e+00 -1.954826e+01 6.390012e+01 0.000000e+00 0.000000e+00 0.000000e+00 0.000000e+00 1.484669e+01 -1.309876e+01 0.000000e+00 -1.309876e+01 -5.843716e+01 0.000000e+00 0.000000e+00 0.000000e+00 0.000000e+00 9.289535e+01 -3.861608e+01 0.000000e+00 -3.861608e+01 1.115892e+02 0.000000e+00 0.000000e+00 0.000000e+00 0.000000e+00 6.931150e+01 -1.657051e+01 0.000000e+00 -1.657051e+01 1.150814e+01 0.000000e+00 0.000000e+00 0.000000e+00 0.000000e+00 1.536018e+01 -1.500890e+01 0.000000e+00 -1.500890e+01 -7.150882e+01 0.000000e+00 0.000000e+00 0.000000e+00 0.000000e+00 9.030305e+01 -3.857781e+01 0.000000e+00 -3.857781e+01 7.748475e+01 0.000000e+00 0.000000e+00 0.000000e+00 0.000000e+00 2.854409e+00 2.498870e+01 0.000000e+00 2.498870e+01 2.627469e+01 0.000000e+00 0.000000e+00 0.000000e+00 0.000000e+00 8.116910e+01 -2.216652e+01 0.000000e+00 -2.216652e+01 2.099092e+02 0.000000e+00 0.000000e+00 0.000000e+00 0.000000e+00 6.111568e+01 -1.039742e+01 0.000000e+00 -1.039742e+01 1.605223e+02 0.000000e+00 0.000000e+00 0.000000e+00 0.000000e+00 9.159765e+01 -4.359856e+01 0.000000e+00 -4.359856e+01 1.037623e+02 0.000000e+00 0.000000e+00 0.000000e+00 0.000000e+00 1.534226e+01 -3.999332e+01 0.000000e+00 -3.999332e+01 -1.779435e+01 0.000000e+00 0.000000e+00 0.000000e+00 0.000000e+00 2.964443e+01 -2.385681e+01 0.000000e+00 -2.385681e+01 -2.439672e+01 0.000000e+00 0.000000e+00 0.000000e+00 0.000000e+00 1.436061e+01 -1.138558e+01 0.000000e+00 -1.138558e+01 -6.351715e+01 0.000000e+00 0.000000e+00 0.000000e+00 0.000000e+00 1.525226e+01 -1.756619e+01 0.000000e+00 -1.756619e+01 -5.885749e+01 0.000000e+00 0.000000e+00 0.000000e+00 0.000000e+00 6.651503e+01 -3.248118e+01 0.000000e+00 -3.248118e+01 3.051587e+01 0.000000e+00 0.000000e+00 0.000000e+00 0.000000e+00 1.626623e+01 -3.199631e+01 0.000000e+00 -3.199631e+01 -3.200500e+01 0.000000e+00 0.000000e+00 0.000000e+00 0.000000e+00 2.635366e+01 -1.564044e+01 0.000000e+00 -1.564044e+01 -3.374464e+01 0.000000e+00 0.000000e+00 0.000000e+00 0.000000e+00 4.081333e+01 4.121027e+00 0.000000e+00 4.121027e+00 1.392357e+02 0.000000e+00 0.000000e+00 0.000000e+00 0.000000e+00 7.105121e+01 -3.444218e+01 0.000000e+00 -3.444218e+01 6.389988e+01 0.000000e+00 0.000000e+00 0.000000e+00 0.000000e+00 -1.387969e+01 -3.421771e+01 0.000000e+00 -3.421771e+01 1.569857e+01 0.000000e+00 0.000000e+00 0.000000e+00 0.000000e+00 7.403298e+01 -3.902190e+01 0.000000e+00 -3.902190e+01 9.631164e+01 0.000000e+00 0.000000e+00 0.000000e+00 0.000000e+00 7.168821e+01 -4.221677e+01 0.000000e+00 -4.221677e+01 8.703262e+01 0.000000e+00 0.000000e+00 0.000000e+00 0.000000e+00 4.261715e+01 -2.468032e+01 0.000000e+00 -2.468032e+01 -1.353831e+00 0.000000e+00 0.000000e+00 0.000000e+00 0.000000e+00 4.974384e+01 -2.816950e+01 0.000000e+00 -2.816950e+01 3.658868e+00 0.000000e+00 0.000000e+00 0.000000e+00 0.000000e+00 1.009528e+01 -1.374224e+01 0.000000e+00 -1.374224e+01 -6.602118e+01 0.000000e+00 0.000000e+00 0.000000e+00 0.000000e+00 3.416746e+01 -2.178651e+01 0.000000e+00 -2.178651e+01 -1.691772e+01 0.000000e+00 0.000000e+00 0.000000e+00 0.000000e+00 4.419947e+01 -2.214087e+01 0.000000e+00 -2.214087e+01 -1.391423e+01 0.000000e+00 0.000000e+00 0.000000e+00 0.000000e+00 3.247810e+01 3.048488e+01 0.000000e+00 3.048488e+01 9.436737e+01 0.000000e+00 0.000000e+00 0.000000e+00 0.000000e+00 4.148179e+01 -4.426140e+01 0.000000e+00 -4.426140e+01 4.897073e+01 0.000000e+00 0.000000e+00 0.000000e+00 0.000000e+00 -2.605045e+00 -3.366739e+01 0.000000e+00 -3.366739e+01 5.080527e+01 0.000000e+00 0.000000e+00 0.000000e+00 0.000000e+00 9.846885e+00 3.001143e+01 0.000000e+00 3.001143e+01 1.509601e+01 0.000000e+00 0.000000e+00 0.000000e+00 0.000000e+00 1.566681e+01 2.628908e+01 0.000000e+00 2.628908e+01 7.840481e+00 0.000000e+00 0.000000e+00 0.000000e+00 0.000000e+00 1.175605e+02 -3.989049e+01 0.000000e+00 -3.989049e+01 1.495229e+02 0.000000e+00 0.000000e+00 0.000000e+00 0.000000e+00 2.932991e+01 2.595473e+01 0.000000e+00 2.595473e+01 6.723361e+00 0.000000e+00 0.000000e+00 0.000000e+00 0.000000e+00 3.721858e+01 -2.327703e+01 0.000000e+00 -2.327703e+01 -9.384727e+00 0.000000e+00 0.000000e+00 0.000000e+00 0.000000e+00 1.052561e+01 -1.871275e+01 0.000000e+00 -1.871275e+01 -5.740764e+01 0.000000e+00 0.000000e+00 0.000000e+00 0.000000e+00 4.030666e+01 1.043230e+01 0.000000e+00 1.043230e+01 1.554074e+02 0.000000e+00 0.000000e+00 0.000000e+00 0.000000e+00 5.539780e+01 -2.073601e+01 0.000000e+00 -2.073601e+01 1.044567e+01 0.000000e+00 0.000000e+00 0.000000e+00 0.000000e+00 -9.615714e+00 2.451322e+01 0.000000e+00 2.451322e+01 5.418286e+00 0.000000e+00 0.000000e+00 0.000000e+00 0.000000e+00 7.881226e+01 -3.133802e+01 0.000000e+00 -3.133802e+01 4.199121e+01 0.000000e+00 0.000000e+00 0.000000e+00 0.000000e+00 7.583922e+01 -2.455780e+01 0.000000e+00 -2.455780e+01 3.259737e+01 0.000000e+00 0.000000e+00 0.000000e+00 0.000000e+00 -4.667940e+00 -2.522077e+01 0.000000e+00 -2.522077e+01 4.391425e+01 0.000000e+00 0.000000e+00 0.000000e+00 0.000000e+00 2.471538e+01 -2.411700e+01 0.000000e+00 -2.411700e+01 -3.424328e+01 0.000000e+00 0.000000e+00 0.000000e+00 0.000000e+00 1.652172e+01 3.045396e+01 0.000000e+00 3.045396e+01 1.681158e+01 0.000000e+00 0.000000e+00 0.000000e+00 0.000000e+00 2.249096e+01 3.053984e+01 0.000000e+00 3.053984e+01 1.503617e+01 0.000000e+00 0.000000e+00 0.000000e+00 0.000000e+00 -7.867267e+00 -3.760459e+01 0.000000e+00 -3.760459e+01 3.244007e+01 0.000000e+00 0.000000e+00 0.000000e+00 0.000000e+00 1.680855e+01 2.755831e+01 0.000000e+00 2.755831e+01 1.441521e+01 0.000000e+00 0.000000e+00 0.000000e+00 0.000000e+00 5.426701e-01 1.798014e+01 0.000000e+00 1.798014e+01 5.676505e+01 0.000000e+00 0.000000e+00 0.000000e+00 0.000000e+00 3.773657e+01 -2.251232e+01 0.000000e+00 -2.251232e+01 -2.158346e+01 0.000000e+00 0.000000e+00 0.000000e+00 0.000000e+00 2.947985e+01 3.392510e+01 0.000000e+00 3.392510e+01 2.545205e+01 0.000000e+00 0.000000e+00 0.000000e+00 0.000000e+00 2.424188e+01 3.120767e+01 0.000000e+00 3.120767e+01 3.960373e+01 0.000000e+00 0.000000e+00 0.000000e+00 0.000000e+00 -2.153636e+00 -4.129733e+01 0.000000e+00 -4.129733e+01 1.733328e+01 0.000000e+00 0.000000e+00 0.000000e+00 0.000000e+00 6.707020e+01 -3.434631e+01 0.000000e+00 -3.434631e+01 5.089340e+01 0.000000e+00 0.000000e+00 0.000000e+00 0.000000e+00 3.109077e+01 3.644202e+01 0.000000e+00 3.644202e+01 4.232410e+01 0.000000e+00 0.000000e+00 0.000000e+00 0.000000e+00 9.510781e+00 -7.965775e+00 0.000000e+00 -7.965775e+00 -1.196444e+02 0.000000e+00 0.000000e+00 0.000000e+00 0.000000e+00 1.944598e+01 -1.707634e+01 0.000000e+00 -1.707634e+01 -5.749269e+01 0.000000e+00 0.000000e+00 0.000000e+00 0.000000e+00 1.197632e+01 -1.074702e+01 0.000000e+00 -1.074702e+01 -8.319290e+01 0.000000e+00 0.000000e+00 0.000000e+00 0.000000e+00 5.813508e+00 2.186755e+01 0.000000e+00 2.186755e+01 3.536265e+01 0.000000e+00 0.000000e+00 0.000000e+00 0.000000e+00 6.265223e+01 -3.086200e+01 0.000000e+00 -3.086200e+01 2.177926e+01 0.000000e+00 0.000000e+00 0.000000e+00 0.000000e+00 5.733517e+01 -2.841350e+01 0.000000e+00 -2.841350e+01 2.393300e+01 0.000000e+00 0.000000e+00 0.000000e+00 0.000000e+00 -5.417082e+00 -6.949653e-01 0.000000e+00 -6.949653e-01 6.666963e+01 0.000000e+00 0.000000e+00 0.000000e+00 0.000000e+00 -3.213131e+00 1.026577e+01 0.000000e+00 1.026577e+01 4.540667e+01 0.000000e+00 0.000000e+00 0.000000e+00 0.000000e+00 -8.017784e+00 -8.897111e+00 0.000000e+00 -8.897111e+00 4.887749e+01 0.000000e+00 0.000000e+00 0.000000e+00 0.000000e+00 4.727826e+00 -4.789120e+00 0.000000e+00 -4.789120e+00 -1.248846e+02 0.000000e+00 0.000000e+00 0.000000e+00 0.000000e+00 3.083269e+01 -2.149047e+01 0.000000e+00 -2.149047e+01 -3.055416e+01 0.000000e+00 0.000000e+00 0.000000e+00 0.000000e+00 1.968861e+01 -3.566981e+01 0.000000e+00 -3.566981e+01 -1.882041e+01 0.000000e+00 0.000000e+00 0.000000e+00 0.000000e+00 1.090328e+02 -4.220234e+01 0.000000e+00 -4.220234e+01 1.825919e+02 0.000000e+00 0.000000e+00 0.000000e+00 0.000000e+00 4.744681e+01 -1.535695e+01 0.000000e+00 -1.535695e+01 1.585362e+02 0.000000e+00 0.000000e+00 0.000000e+00 0.000000e+00 6.941043e+01 -4.239381e+01 0.000000e+00 -4.239381e+01 6.397856e+01 0.000000e+00 0.000000e+00 0.000000e+00 0.000000e+00 5.810692e+01 -3.674752e+01 0.000000e+00 -3.674752e+01 7.837706e+01 0.000000e+00 0.000000e+00 0.000000e+00 0.000000e+00 4.837560e+01 -2.567568e+01 0.000000e+00 -2.567568e+01 6.351586e+00 0.000000e+00 0.000000e+00 0.000000e+00 0.000000e+00 4.469670e+01 -3.235617e+01 0.000000e+00 -3.235617e+01 6.028415e-01 0.000000e+00 0.000000e+00 0.000000e+00 0.000000e+00 8.826910e+01 -2.152291e+01 0.000000e+00 -2.152291e+01 1.925516e+02 0.000000e+00 0.000000e+00 0.000000e+00 0.000000e+00 2.549891e+00 -3.490699e+01 0.000000e+00 -3.490699e+01 3.454868e+01 0.000000e+00 0.000000e+00 0.000000e+00 0.000000e+00 6.780520e+01 -3.572119e+01 0.000000e+00 -3.572119e+01 4.388018e+01 0.000000e+00 0.000000e+00 0.000000e+00 0.000000e+00 1.796525e+01 -2.838644e+01 0.000000e+00 -2.838644e+01 -3.430730e+01 0.000000e+00 0.000000e+00 0.000000e+00 0.000000e+00 9.356722e+01 -3.776200e+01 0.000000e+00 -3.776200e+01 1.754513e+02 0.000000e+00 0.000000e+00 0.000000e+00 0.000000e+00 2.630342e+01 -1.900390e+01 0.000000e+00 -1.900390e+01 -4.067132e+01 0.000000e+00 0.000000e+00 0.000000e+00 0.000000e+00 2.033095e+01 -1.605646e+01 0.000000e+00 -1.605646e+01 -4.474714e+01 0.000000e+00 0.000000e+00 0.000000e+00 0.000000e+00 3.018742e+01 -1.701423e+01 0.000000e+00 -1.701423e+01 -3.792930e+01 0.000000e+00 0.000000e+00 0.000000e+00 0.000000e+00 7.982973e+00 -4.532003e+01 0.000000e+00 -4.532003e+01 1.166777e+01 0.000000e+00 0.000000e+00 0.000000e+00 0.000000e+00 7.020795e+01 -3.196968e+01 0.000000e+00 -3.196968e+01 3.944564e+01 0.000000e+00 0.000000e+00 0.000000e+00 0.000000e+00 6.746337e+01 -2.940553e+01 0.000000e+00 -2.940553e+01 3.225981e+01 0.000000e+00 0.000000e+00 0.000000e+00 0.000000e+00 4.133203e+01 -2.845606e+01 0.000000e+00 -2.845606e+01 -1.098422e+01 0.000000e+00 0.000000e+00 0.000000e+00 0.000000e+00 3.013121e+01 -2.628997e+01 0.000000e+00 -2.628997e+01 -1.500208e+01 0.000000e+00 0.000000e+00 0.000000e+00 0.000000e+00 3.593146e+01 3.865612e+01 0.000000e+00 3.865612e+01 6.220578e+01 0.000000e+00 0.000000e+00 0.000000e+00 0.000000e+00 9.051386e+01 -4.546308e+01 0.000000e+00 -4.546308e+01 1.422919e+02 0.000000e+00 0.000000e+00 0.000000e+00 0.000000e+00 6.042867e+01 -3.760247e+01 0.000000e+00 -3.760247e+01 4.143626e+01 0.000000e+00 0.000000e+00 0.000000e+00 0.000000e+00 7.272806e+01 -3.571777e+01 0.000000e+00 -3.571777e+01 1.238998e+02 0.000000e+00 0.000000e+00 0.000000e+00 0.000000e+00 6.850241e+01 -3.905305e+01 0.000000e+00 -3.905305e+01 1.121083e+02 0.000000e+00 0.000000e+00 0.000000e+00 0.000000e+00 8.096728e+01 -2.973234e+01 0.000000e+00 -2.973234e+01 1.448765e+02 0.000000e+00 0.000000e+00 0.000000e+00 0.000000e+00 4.255756e+00 -2.629850e+01 0.000000e+00 -2.629850e+01 7.452285e+01 0.000000e+00 0.000000e+00 0.000000e+00 0.000000e+00 3.030216e+01 1.437158e+01 0.000000e+00 1.437158e+01 1.225025e+02 0.000000e+00 0.000000e+00 0.000000e+00 0.000000e+00 9.887483e+00 -4.239735e+01 0.000000e+00 -4.239735e+01 -4.640240e-01 0.000000e+00 0.000000e+00 0.000000e+00 0.000000e+00 1.571487e+01 -3.754448e+01 0.000000e+00 -3.754448e+01 -1.649635e+01 0.000000e+00 0.000000e+00 0.000000e+00 0.000000e+00 1.954633e+01 -4.088241e+01 0.000000e+00 -4.088241e+01 -1.962590e+00 0.000000e+00 0.000000e+00 0.000000e+00 0.000000e+00 2.268367e+01 -3.370244e+01 0.000000e+00 -3.370244e+01 -1.752795e+01 0.000000e+00 0.000000e+00 0.000000e+00 0.000000e+00 1.687926e+01 2.865515e+01 0.000000e+00 2.865515e+01 6.149227e+01 0.000000e+00 0.000000e+00 0.000000e+00 0.000000e+00 1.146781e+01 2.254222e+01 0.000000e+00 2.254222e+01 5.598626e+01 0.000000e+00 0.000000e+00 0.000000e+00 0.000000e+00 2.154872e+01 2.791268e+01 0.000000e+00 2.791268e+01 8.325301e+01 0.000000e+00 0.000000e+00 0.000000e+00 0.000000e+00 6.818363e+00 1.322025e+01 0.000000e+00 1.322025e+01 7.768814e+01 0.000000e+00 0.000000e+00 0.000000e+00 0.000000e+00 5.540208e+01 -2.646236e+01 0.000000e+00 -2.646236e+01 1.448458e+01 0.000000e+00 0.000000e+00 0.000000e+00 0.000000e+00 5.652599e+01 -3.846099e+01 0.000000e+00 -3.846099e+01 5.774243e+01 0.000000e+00 0.000000e+00 0.000000e+00 0.000000e+00 3.889798e+01 -3.482465e+01 0.000000e+00 -3.482465e+01 7.307385e+01 0.000000e+00 0.000000e+00 0.000000e+00 0.000000e+00 5.613953e+01 -3.684148e+01 0.000000e+00 -3.684148e+01 1.083132e+02 0.000000e+00 0.000000e+00 0.000000e+00 0.000000e+00 3.471841e+01 -2.833602e+01 0.000000e+00 -2.833602e+01 -5.281888e+00 0.000000e+00 0.000000e+00 0.000000e+00 0.000000e+00 2.185709e+01 -2.280043e+01 0.000000e+00 -2.280043e+01 -4.575944e+01 0.000000e+00 0.000000e+00 0.000000e+00 0.000000e+00 5.762757e+01 -2.957004e+01 0.000000e+00 -2.957004e+01 1.223363e+01 0.000000e+00 0.000000e+00 0.000000e+00 0.000000e+00 6.897819e+01 -3.038116e+01 0.000000e+00 -3.038116e+01 1.723777e+02 0.000000e+00 0.000000e+00 0.000000e+00 0.000000e+00 2.824838e+00 -1.779038e+01 0.000000e+00 -1.779038e+01 6.148776e+01 0.000000e+00 0.000000e+00 0.000000e+00 0.000000e+00 2.393238e+01 -2.764799e+01 0.000000e+00 -2.764799e+01 -3.235361e+01 0.000000e+00 0.000000e+00 0.000000e+00 0.000000e+00 4.872100e+01 -3.514660e+01 0.000000e+00 -3.514660e+01 1.187035e+01 0.000000e+00 0.000000e+00 0.000000e+00 0.000000e+00 3.151554e+01 -1.556091e+01 0.000000e+00 -1.556091e+01 -3.747229e+01 0.000000e+00 0.000000e+00 0.000000e+00 0.000000e+00 3.897937e+01 -3.038138e+01 0.000000e+00 -3.038138e+01 4.213840e+00 0.000000e+00 0.000000e+00 0.000000e+00 0.000000e+00 8.453821e+00 -4.146254e+00 0.000000e+00 -4.146254e+00 -1.512751e+02 0.000000e+00 0.000000e+00 0.000000e+00 0.000000e+00 -5.737742e-01 -3.904949e+01 0.000000e+00 -3.904949e+01 2.289310e+01 0.000000e+00 0.000000e+00 0.000000e+00 0.000000e+00 1.512063e+01 -1.818931e+01 0.000000e+00 -1.818931e+01 -4.989905e+01 0.000000e+00 0.000000e+00 0.000000e+00 0.000000e+00 1.024632e+01 -3.452348e+01 0.000000e+00 -3.452348e+01 5.058086e+01 0.000000e+00 0.000000e+00 0.000000e+00 0.000000e+00 7.238799e+00 -3.585111e+01 0.000000e+00 -3.585111e+01 5.193477e+01 0.000000e+00 0.000000e+00 0.000000e+00 0.000000e+00 5.309419e+01 -3.315433e+01 0.000000e+00 -3.315433e+01 3.240896e+01 0.000000e+00 0.000000e+00 0.000000e+00 0.000000e+00 5.387192e+01 -3.092853e+01 0.000000e+00 -3.092853e+01 1.396018e+02 0.000000e+00 0.000000e+00 0.000000e+00 0.000000e+00 1.716348e+01 2.802238e+01 0.000000e+00 2.802238e+01 2.415784e+01 0.000000e+00 0.000000e+00 0.000000e+00 0.000000e+00 3.133284e+00 -8.424299e+00 0.000000e+00 -8.424299e+00 8.638027e+01 0.000000e+00 0.000000e+00 0.000000e+00 0.000000e+00 7.576513e+00 -4.145811e+01 0.000000e+00 -4.145811e+01 1.442533e+01 0.000000e+00 0.000000e+00 0.000000e+00 0.000000e+00 1.477945e+01 -4.354816e+01 0.000000e+00 -4.354816e+01 1.448382e+00 0.000000e+00 0.000000e+00 0.000000e+00 0.000000e+00 3.541154e+01 -1.059938e+01 0.000000e+00 -1.059938e+01 1.221513e+02 0.000000e+00 0.000000e+00 0.000000e+00 0.000000e+00 3.050802e+01 -7.072102e+00 0.000000e+00 -7.072102e+00 1.352788e+02 0.000000e+00 0.000000e+00 0.000000e+00 0.000000e+00 1.717986e+01 -4.421651e+01 0.000000e+00 -4.421651e+01 1.411406e+01 0.000000e+00 0.000000e+00 0.000000e+00 0.000000e+00 2.384586e+01 -4.025829e+01 0.000000e+00 -4.025829e+01 -6.993613e-01 0.000000e+00 0.000000e+00 0.000000e+00 0.000000e+00 1.884127e+01 -2.429060e+01 0.000000e+00 -2.429060e+01 -4.772419e+01 0.000000e+00 0.000000e+00 0.000000e+00 0.000000e+00 5.562730e+01 -4.055176e+01 0.000000e+00 -4.055176e+01 5.000951e+01 0.000000e+00 0.000000e+00 0.000000e+00 0.000000e+00 1.287620e+01 -1.816405e+01 0.000000e+00 -1.816405e+01 9.501720e+01 0.000000e+00 0.000000e+00 0.000000e+00 0.000000e+00 4.662863e+01 -3.146409e+01 0.000000e+00 -3.146409e+01 1.428722e+01 0.000000e+00 0.000000e+00 0.000000e+00 0.000000e+00 2.343705e+01 -2.175283e+01 0.000000e+00 -2.175283e+01 -4.541645e+01 0.000000e+00 0.000000e+00 0.000000e+00 0.000000e+00 3.409541e+01 -2.999607e+01 0.000000e+00 -2.999607e+01 -1.949080e+01 0.000000e+00 0.000000e+00 0.000000e+00 0.000000e+00 5.641285e+01 -4.323042e+01 0.000000e+00 -4.323042e+01 7.592293e+01 0.000000e+00 0.000000e+00 0.000000e+00 0.000000e+00 4.436421e+01 -4.064163e+01 0.000000e+00 -4.064163e+01 2.178862e+01 0.000000e+00 0.000000e+00 0.000000e+00 0.000000e+00 2.619390e+01 -2.948563e+01 0.000000e+00 -2.948563e+01 -1.189544e+01 0.000000e+00 0.000000e+00 0.000000e+00 0.000000e+00 2.732669e+01 -3.757072e+01 0.000000e+00 -3.757072e+01 -6.094444e+00 0.000000e+00 0.000000e+00 0.000000e+00 0.000000e+00 3.797963e+01 -3.446693e+01 0.000000e+00 -3.446693e+01 -4.661448e+00 0.000000e+00 0.000000e+00 0.000000e+00 0.000000e+00 5.118134e+01 -4.177890e+01 0.000000e+00 -4.177890e+01 3.598507e+01 0.000000e+00 0.000000e+00 0.000000e+00 0.000000e+00 4.474632e+01 -3.613354e+01 0.000000e+00 -3.613354e+01 4.333106e+01 0.000000e+00 0.000000e+00 0.000000e+00 0.000000e+00 4.487237e+01 -2.874970e+01 0.000000e+00 -2.874970e+01 1.105509e+02 0.000000e+00 0.000000e+00 0.000000e+00 0.000000e+00 3.626919e+01 -2.351077e+01 0.000000e+00 -2.351077e+01 1.302610e+02 0.000000e+00 0.000000e+00 0.000000e+00 0.000000e+00 2.463635e+01 9.945426e+00 0.000000e+00 9.945426e+00 1.050340e+02 0.000000e+00 0.000000e+00 0.000000e+00 0.000000e+00 3.207948e+00 5.540413e+00 0.000000e+00 5.540413e+00 6.399654e+01 0.000000e+00 0.000000e+00 0.000000e+00 0.000000e+00 5.263187e+01 -3.914007e+01 0.000000e+00 -3.914007e+01 9.664639e+01 0.000000e+00 0.000000e+00 0.000000e+00 0.000000e+00 4.361373e+01 -3.519803e+01 0.000000e+00 -3.519803e+01 9.071437e+01 0.000000e+00 0.000000e+00 0.000000e+00 0.000000e+00 3.787031e+01 -3.062477e+01 0.000000e+00 -3.062477e+01 1.118651e+02 0.000000e+00 0.000000e+00 0.000000e+00 0.000000e+00 5.829220e+00 -4.381163e+01 0.000000e+00 -4.381163e+01 3.416334e+01 0.000000e+00 0.000000e+00 0.000000e+00 0.000000e+00 4.147553e+01 -3.788383e+01 0.000000e+00 -3.788383e+01 6.842718e+00 0.000000e+00 0.000000e+00 0.000000e+00 0.000000e+00 3.099970e+01 -3.379435e+01 0.000000e+00 -3.379435e+01 9.003035e-01 0.000000e+00 0.000000e+00 0.000000e+00 0.000000e+00 3.380347e+01 -3.517858e+01 0.000000e+00 -3.517858e+01 1.249040e+01 0.000000e+00 0.000000e+00 0.000000e+00 0.000000e+00 3.036650e+01 2.783202e+01 0.000000e+00 2.783202e+01 1.142076e+02 0.000000e+00 0.000000e+00 0.000000e+00 0.000000e+00 2.027401e+01 5.087429e+00 0.000000e+00 5.087429e+00 1.166837e+02 0.000000e+00 0.000000e+00 0.000000e+00 0.000000e+00 7.303547e+00 -3.911098e+01 0.000000e+00 -3.911098e+01 2.884739e+01 0.000000e+00 0.000000e+00 0.000000e+00 0.000000e+00 1.481851e+01 -4.609546e+01 0.000000e+00 -4.609546e+01 2.239706e+01 0.000000e+00 0.000000e+00 0.000000e+00 0.000000e+00 3.443573e+01 -4.302558e+01 0.000000e+00 -4.302558e+01 1.394849e+01 0.000000e+00 0.000000e+00 0.000000e+00 0.000000e+00 1.384034e+01 -1.656577e+01 0.000000e+00 -1.656577e+01 8.935060e+01 0.000000e+00 0.000000e+00 0.000000e+00 0.000000e+00 1.829781e+01 2.197726e+01 0.000000e+00 2.197726e+01 7.652117e+01 0.000000e+00 0.000000e+00 0.000000e+00 0.000000e+00 2.341236e+01 -2.886326e+01 0.000000e+00 -2.886326e+01 -2.283880e+01 0.000000e+00 0.000000e+00 0.000000e+00 0.000000e+00 1.397484e+01 3.152375e+01 0.000000e+00 3.152375e+01 3.923249e+01 0.000000e+00 0.000000e+00 0.000000e+00 0.000000e+00 4.640807e+01 -4.241064e+01 0.000000e+00 -4.241064e+01 6.427836e+01 0.000000e+00 0.000000e+00 0.000000e+00 0.000000e+00 4.477643e+01 -3.709995e+01 0.000000e+00 -3.709995e+01 6.477215e+01 0.000000e+00 0.000000e+00 0.000000e+00 0.000000e+00 1.679436e+01 -4.482005e+01 0.000000e+00 -4.482005e+01 3.968248e+01 0.000000e+00 0.000000e+00 0.000000e+00 0.000000e+00 1.901753e+01 -2.463614e+00 0.000000e+00 -2.463614e+00 1.007881e+02 0.000000e+00 0.000000e+00 0.000000e+00 0.000000e+00 1.606356e+01 -4.023484e+01 0.000000e+00 -4.023484e+01 1.499119e+01 0.000000e+00 0.000000e+00 0.000000e+00 0.000000e+00 4.027669e+01 -3.598613e+01 0.000000e+00 -3.598613e+01 2.590368e+01 0.000000e+00 0.000000e+00 0.000000e+00 0.000000e+00 6.005611e+01 -3.602444e+01 0.000000e+00 -3.602444e+01 2.540005e+01 0.000000e+00 0.000000e+00 0.000000e+00 0.000000e+00 5.359649e+01 -2.214355e+01 0.000000e+00 -2.214355e+01 1.313220e+02 0.000000e+00 0.000000e+00 0.000000e+00 0.000000e+00 2.121292e+01 -1.599789e+01 0.000000e+00 -1.599789e+01 1.143479e+02 0.000000e+00 0.000000e+00 0.000000e+00 0.000000e+00 2.032467e+01 -3.077310e+01 0.000000e+00 -3.077310e+01 6.730175e+01 0.000000e+00 0.000000e+00 0.000000e+00 0.000000e+00 3.253124e+01 -3.683266e+01 0.000000e+00 -3.683266e+01 -4.480723e+00 0.000000e+00 0.000000e+00 0.000000e+00 0.000000e+00 5.114555e+01 -3.461321e+01 0.000000e+00 -3.461321e+01 2.231133e+01 0.000000e+00 0.000000e+00 0.000000e+00 0.000000e+00 1.763588e+01 -3.823872e+01 0.000000e+00 -3.823872e+01 3.370663e+01 0.000000e+00 0.000000e+00 0.000000e+00 0.000000e+00 1.675853e+01 -3.539889e+01 0.000000e+00 -3.539889e+01 7.338623e+01 0.000000e+00 0.000000e+00 0.000000e+00 0.000000e+00 2.571320e+01 -4.670607e+01 0.000000e+00 -4.670607e+01 3.067773e+01 0.000000e+00 0.000000e+00 0.000000e+00 0.000000e+00 2.844815e+01 -3.105807e+01 0.000000e+00 -3.105807e+01 9.485419e+01 0.000000e+00 0.000000e+00 0.000000e+00 0.000000e+00 2.752297e+01 -4.488902e+01 0.000000e+00 -4.488902e+01 5.119246e+01 0.000000e+00 0.000000e+00 0.000000e+00 0.000000e+00 2.089525e+01 -2.069357e+01 0.000000e+00 -2.069357e+01 -3.862263e+01 0.000000e+00 0.000000e+00 0.000000e+00 0.000000e+00 2.428284e+01 -3.896115e+01 0.000000e+00 -3.896115e+01 8.055857e+00 0.000000e+00 0.000000e+00 0.000000e+00 0.000000e+00 1.369590e+01 7.898263e+00 0.000000e+00 7.898263e+00 9.895170e+01 0.000000e+00 0.000000e+00 0.000000e+00 0.000000e+00   </DataArray>
  <DataArray type="Float64" Name="IST_PrincipalStressTensor" NumberOfComponents="3" format="ascii">-2.131628e-14 -1.699948e+01 -1.385922e+02 1.421085e-14 -5.526152e+00 -1.235934e+02 5.880604e-01 3.410605e-13 -1.101838e+02 4.616585e+00 -7.105427e-15 -9.751075e+01 8.417152e+00 -3.552714e-15 -8.590021e+01 1.238047e+01 -1.065814e-14 -7.457833e+01 1.679529e+01 -5.329071e-15 -6.426357e+01 2.154721e+01 -3.552714e-15 -5.444092e+01 2.679190e+01 -3.552714e-15 -4.507573e+01 3.245142e+01 -1.776357e-15 -3.607526e+01 3.846904e+01 -1.021405e-14 -2.685590e+01 4.516153e+01 -1.776357e-15 -1.819298e+01 5.239217e+01 -1.776357e-15 -9.584451e+00 6.009560e+01 -2.309264e-13 -2.054954e-01 6.868736e+01 9.060863e+00 0.000000e+00 7.789741e+01 1.959812e+01 0.000000e+00 8.817100e+01 3.092637e+01 0.000000e+00 1.001049e+02 4.256489e+01 -7.105427e-15 1.135148e+02 5.719061e+01 -7.105427e-15 1.297041e+02 7.326158e+01 1.421085e-14 1.501713e+02 9.265589e+01 0.000000e+00 1.783337e+02 1.186502e+02 1.421085e-14 2.231949e+02 1.536521e+02 1.421085e-14 3.190054e+02 2.105008e+02 0.000000e+00 5.949945e+02 3.238245e+02 -5.684342e-14 5.046401e+01 1.575550e+00 7.105427e-15 4.431155e+01 1.421085e-14 -9.267063e-01 3.451119e+01 -1.421085e-14 -9.129317e-01 1.914138e+01 -3.552714e-15 -7.039896e-01 2.335863e+01 5.611529e-01 -5.329071e-15 4.297710e+01 1.395604e+00 -1.065814e-14 4.631386e+01 2.692192e+00 0.000000e+00 1.299079e+01 -2.664535e-15 -1.343788e+00 3.731965e+00 -6.661338e-16 -8.996729e+00 1.286160e+00 4.440892e-16 -7.800653e+00 3.985530e-09 -3.985713e-09 -1.389818e+00 1.432448e-02 6.883383e-15 -3.030120e+00 8.313653e-01 4.440892e-16 -4.343128e+00 1.564957e+00 -2.775558e-17 -1.146968e+00 4.345351e+00 -4.440892e-16 -6.121311e-01 2.684428e+00 -2.220446e-16 -4.805377e-01 1.135908e+00 -1.110223e-16 -2.073717e-01 1.049322e+00 -5.551115e-17 -6.007111e-01 1.119949e+00 -5.551115e-17 -6.657928e-01 2.246455e+00 -1.110223e-16 -6.009728e-02 3.313141e+00 -2.220446e-16 -1.295253e+00 7.120249e-01 4.440892e-16 -5.926619e+00 7.212754e-01 -1.421085e-14 -2.945644e+01 2.063093e+00 7.105427e-15 -6.086009e+01 4.841170e+00 0.000000e+00 -8.298213e+01 7.274375e+00 3.552714e-15 -6.437420e+01 5.514955e+00 -1.776357e-15 -3.369290e+01 1.574902e-01 5.773160e-15 -8.950748e+00 1.573384e+00 -1.776357e-15 -2.685841e+01 2.161516e-01 -2.664535e-15 -8.487211e+00 3.418244e+00 3.552714e-15 -3.088168e+01 3.912639e+00 3.608225e-16 -4.639408e+00 4.792170e+00 -1.332268e-15 -3.203837e+00 5.484478e+00 0.000000e+00 -1.504042e+00 5.751731e+00 2.390586e-01 -1.332268e-15 5.392443e+00 1.422455e+00 -4.440892e-16 7.405247e+00 -3.996803e-15 -1.751008e-01 1.120568e+01 0.000000e+00 -2.905513e+00 1.665267e+01 -3.996803e-15 -8.206108e+00 2.271169e+01 1.332268e-15 -1.312021e+01 3.098154e+01 -5.329071e-15 -1.576732e+01 3.446773e+01 -7.993606e-15 -1.811370e+01 3.518877e+01 -1.776357e-15 -1.972677e+01 3.353404e+01 -5.329071e-15 -2.045689e+01 2.994447e+01 -5.329071e-15 -2.161303e+01 2.634183e+01 7.771561e-16 -2.412854e+01 2.453185e+01 2.220446e-15 -2.840658e+01 2.430563e+01 0.000000e+00 -3.298979e+01 2.307489e+01 2.664535e-15 -3.524657e+01 2.053539e+01 -1.776357e-15 -3.388973e+01 1.696948e+01 0.000000e+00 -2.987441e+01 1.320405e+01 -4.440892e-15 -2.565694e+01 8.730058e+00 1.776357e-15 -2.092968e+01 4.314249e+00 -8.881784e-16 -1.582012e+01 5.768776e-01 4.440892e-16 -1.150601e+01 0.000000e+00 -2.391472e+00 -6.931298e+00 -1.332268e-15 -1.730013e+00 -5.595013e+00 7.199533e-01 2.220446e-16 -5.692737e+00 2.569099e+00 -3.330669e-16 -5.526264e+00 5.867028e-01 -5.551115e-17 -1.296844e+00 1.421085e-14 -2.872143e+01 -1.420069e+02 0.000000e+00 -1.008254e+01 -1.312763e+02 -4.973799e-14 -7.727491e+00 -1.322727e+02 -6.394885e-14 -4.557513e+00 -1.260849e+02 -7.105427e-14 -2.030180e+00 -1.167915e+02 1.006106e-02 4.760636e-13 -1.130273e+02 2.657092e+00 -5.684342e-14 -1.035664e+02 6.458038e+00 1.421085e-14 -9.150881e+01 1.033228e+01 -1.065814e-14 -8.011152e+01 9.067997e+00 -2.131628e-14 -8.289780e+01 1.147388e+01 -1.065814e-14 -7.726524e+01 1.449496e+01 -1.065814e-14 -6.916810e+01 1.921336e+01 -5.329071e-15 -5.957859e+01 2.406730e+01 -1.776357e-15 -4.957578e+01 2.951566e+01 -6.661338e-15 -4.041063e+01 2.783134e+01 -7.105427e-15 -4.264141e+01 3.076862e+01 -2.220446e-15 -3.813108e+01 3.544614e+01 -1.776357e-15 -3.159523e+01 4.171776e+01 -5.329071e-15 -2.241310e+01 4.870811e+01 -5.329071e-15 -1.393024e+01 4.655755e+01 0.000000e+00 -1.600822e+01 5.001115e+01 5.329071e-15 -1.167798e+01 5.622617e+01 -1.421085e-14 -5.117695e+00 6.422993e+01 4.577837e+00 7.105427e-15 7.323977e+01 1.403873e+01 0.000000e+00 7.025493e+01 1.161085e+01 0.000000e+00 7.492391e+01 1.679481e+01 3.552714e-15 8.285813e+01 2.525894e+01 0.000000e+00 8.463664e+01 2.798871e+01 0.000000e+00 9.400870e+01 3.639798e+01 0.000000e+00 1.064440e+02 4.980230e+01 -7.105427e-15 1.214221e+02 6.459870e+01 0.000000e+00 1.161287e+02 6.098737e+01 0.000000e+00 1.223487e+02 6.861768e+01 7.105427e-15 1.393095e+02 8.236752e+01 0.000000e+00 1.630855e+02 1.041049e+02 0.000000e+00 1.976590e+02 1.349123e+02 0.000000e+00 2.602189e+02 1.783475e+02 0.000000e+00 2.128950e+02 1.628152e+02 2.842171e-14 2.353826e+02 1.854136e+02 0.000000e+00 4.197501e+02 2.569103e+02 0.000000e+00 7.902754e+01 2.486900e-13 -3.675784e-01 4.721543e+01 5.329071e-15 -2.816478e+00 4.758308e+01 1.953993e-14 -4.489629e-01 3.989361e+01 -4.618528e-14 -7.598069e-01 2.786525e+01 1.776357e-15 -1.419533e+00 2.803958e+01 -1.776357e-15 -3.048034e+00 3.397641e+01 2.348489e+00 8.881784e-15 3.335748e+01 8.910572e-01 3.019807e-14 2.570234e+01 -1.243450e-14 -5.569525e-01 5.740736e+00 8.881784e-16 -3.425623e+00 5.021502e-01 -3.330669e-16 -3.292968e+00 -8.881784e-16 -6.240121e-01 -5.058839e+00 2.126459e+00 -1.776357e-15 -1.056927e+01 5.335304e-01 0.000000e+00 -3.855073e+00 3.379526e-01 -4.440892e-16 -2.813291e+00 7.226625e-01 -4.440892e-16 -4.517940e+00 3.999259e-02 -5.107026e-15 -3.392118e+00 8.617867e-01 -4.440892e-16 -2.765987e+00 3.016615e+00 -2.220446e-16 -7.238154e-01 4.014932e+00 1.332268e-15 -4.450380e-01 1.632205e+00 1.776357e-15 -2.935014e+01 9.553222e-01 1.776357e-14 -4.515520e+01 1.190752e+00 0.000000e+00 -1.776994e-01 7.117574e-01 -5.551115e-17 -2.783807e-01 2.286282e+00 -2.341877e-16 -2.253897e+00 1.212184e+00 0.000000e+00 -4.446718e+00 3.008194e-01 -8.881784e-16 -1.537924e+01 6.718353e-01 -1.776357e-14 -4.086393e+01 3.224704e+00 2.486900e-14 -7.464999e+01 -3.126388e-13 -1.450137e-01 -5.338324e+01 6.392419e+00 -1.421085e-14 -8.041301e+01 4.618528e-14 -2.349408e-01 -4.016670e+01 4.441574e+00 -8.881784e-16 -2.617089e+00 3.075404e+00 -3.885781e-16 -4.029667e+00 5.566416e+00 4.440892e-16 -1.278674e+00 6.546519e+00 4.440892e-16 -2.299687e-01 8.139700e+00 1.059203e+00 4.440892e-16 9.757936e+00 1.975539e+00 0.000000e+00 1.259664e+01 9.205507e-01 -2.664535e-15 1.918210e+01 8.881784e-16 -1.889517e+00 2.521313e+01 -1.776357e-15 -6.058728e+00 3.357627e+01 -3.552714e-15 -9.316189e+00 3.614585e+01 -3.552714e-15 -1.343891e+01 3.607377e+01 -8.881784e-16 -1.639495e+01 3.458947e+01 -4.440892e-15 -1.946450e+01 3.240747e+01 -3.552714e-15 -2.169790e+01 2.999575e+01 2.442491e-15 -2.405271e+01 2.784351e+01 -5.828671e-15 -2.737011e+01 2.573834e+01 -1.776357e-15 -3.191699e+01 2.268759e+01 -7.105427e-15 -3.603582e+01 1.855758e+01 -4.440892e-15 -3.798362e+01 1.397365e+01 -1.776357e-15 -3.636066e+01 9.702608e+00 1.776357e-15 -3.238830e+01 5.888794e+00 -1.776357e-15 -2.814811e+01 2.061269e+00 -1.776357e-15 -2.290926e+01 -5.329071e-15 -9.534610e-01 -1.718639e+01 -8.881784e-16 -3.104940e+00 -1.161764e+01 0.000000e+00 -3.773815e+00 -6.498731e+00 4.440892e-16 -1.739503e+00 -4.948430e+00 1.036547e+00 -4.440892e-16 -4.746610e+00 9.255603e+01 1.244675e+01 7.105427e-15 -2.131628e-14 -2.238190e+00 -1.195083e+02 1.959021e+00 -2.131628e-14 -1.066155e+02 5.643878e+00 -1.776357e-14 -9.430422e+01 1.568876e+01 -3.552714e-15 -6.669119e+01 1.360523e+01 -1.065814e-14 -7.183363e+01 1.788820e+01 1.776357e-15 -6.187237e+01 2.259414e+01 -5.329071e-15 -5.198002e+01 3.662874e+01 -3.996803e-15 -2.899940e+01 3.353627e+01 -4.524159e-15 -3.366215e+01 3.998435e+01 -1.776357e-15 -2.449426e+01 5.777196e+01 -1.065814e-14 -2.528308e+00 5.389911e+01 -5.329071e-15 -7.183330e+00 6.193286e+01 2.312712e+00 -2.131628e-14 7.958830e+01 2.232431e+01 0.000000e+00 9.010304e+01 3.359534e+01 0.000000e+00 1.029216e+02 4.622055e+01 -7.105427e-15 1.415317e+02 8.725951e+01 1.421085e-14 1.317262e+02 7.756776e+01 -1.421085e-14 1.524253e+02 9.808279e+01 0.000000e+00 1.803211e+02 1.264939e+02 0.000000e+00 3.317572e+02 2.130579e+02 0.000000e+00 2.674393e+02 2.057742e+02 0.000000e+00 6.284605e+01 5.329071e-14 -4.840731e-01 4.577553e+01 -1.953993e-13 -8.840502e-02 3.424815e+01 -8.881784e-15 -4.695611e-01 2.744866e+01 -1.776357e-15 -2.348889e+00 1.026542e+01 -8.881784e-16 -2.352572e+00 -8.881784e-16 -1.318494e+00 -5.188622e+00 1.876145e-01 -4.440892e-16 -3.655664e+00 1.718519e-01 -6.661338e-16 -3.055339e+00 1.246490e+00 -3.608225e-16 -1.538180e+00 1.335935e+00 -2.220446e-16 -4.845924e-02 1.445653e+00 -1.776357e-15 -1.082586e+01 -9.237056e-14 -2.882725e-01 -5.024559e+01 -3.907985e-14 -1.040441e+00 -5.848820e+01 4.190313e+00 -1.065814e-14 -3.683663e+01 2.524993e+01 -5.329071e-15 -4.723287e+01 1.935844e+02 1.426101e+02 -1.421085e-14 3.953530e+01 -1.776357e-15 -2.074101e-01 2.898797e+01 -8.881784e-15 -1.076082e+00 1.116918e+00 -5.551115e-17 -3.362945e-01 7.365812e+00 -1.421085e-14 -8.854829e+01 4.000557e+00 -3.552714e-14 -1.002944e+02 2.020209e+01 -7.105427e-15 -5.691657e+01 4.325035e+01 -1.243450e-14 -2.023299e+01 6.593188e+01 6.926616e+00 -3.552714e-15 1.096695e+02 5.368939e+01 0.000000e+00 9.624400e+01 3.948100e+01 7.105427e-15 1.661203e+02 1.114557e+02 0.000000e+00 5.360827e+01 4.283925e-02 -1.350031e-13 1.970252e+01 1.776357e-15 -1.693168e+00 1.433098e+00 2.220446e-16 -2.014257e-01 8.343763e-01 -1.665335e-16 -2.295115e+00 1.571340e+00 1.776357e-15 -1.905917e+01 -3.552714e-15 -1.373828e+00 -5.715193e+01 2.295719e+00 -5.684342e-14 -1.073623e+02 5.648508e+00 -7.105427e-15 -9.484312e+01 2.052040e+01 3.552714e-15 -5.718499e+01 1.575546e+01 3.552714e-15 -6.701208e+01 3.877514e+00 -4.263256e-14 -1.012139e+02 5.467370e+00 -2.486900e-14 -9.759745e+01 1.810999e+01 -1.243450e-14 -6.185897e+01 1.689134e+01 -5.329071e-15 -6.428732e+01 1.830466e+01 5.329071e-15 -5.948556e+01 1.340027e+01 -7.105427e-15 -7.191577e+01 1.542430e+01 -1.421085e-14 -6.926252e+01 4.378641e+01 1.776357e-15 -2.078235e+01 3.707319e+01 -1.776357e-15 -2.970523e+01 2.148907e+02 1.353545e+02 0.000000e+00 4.017813e+01 -4.440892e-15 -2.503734e+01 3.867363e+01 0.000000e+00 -2.708219e+01 4.165390e+01 3.552714e-15 -2.263728e+01 3.419966e+01 -7.709111e-15 -3.416637e+01 3.451668e+01 -8.215650e-15 -3.177369e+01 5.839975e+01 -3.552714e-15 -3.214333e+00 6.678883e+01 6.141460e+00 0.000000e+00 6.251792e+01 1.350852e+00 5.329071e-14 5.991765e+01 4.263256e-14 -6.285090e-01 6.457222e+01 4.112605e+00 -7.105427e-15 5.449145e+01 -1.776357e-15 -8.029475e+00 5.500074e+01 -1.421085e-14 -5.433621e+00 8.151303e+01 2.185029e+01 0.000000e+00 1.101071e+02 5.240547e+01 -7.105427e-15 9.242368e+01 3.298292e+01 -7.105427e-15 1.040220e+02 4.532581e+01 7.105427e-15 1.066984e+02 4.927392e+01 0.000000e+00 1.726022e+02 1.062287e+02 1.421085e-14 1.478762e+02 8.471396e+01 1.421085e-14 9.799523e+01 3.883236e+01 -7.105427e-15 9.210778e+01 3.569826e+01 0.000000e+00 9.802145e+01 4.203073e+01 7.105427e-15 1.600904e+02 9.507961e+01 0.000000e+00 1.437698e+02 8.949177e+01 -1.421085e-14 1.557874e+02 1.003484e+02 0.000000e+00 1.374542e+02 7.542506e+01 1.421085e-14 1.327856e+02 7.967402e+01 0.000000e+00 1.915580e+02 1.211704e+02 -2.842171e-14 1.711428e+02 1.138115e+02 0.000000e+00 1.800607e+02 1.246164e+02 0.000000e+00 5.448974e+01 1.776357e-14 -9.684369e-01 3.652433e+02 2.099995e+02 0.000000e+00 4.145911e+01 0.000000e+00 -2.431277e+00 6.584552e+01 1.264692e+00 -7.105427e-15 6.252580e+01 2.842171e-14 -1.655914e+00 8.415686e+01 4.908640e+00 -2.486900e-14 7.486839e+01 -7.105427e-15 -1.783697e+00 3.272867e+02 1.931626e+02 -2.842171e-14 3.041087e+02 1.565041e+02 5.684342e-14 4.747048e+01 3.552714e-15 -1.692333e+00 4.483188e+01 7.105427e-15 -2.147563e+00 9.777050e+01 -3.552714e-15 -3.562185e+01 2.360171e+01 -3.552714e-15 -6.129471e+00 3.222202e+01 3.552714e-15 -3.753129e+00 3.058164e+01 -1.776357e-15 -3.318773e+00 2.856846e+01 -1.776357e-15 -3.676254e+00 8.982476e-01 -1.665335e-16 -1.219208e+00 3.428808e+01 -8.881784e-15 -3.234612e+00 1.679753e+01 -2.664535e-15 -6.562121e+00 1.325675e+00 -3.330669e-16 -2.184365e+00 2.302313e+00 2.775558e-17 -2.820640e+00 3.174831e+00 1.110223e-16 -4.014010e+00 2.292149e+00 -8.881784e-16 -3.942185e+00 6.980608e-01 -1.110223e-16 -2.610262e+00 9.947598e-14 -2.391641e+00 -1.213691e+02 1.943110e+00 -3.885781e-16 -2.641281e+00 2.453695e+00 -9.575674e-16 -2.669246e+00 1.179746e+00 -3.330669e-16 -2.776213e+00 1.056666e+00 -3.330669e-16 -3.160426e+00 3.799943e+00 1.776357e-15 -2.786776e+01 1.005183e+00 -6.938894e-17 -1.229924e+00 4.446508e-02 2.775558e-16 -1.278764e+00 -1.110223e-16 -7.087482e-01 -1.456244e+00 2.187851e+00 1.665335e-16 -2.912993e+00 2.843218e+00 -1.776357e-15 -1.816080e+01 5.632918e+00 1.776357e-15 -3.652394e+01 9.141405e-01 9.020562e-17 -8.250381e-01 -2.220446e-16 -3.561016e-01 -1.963859e+00 1.341072e-01 0.000000e+00 -2.223897e+00 8.126070e+00 -1.776357e-15 -5.200723e+01 1.499806e+01 -3.552714e-15 -5.104228e+01 1.261080e+00 -8.881784e-16 -1.044971e+01 4.976500e+00 8.881784e-16 -1.127147e+01 7.535937e+00 -1.776357e-15 -4.514111e+01 7.530733e+00 1.776357e-15 -3.360542e+01 6.343738e+00 0.000000e+00 -3.853060e+01 1.564457e+01 1.776357e-15 -4.472847e+01 9.893974e+00 0.000000e+00 -4.801963e+01 1.407751e+01 8.881784e-16 -3.186388e+01 1.926841e+00 -3.552714e-15 -2.668149e+01 2.595386e-01 2.913225e-13 -1.142944e+02 8.380770e-01 7.815970e-14 -1.167564e+02 1.929918e+00 5.684342e-14 -1.100235e+02 8.683473e+01 2.754077e+01 7.105427e-15 8.187998e+01 2.461367e+01 -7.105427e-15 8.693019e+01 3.014512e+01 0.000000e+00 4.832594e+02 1.961928e+02 2.842171e-14 -1.976197e-14 -1.178882e-02 -5.396854e+00 3.207284e-01 2.775558e-17 -8.898216e-01 2.612466e+00 -4.440892e-16 -5.655951e+00 3.197442e-14 -3.418394e+00 -6.592056e+01 2.699581e+00 -6.661338e-16 -3.840629e+00 2.567274e+01 -6.217249e-15 -4.774044e+01 4.559543e+00 -4.440892e-16 -1.492158e+00 4.128993e+00 -4.440892e-16 -4.238975e-01 3.058559e+00 2.167113e-01 -6.661338e-16 4.471893e+00 -2.220446e-16 -1.626025e+00 1.605495e+01 -2.664535e-15 -9.567976e+00 2.318339e+01 3.996803e-15 -1.251882e+01 3.035548e+01 -5.329071e-15 -1.553472e+01 3.554121e+01 -2.664535e-15 -1.819954e+01 2.892250e+01 -5.329071e-15 -2.201708e+01 2.418346e+01 2.220446e-15 -3.068242e+01 2.283634e+01 2.664535e-15 -3.354700e+01 2.075044e+01 -9.769963e-15 -3.309151e+01 1.743590e+01 -7.993606e-15 -2.940440e+01 9.363580e+00 -2.220446e-15 -1.959132e+01 5.200062e+00 -3.108624e-15 -1.434990e+01 1.530191e+00 -4.440892e-16 -9.791081e+00 -4.440892e-16 -1.395517e+00 -4.672274e+00 3.188993e-01 0.000000e+00 -4.701893e+00 1.979284e+02 -2.131628e-14 -5.148341e+01 1.352331e+02 1.035362e+01 -7.105427e-15 9.308832e+01 7.105427e-15 -6.792935e+00 1.656981e+00 1.665335e-16 -2.934992e+00 1.166033e+01 -5.329071e-15 -5.308647e+01 2.048473e+02 2.427390e+01 -1.421085e-14 -1.421085e-14 -9.761389e+00 -1.388612e+02 2.440599e+01 -2.664535e-15 -5.736752e+00 3.708174e+00 -4.263256e-14 -1.035597e+02 9.716009e+00 7.105427e-15 -8.299389e+01 4.420092e+01 -1.776357e-15 -1.841907e+01 4.735981e+01 -7.105427e-15 -1.639845e+01 2.301920e+01 1.776357e-15 -5.198708e+01 2.295312e+00 -1.942890e-16 -2.785984e+00 6.735952e+01 8.664785e+00 7.105427e-15 7.139782e+01 1.110128e+01 -1.065814e-14 2.146835e+01 -1.243450e-14 -5.452449e+01 1.142396e+02 5.622269e+01 0.000000e+00 1.184799e+02 5.960911e+01 -7.105427e-15 3.388791e+02 1.130799e+02 -2.842171e-14 5.246979e+01 -7.105427e-15 -1.748868e+00 4.057439e+02 1.504121e+02 0.000000e+00 3.966197e+01 -5.329071e-15 -2.736030e+00 3.646944e+01 7.105427e-15 -3.333500e+00 1.434926e+02 0.000000e+00 -1.413825e+01 1.962772e+02 1.363783e+02 -1.421085e-14 2.432553e+02 1.517822e+02 0.000000e+00 3.591991e+01 0.000000e+00 -3.518443e+00 3.238188e+01 7.568546e-01 -2.842171e-14 4.280454e+00 -1.421085e-14 -4.151450e+01 9.798316e+00 1.776357e-15 -5.553382e+01 3.578625e+01 1.953993e-14 -1.257370e+00 3.175584e+01 1.776357e-15 -2.721623e+00 1.696367e+01 -1.776357e-15 -6.427908e+00 7.212928e+00 -2.220446e-15 -1.790296e+01 5.243409e+00 3.330669e-16 -3.823212e+00 1.344361e-01 -2.220446e-16 -1.782032e+00 2.135807e+00 -8.326673e-17 -2.816661e+00 3.051333e+00 -1.776357e-14 -7.496016e+01 7.186678e+00 -1.776357e-14 -6.104147e+01 9.422608e+00 1.776357e-15 -2.573522e+01 7.651143e+00 -1.065814e-14 -8.881512e+01 1.250637e+01 -1.776357e-15 -4.383349e+01 1.954391e+02 3.088033e+01 0.000000e+00 6.756656e+00 -7.105427e-15 -9.151222e+01 1.309048e+01 -7.105427e-15 -4.600254e+01 7.714359e+00 1.776357e-14 -8.580242e+01 1.164135e+01 -1.776357e-15 -3.936915e+01 1.255741e+01 -4.440892e-15 -2.684533e+01 6.307285e+00 3.552714e-15 -7.329897e+01 2.682409e+00 -4.440892e-16 -4.687635e+00 2.629786e+01 -6.217249e-15 -4.520353e+01 2.840915e+01 -3.552714e-15 -4.277627e+01 5.175989e-01 -6.661338e-16 -3.770911e+00 1.865440e+00 -6.661338e-16 -4.914947e+00 0.000000e+00 -2.058853e+00 -3.840997e+00 -2.664535e-15 -1.798841e+00 -1.034160e+01 4.440892e-16 -1.203954e+00 -6.374096e+00 1.054543e-01 -6.217249e-15 -1.572511e+01 3.039274e+00 -8.881784e-16 -2.120581e+01 1.013194e+01 -3.552714e-15 -3.168225e+01 1.337522e+01 8.881784e-16 -2.426501e+01 1.433111e+01 1.776357e-15 -3.484133e+01 1.727374e+01 -4.440892e-15 -2.971927e+01 1.911980e+01 8.881784e-16 -3.518777e+01 2.406160e+01 -3.108624e-15 -3.279184e+01 3.007007e+01 -5.107026e-15 -2.518758e+01 2.579384e+01 1.096345e-15 -2.604664e+01 3.360590e+01 -9.769963e-15 -1.937054e+01 3.274901e+01 -5.329071e-15 -1.969586e+01 3.490463e+01 -4.440892e-15 -1.234965e+01 3.455030e+01 -2.664535e-15 -1.703300e+01 3.166051e+01 -8.881784e-16 -9.470441e+00 2.473423e+01 -4.440892e-15 -7.193500e+00 1.145646e+01 1.332268e-15 -1.541567e+00 2.445635e+00 -3.885781e-16 -3.678342e+00 9.857472e+00 6.661338e-16 -5.169768e+00 6.695006e+00 1.065814e-14 -6.109005e-02 5.514189e+00 -2.220446e-16 -1.003725e+00 8.038379e+00 0.000000e+00 -3.752810e+01 3.699522e+00 -8.881784e-16 -2.193100e+00 2.408533e+01 -1.776357e-15 -4.975334e+01 1.809726e+01 -1.776357e-15 -3.854626e+00 3.475613e+01 -8.881784e-16 -1.587911e+01 3.183893e+01 -6.661338e-15 -2.208787e+01 2.761614e+01 0.000000e+00 -2.902490e+01 6.350683e+00 -2.664535e-15 -2.655451e+01 4.440892e-16 -2.660353e+00 -5.394964e+00 3.382148e+00 -4.440892e-16 -2.620507e+00 -2.131628e-14 -5.773838e+00 -1.291665e+02 1.208540e+00 2.486900e-13 -1.312799e+02 1.322683e-02 -2.181366e-11 -1.237291e+02 1.132031e+01 -1.421085e-14 -7.727415e+01 1.023910e+01 -1.065814e-14 -8.005712e+01 1.272613e+01 0.000000e+00 -7.449616e+01 3.129242e+01 -7.993606e-15 -3.839127e+01 2.905380e+01 -1.154632e-14 -4.049435e+01 3.094180e+01 -9.547918e-15 -3.616946e+01 5.099176e+01 -3.552714e-15 -1.222940e+01 4.749666e+01 -1.776357e-15 -1.423889e+01 5.130936e+01 -1.776357e-15 -9.959302e+00 7.640237e+01 1.607098e+01 -3.552714e-15 7.095490e+01 1.352663e+01 -3.552714e-15 7.615512e+01 1.903468e+01 7.105427e-15 1.285743e+02 6.695592e+01 0.000000e+00 1.155805e+02 6.272642e+01 -7.105427e-15 1.233799e+02 7.079282e+01 0.000000e+00 2.817306e+02 1.719881e+02 0.000000e+00 2.199381e+02 1.483312e+02 1.421085e-14 2.528611e+02 1.547749e+02 0.000000e+00 1.037281e+01 -1.332268e-15 -4.169354e+00 1.816417e+00 -3.885781e-16 -2.486055e+00 1.184053e+01 -1.421085e-14 -5.416825e+01 3.595621e+00 7.105427e-15 -7.082186e+01 0.000000e+00 -1.274727e+01 -8.990485e+01 2.915395e+00 -7.815970e-14 -7.755780e+01 2.892562e+02 1.105406e+02 2.842171e-14 3.509903e+00 -5.329071e-15 -4.303806e+01 2.209304e+00 1.110223e-16 -3.845488e+00 1.003617e+01 0.000000e+00 -3.905732e+01 8.205959e+00 7.105427e-15 -7.864768e+01 4.078441e+00 3.330669e-16 -1.817056e+00 1.217361e+01 -1.421085e-14 -6.351543e+01 9.597116e+00 -1.065814e-14 -6.884016e+01 1.077748e+01 -1.421085e-14 -8.225259e+01 -2.842171e-14 -1.607514e+00 -8.279617e+01 2.599530e+01 0.000000e+00 -1.134814e+01 3.914697e+00 2.131628e-14 -1.048017e+02 3.626907e+01 -4.440892e-15 -3.270194e+01 3.070479e+00 -7.910339e-16 -2.697764e+00 1.435983e+02 7.451740e+01 -1.421085e-14 5.710579e+01 -7.105427e-15 -6.624917e+00 1.910055e+01 -2.664535e-15 -3.798048e+01 1.077235e+02 4.787183e+01 7.105427e-15 5.696733e+01 -2.842171e-14 -2.336584e+00 2.189259e+01 3.552714e-15 -5.452751e+01 6.844514e+01 -1.101341e-13 -1.159446e-01 5.654254e+01 -3.552714e-15 -3.995549e+00 2.980714e+01 0.000000e+00 -4.865230e+00 4.326378e+01 5.329071e-15 -4.226739e+00 2.684620e+02 1.006800e+02 1.421085e-14 3.898383e+01 0.000000e+00 -3.831564e+00 3.808236e+01 -7.105427e-15 -5.729427e+00 3.418689e+01 -3.552714e-15 -5.288235e+00 8.789756e+01 4.228245e+00 7.105427e-15 6.735528e+01 -5.329071e-14 -2.869198e+00 2.815838e+02 1.479136e+02 2.842171e-14 3.102693e+02 1.114811e+02 -2.842171e-14 4.909517e+01 1.065814e-14 -3.390904e+00 4.250884e+01 -7.105427e-15 -5.220273e+00 2.708220e+02 6.339670e+01 0.000000e+00 2.387098e+02 3.900805e+01 0.000000e+00 2.840190e+01 0.000000e+00 -3.772637e+01 6.188587e+00 -4.440892e-15 -2.632975e+01 1.553146e+01 1.776357e-15 -4.007665e+01 2.183974e+01 1.776357e-15 -5.270009e+01 3.105858e+02 8.931908e+01 2.842171e-14 9.556622e+00 3.197442e-14 -8.594129e+01 8.492298e+00 -1.776357e-15 -3.305217e+01 3.435792e+00 5.551115e-17 -2.132729e+00 1.388196e+01 0.000000e+00 -6.977568e+01 2.442408e+01 0.000000e+00 -4.148261e+01 -1.110223e-16 -9.284205e-01 -1.372556e+00 1.028324e+01 -5.329071e-15 -4.266171e+01 3.255753e+01 -1.776357e-15 -7.634743e+00 2.922231e+01 0.000000e+00 -8.620821e+00 3.170676e+01 0.000000e+00 -1.356286e+01 3.151015e+00 4.857226e-17 -3.259351e+00 1.230385e+02 9.589921e+00 -7.105427e-15 8.063613e+01 8.171241e-14 -2.029090e+00 9.160984e+01 5.834761e+00 -2.131628e-14 9.475499e+00 -1.776357e-15 -1.848689e+01 2.485340e+01 -5.107026e-15 -2.861985e+01 3.231398e+01 -5.329071e-15 -1.931447e+01 6.029834e+00 -1.332268e-15 -8.114288e-01 2.042972e+01 0.000000e+00 -5.063309e+01 1.148779e+01 3.552714e-15 -6.650306e+01 2.038140e+01 2.664535e-15 -3.651663e+01 2.214293e+01 -4.440892e-15 -4.283360e+01 1.799692e+01 -7.105427e-15 -4.367054e+01 3.604268e+01 -8.881784e-15 -1.482229e+01 3.640374e+01 -5.329071e-15 -1.710896e+01 2.796066e+01 -2.886580e-15 -2.369011e+01 3.256034e+01 -1.332268e-15 -2.307492e+01 2.988503e+01 -6.661338e-16 -2.681435e+01 2.280315e+01 -8.437695e-15 -3.287014e+01 2.042287e+01 -2.664535e-15 -3.329971e+01 2.040444e+01 0.000000e+00 -3.328722e+01 1.379382e+01 -1.776357e-15 -3.392715e+01 1.369648e+01 -8.881784e-16 -2.383788e+01 5.424194e+00 -1.332268e-15 -1.393852e+01 2.474435e+00 -8.881784e-16 -8.988848e+00 7.850294e+01 -3.552714e-14 -2.050565e+00 5.402934e+00 -1.065814e-14 -7.742155e+01 1.453576e+00 -4.440892e-16 -3.576486e+00 1.617845e+01 -7.105427e-15 -7.050820e+01 2.773210e+01 -1.332268e-14 -4.004138e+01 2.092201e+01 1.776357e-15 -3.734646e+01 2.520613e+01 -6.217249e-15 -4.154514e+01 5.066372e+00 2.842171e-14 -1.011960e+02 4.939938e+00 -7.105427e-15 -9.816722e+01 7.996411e+01 1.725494e+01 -7.105427e-15 3.393442e+01 1.110223e-15 -3.691801e+01 3.211111e+01 -9.214851e-15 -3.483684e+01 2.045489e+01 -3.552714e-15 -5.947123e+01 1.881496e+01 -1.065814e-14 -5.695324e+01 4.620934e+01 -5.329071e-15 -1.921409e+01 1.035186e+02 4.076100e+01 7.105427e-15 1.016011e+02 4.414454e+01 -7.105427e-15 1.330735e+02 6.607943e+01 0.000000e+00 1.249312e+02 6.921088e+01 0.000000e+00 1.296831e+01 -4.440892e-15 -3.245302e+01 2.692272e+02 1.487891e+02 0.000000e+00 2.671930e+02 1.194626e+02 0.000000e+00 3.487508e+01 -3.907985e-14 -5.749530e-01 1.689300e+02 9.414623e+01 1.421085e-14 6.428329e+01 2.398684e+00 0.000000e+00 9.728194e+01 3.479834e+01 7.105427e-15 9.338766e+01 3.703069e+01 -7.105427e-15 3.364941e+01 -5.329071e-15 -3.798254e+00 4.192296e+01 0.000000e+00 -2.389886e+01 4.186070e+01 -1.154632e-14 -2.114703e+01 1.946322e+02 1.157380e+02 1.421085e-14 4.886207e+01 0.000000e+00 -4.605411e+00 7.917508e+00 5.329071e-15 -4.289757e+01 9.191284e+00 -1.998401e-15 -5.324731e+00 6.662394e+00 -7.105427e-15 -9.489164e+01 6.951665e+00 7.105427e-15 -9.190308e+01 1.619105e+02 2.174152e+01 7.105427e-15 1.355403e+02 7.816387e+01 -1.421085e-14 1.556138e+02 8.394926e+01 0.000000e+00 1.496211e+01 -5.329071e-15 -3.382190e+01 1.458544e+01 -1.776357e-15 -5.311575e+01 1.854009e-01 -1.110223e-16 -2.052265e+00 8.249071e+00 1.776357e-14 -8.279406e+01 1.087357e+01 0.000000e+00 -8.020707e+01 9.088349e+01 2.875173e+01 -7.105427e-15 8.925834e+01 3.144794e+01 0.000000e+00 -8.881784e-16 -1.304167e+00 -5.459232e+00 3.467081e+01 8.881784e-16 -1.490349e+01 1.123834e+02 5.486390e+01 0.000000e+00 1.140806e+02 5.202486e+01 7.105427e-15 1.246501e+02 5.934356e+01 0.000000e+00 0.000000e+00 -1.620415e+00 -1.870638e+00 3.531468e+01 -1.776357e-15 -9.211933e+00 3.155977e+01 -2.664535e-15 -1.015605e+01 3.378684e+01 -8.881784e-16 -1.370179e+01 1.607293e+02 1.397541e+01 0.000000e+00 1.392645e+01 5.329071e-15 -4.075745e+01 5.335284e+01 -7.105427e-15 -1.112874e+01 5.210781e+01 0.000000e+00 -8.867816e+00 8.521001e+01 2.262707e+01 0.000000e+00 7.925398e+01 2.017437e+01 0.000000e+00 8.494697e+01 2.606518e+01 7.105427e-15 2.610914e+01 -3.774758e-15 -3.057606e+01 2.277308e+01 -8.437695e-15 -3.145406e+01 1.698631e+01 -7.105427e-15 -6.708298e+01 1.705955e+01 -3.552714e-15 -6.475073e+01 3.418231e+00 -4.263256e-14 -1.121768e+02 2.732386e+01 -1.776357e-15 -4.543392e+01 1.244306e+01 1.421085e-14 -7.449149e+01 1.522580e+01 -1.065814e-14 -7.181770e+01 2.428732e+00 -1.634248e-13 -1.449781e+02 6.623103e+00 -2.664535e-15 -2.598009e+01 1.007246e+01 -2.664535e-15 -3.154538e+01 3.396078e+01 5.329071e-15 -1.938408e+01 0.000000e+00 -9.054215e-01 -5.477382e+00 1.891451e+00 -4.440892e-16 -3.796161e+00 2.372013e+01 2.664535e-15 -3.617848e+01 1.345119e+01 0.000000e+00 -3.094293e+01 1.557370e+01 -8.881784e-16 -3.260853e+01 6.490627e+00 -1.776357e-14 -8.838764e+01 6.639640e+01 5.428574e+00 -3.552714e-15 7.031827e+01 7.823802e+00 -1.065814e-14 1.854237e+02 1.121463e+02 0.000000e+00 2.181105e+02 1.270403e+02 -1.421085e-14 1.388012e+02 8.885592e+00 -1.421085e-14 9.942528e+01 9.837880e+00 7.105427e-15 4.224454e+00 7.105427e-15 -1.073775e+02 5.444515e+00 2.131628e-14 -1.388404e+02 2.131628e-13 -1.212733e+00 -1.356674e+02 9.651787e-02 -1.554312e-15 -3.393644e+00 3.763048e+00 0.000000e+00 -1.887053e+01 2.414082e+01 3.552714e-15 -5.032054e+01 1.656799e+01 8.881784e-16 -3.154106e+01 1.902343e+01 -1.776357e-15 -4.464729e+01 1.525481e+00 -6.394885e-14 -1.195183e+02 2.730563e+00 -2.131628e-14 -1.137574e+02 1.164756e+00 0.000000e+00 -1.428664e+01 -4.440892e-16 -6.599481e-01 -5.172202e+00 1.230358e+01 -1.421085e-14 -9.084234e+01 -2.131628e-13 -9.911175e-01 -1.259657e+02 4.117428e+00 1.421085e-14 -1.303655e+02 3.632666e+00 -2.131628e-14 -1.213214e+02 2.485091e+01 0.000000e+00 -5.236991e+01 5.782446e+01 3.552714e-15 -3.842907e+00 6.049007e+01 -1.421085e-14 -1.820395e+00 3.668540e+01 -6.217249e-15 -2.999228e+01 3.846033e+01 8.881784e-16 -2.791386e+01 2.449816e+01 -6.217249e-15 -4.764772e+01 9.386703e+00 -2.664535e-15 -1.787910e+01 1.366944e+01 -8.881784e-16 -3.340635e+01 1.997542e+01 -3.552714e-15 -3.509085e+01 1.474787e+01 -8.881784e-15 -3.806975e+01 7.128046e+00 3.552714e-15 -9.142841e+01 -2.220446e-16 -1.206671e+00 -2.423132e+00 1.271373e+01 0.000000e+00 -6.453890e+01 1.801126e+01 0.000000e+00 -7.548924e+01 5.927985e+00 -1.065814e-14 -1.013415e+02 -2.220446e-16 -1.232586e+00 -3.772040e+00 8.128074e+00 7.105427e-15 -1.071000e+02 6.165374e+00 -2.131628e-14 -1.114682e+02 3.552714e-14 -2.009763e+00 -9.939058e+01 -1.421085e-14 -2.266855e+01 -1.281427e+02 2.367843e+00 3.552714e-14 -1.117588e+02 2.326391e+00 -3.552714e-14 -1.021730e+02 5.293699e+00 2.842171e-14 -1.133015e+02 8.445934e+00 3.552714e-15 -1.008212e+02 -1.350031e-13 -5.089834e-01 -1.074227e+02 0.000000e+00 -5.662937e+00 -1.168222e+02 3.044264e+00 3.552714e-14 -1.117690e+02 2.167513e+00 -1.421085e-14 -1.375834e+02 1.097830e+01 0.000000e+00 -9.578075e+01 5.540655e+00 -7.105427e-15 -8.518045e+01 2.144121e+00 1.136868e-13 -9.095170e+01 6.501397e+00 4.973799e-14 -1.202655e+02 5.574620e+00 -7.105427e-15 -1.205448e+02 3.050014e+01 6.217249e-15 -4.099450e+01 2.828558e+01 -1.776357e-15 -4.314668e+01 2.874612e+01 -5.329071e-15 -3.889838e+01 5.003714e+01 1.776357e-15 -1.523507e+01 4.530950e+01 0.000000e+00 -1.720699e+01 4.835780e+01 -3.552714e-15 -1.312599e+01 4.009659e+00 -4.440892e-16 -1.873320e+00 2.563789e+01 -3.663736e-15 -2.810185e+01 2.744088e+01 -3.552714e-15 -4.823300e+01 1.726932e+01 -1.065814e-14 -5.807057e+01 7.548274e+01 1.227372e+01 -3.552714e-15 6.692783e+01 9.550293e+00 -3.552714e-15 7.185451e+01 1.438046e+01 3.552714e-15 1.621085e+02 1.003367e+02 0.000000e+00 2.431030e+02 1.387459e+02 -1.421085e-14 2.052778e+02 1.173532e+02 0.000000e+00 2.337378e+02 1.227652e+02 1.421085e-14 3.224781e+01 0.000000e+00 -6.477619e+00 3.698035e+01 -1.776357e-15 -5.398491e+00 2.690509e+01 -8.881784e-15 -5.958839e+01 3.492399e+00 -3.330669e-16 -1.740196e+00 6.208877e+01 9.060124e-01 -5.329071e-14 5.369248e+00 2.131628e-14 -1.349923e+02 5.597204e+01 -1.421085e-14 -4.324071e+00 1.336466e+01 0.000000e+00 -2.418618e+01 2.339609e+02 8.481880e+01 0.000000e+00 1.513828e+01 -3.552714e-15 -3.414810e+01 2.061431e+01 -7.993606e-15 -3.216471e+01 1.462787e+02 8.747119e+01 0.000000e+00 3.025726e+01 -6.217249e-15 -5.173872e+01 1.763077e+02 8.912552e+01 -1.421085e-14 2.346162e+02 5.426498e+01 0.000000e+00 3.616520e+01 -2.664535e-15 -1.505380e+01 4.912151e+00 -1.421085e-14 -9.999529e+01 3.157130e+02 4.673738e+01 0.000000e+00 9.913388e+00 -7.105427e-15 -1.004434e+02 5.423938e+00 -2.131628e-14 -1.147533e+02 8.775718e+00 7.105427e-15 -1.405422e+02 1.011026e+02 6.549339e+00 1.421085e-14 1.836834e+02 3.922922e+01 0.000000e+00 1.408355e+00 4.440892e-16 -1.172526e+01 7.570584e+00 1.421085e-14 -1.047102e+02 0.000000e+00 -1.048977e+00 -1.009632e+01 2.626849e+00 2.842171e-14 -9.546675e+01 2.076259e+01 3.552714e-15 -5.035313e+01 2.778923e+01 3.552714e-15 -4.359979e+01 2.811824e+01 -1.776357e-15 -4.687475e+01 6.593986e+00 2.131628e-14 -1.343404e+02 5.797530e+00 -1.332268e-15 -1.237275e+01 3.176233e+00 1.421085e-14 -9.894958e+01 2.042578e+02 5.875456e+01 2.842171e-14 2.697096e+02 8.235273e+01 0.000000e+00 3.281351e+00 -1.776357e-15 -1.981247e+01 3.562676e+01 -8.881784e-15 -1.635283e+01 1.127506e+01 -1.421085e-14 -9.201723e+01 6.550258e+01 -7.105427e-15 -2.482122e+00 4.999551e+01 5.329071e-15 -7.126847e+00 5.817553e-01 -1.136868e-13 -1.166133e+02 2.229145e+01 -8.437695e-15 -3.223448e+01 4.884968e+01 0.000000e+00 -1.898472e+01 4.965283e+00 -1.421085e-14 -1.054546e+02 1.662512e+01 -7.105427e-15 -6.168400e+01 1.375970e+02 2.173739e+01 2.131628e-14 1.285059e+02 2.119629e+01 7.105427e-15 2.667942e+01 -6.217249e-15 -4.540220e+01 2.817277e+01 -7.993606e-15 -4.304590e+01 2.466485e+01 -5.551115e-16 -2.201505e+01 1.349157e+02 6.265644e+01 1.421085e-14 1.801192e+02 1.064611e+02 1.421085e-14 2.235888e+02 5.581852e+01 2.842171e-14 1.938292e+02 5.484368e+01 -1.421085e-14 1.620692e+02 3.585568e+01 -1.421085e-14 1.043450e+02 3.559601e+01 -7.105427e-15 8.254508e+01 1.710367e+01 7.105427e-15 2.335181e+02 1.094214e+02 0.000000e+00 2.571973e+02 9.194016e+01 0.000000e+00 3.776125e+01 -4.440892e-15 -3.086637e+01 1.168251e+02 6.103708e+01 7.105427e-15 7.110064e+01 1.421085e-14 -2.029267e+00 7.873867e+01 1.065937e+00 8.171241e-14 3.919991e+01 -5.329071e-15 -1.160443e+01 3.837665e+01 -7.105427e-15 -1.622679e+01 4.493852e+01 -5.329071e-15 -2.343519e+01 4.326863e+01 -8.881784e-16 -2.081131e+01 3.774863e+02 1.257595e+02 -2.842171e-14 1.169973e+02 1.187931e+01 0.000000e+00 8.518373e+01 5.961261e+00 2.842171e-14 4.272139e+01 0.000000e+00 -5.471429e+00 2.490076e+01 -4.440892e-15 -4.718672e+01 1.650106e+02 9.357049e+01 0.000000e+00 1.952833e+02 1.050461e+02 -1.421085e-14 1.915213e+01 -5.329071e-15 -3.508520e+01 4.858876e+01 -3.552714e-15 -5.550861e+00 1.617346e+00 -3.330669e-16 -3.756491e+00 2.566661e+01 -4.940492e-15 -2.629859e+01 9.349323e+00 -1.065814e-14 -9.157043e+01 2.518995e+01 -9.325873e-15 -3.082330e+01 1.615276e+02 7.953571e+01 0.000000e+00 1.499864e+02 8.017876e+01 1.421085e-14 2.388168e+01 -1.776357e-15 -5.106440e+01 5.537908e+00 7.105427e-15 -9.270668e+01 1.162979e+01 7.105427e-15 -7.710315e+01 6.297365e+01 -5.329071e-14 -6.169556e-01 3.713577e+01 1.776357e-15 -1.001841e+01 9.616860e+01 2.962932e+01 0.000000e+00 9.007031e+01 3.130928e+01 -7.105427e-15 6.043904e+00 -1.421085e-14 -9.708572e+01 3.587250e+01 -3.233525e-15 -3.619262e+01 3.354380e+01 -9.908740e-15 -3.320568e+01 5.701355e+00 -1.065814e-14 -9.089174e+01 1.200578e+01 -1.421085e-14 -7.146731e+01 5.648483e+01 -7.105427e-15 -1.038819e+01 4.180562e+01 4.440892e-15 -2.534676e+01 7.203596e+01 -1.776357e-14 -4.464820e+00 3.921993e+01 -5.329071e-15 -8.525653e+00 1.444695e+01 -3.552714e-15 -8.707364e+01 2.646973e+01 -7.105427e-15 -5.288058e+01 1.718791e-01 -2.886580e-15 -5.119494e+00 1.417826e+01 -3.552714e-15 -6.577039e+01 1.694536e+01 -7.105427e-15 -6.909264e+01 1.979313e+01 -8.881784e-15 -6.407283e+01 4.505778e+01 -1.776357e-15 -7.538139e+00 3.878545e+01 -1.243450e-14 -2.547988e+01 5.919326e+01 -3.552714e-15 -5.693948e+00 5.470547e+01 -5.329071e-15 -7.814493e+00 6.193509e+01 -1.065814e-14 -2.556219e+00 4.660164e+00 -4.973799e-14 -1.101472e+02 3.874504e+01 0.000000e+00 -3.356359e+00 3.099186e+01 4.440892e-16 -2.099819e+01 4.267466e+00 -1.421085e-14 -1.117964e+02 4.734516e+00 3.552714e-15 -8.440576e+01 5.934333e+01 -1.065814e-14 -4.873259e+00 7.915146e+00 1.421085e-14 -9.668544e+01 1.263882e+02 6.546946e+01 -7.105427e-15 1.483701e+02 7.203087e+01 0.000000e+00 3.186974e+01 -2.220446e-15 -2.530911e+01 6.093768e+00 -7.105427e-15 -8.619568e+01 9.722318e+00 -1.421085e-14 -8.593289e+01 1.128337e+01 0.000000e+00 -8.341635e+01 6.374145e+01 2.228744e+00 3.552714e-15 6.641522e+01 4.424928e+00 -1.065814e-14 2.030329e+00 -8.881784e-16 -9.526485e+00 2.657698e+01 -4.281298e-15 -2.639747e+01 3.618225e+01 2.664535e-15 -2.021896e+01 8.017814e+01 3.552714e-15 -9.424590e+00 1.674060e+01 -3.552714e-15 -8.206819e+01 9.225524e+00 1.065814e-14 -7.208692e+01 8.061811e+00 -4.973799e-14 -1.472863e+02 4.232627e+01 6.217249e-15 -2.992978e+01 4.542267e+01 -1.776357e-15 -1.698278e+01 5.262896e+01 -1.776357e-15 -1.493045e+01 5.336245e+01 -1.776357e-15 -1.752508e+01 3.568369e+01 -3.552714e-15 -8.110249e+00 2.321807e+01 -1.065814e-14 -5.855192e+01 1.657005e+01 -1.421085e-14 -6.047501e+01 1.860291e+01 -5.329071e-15 -5.519651e+01 3.467533e+01 7.105427e-15 -4.353133e+01 7.493673e+01 1.469151e+01 0.000000e+00 7.884086e+01 1.218755e+01 3.552714e-15 1.243847e+02 5.608149e+01 7.105427e-15 1.180110e+02 5.654724e+01 0.000000e+00 3.460379e+01 2.664535e-15 -1.094828e+01 2.153416e+01 0.000000e+00 -5.551129e+01 6.991081e+00 7.105427e-15 -7.891213e+01 2.304159e+01 2.720046e-15 -2.170935e+01 2.248034e+01 -8.881784e-15 -4.952689e+01 3.736482e+01 4.440892e-15 -5.008529e+01 1.198212e+01 -7.105427e-15 -7.706640e+01 9.290501e+00 -1.065814e-14 -7.937190e+01 1.513568e+01 -3.552714e-15 -7.438717e+01 6.013038e+01 7.105427e-15 -5.605562e+00 8.270860e+01 3.551548e+00 -7.105427e-15 2.609873e+01 -3.552714e-15 -6.311984e+01 4.909965e+01 -1.776357e-15 -1.281068e+01 3.870719e+01 -1.154632e-14 -2.539798e+01 8.758700e+01 2.299843e+01 0.000000e+00 8.156362e+01 2.078345e+01 0.000000e+00 8.819958e+01 2.651046e+01 -7.105427e-15 3.320004e+01 -8.881784e-15 -3.182699e+01 4.496722e+01 -3.552714e-15 -8.530948e+00 7.049816e+01 -1.065814e-14 -1.603826e+00 6.207359e+01 -1.776357e-14 -3.153011e+00 5.016554e+01 1.776357e-15 -7.688459e+00 1.655707e+01 3.552714e-15 -8.017808e+01 2.897949e+01 -5.759282e-15 -2.879155e+01 4.112344e+01 -3.552714e-15 -7.147677e+00 8.108675e+01 1.127456e+01 7.105427e-15 6.740051e+01 8.880526e+00 -3.552714e-15 2.035103e+01 -1.065814e-14 -7.380588e+01 1.691543e+01 7.105427e-15 -5.987065e+01 2.638063e+01 2.886580e-15 -2.607181e+01 3.698396e+01 -1.776357e-15 -1.246114e+01 3.305092e+01 -3.108624e-15 -4.133175e+01 1.033521e+02 9.628918e+00 -2.842171e-14 2.942716e+01 -6.661338e-15 -3.821640e+01 3.433312e+01 -4.440892e-15 -1.836727e+01 1.094600e+02 4.153432e+01 -7.105427e-15 4.137291e+01 -1.776357e-15 -1.652941e+01 4.575032e+00 2.842171e-14 -1.208543e+02 1.120609e+02 5.041634e+01 7.105427e-15 3.285449e+01 -1.776357e-15 -2.461172e+01 3.134101e+01 5.329071e-15 -2.221878e+01 3.791404e+01 -5.329071e-15 -1.694980e+01 1.122160e+02 4.609826e+01 0.000000e+00 3.442340e+00 -4.973799e-14 -1.231619e+02 2.901287e+01 1.332268e-15 -2.264415e+01 1.265241e+02 5.107195e+01 -1.421085e-14 9.626085e+01 3.737927e+01 0.000000e+00 8.596913e+01 5.608127e+00 1.065814e-14 1.133381e+02 1.923399e+01 0.000000e+00 4.965136e+01 -3.552714e-15 -1.398924e+01 3.484492e+01 -3.552714e-15 -1.271348e+01 3.615816e+01 -2.664535e-15 -1.467104e+01 2.483619e+01 -1.776357e-15 -6.773438e+01 -1.421085e-14 -7.095530e+00 -1.488932e+02 4.158347e+01 -1.776357e-15 -2.053525e+01 7.765050e+01 1.472156e+01 0.000000e+00 8.567186e+01 1.784294e+01 0.000000e+00 2.414459e+01 -5.329071e-15 -5.875195e+01 1.273471e+02 1.602718e+01 -1.421085e-14 9.818178e+01 1.349726e+01 -1.421085e-14 3.839309e+01 -9.769963e-15 -2.046262e+01 1.952103e+02 7.110875e+01 1.421085e-14 1.257029e+01 -7.105427e-15 -6.632478e+01 1.071776e+02 3.346978e+01 7.105427e-15 4.144227e+01 -8.881784e-16 -2.797269e+01 2.237497e+02 1.166828e+02 -1.421085e-14 2.377797e+02 9.829282e+01 -1.421085e-14 5.514950e+01 -5.329071e-15 -1.542966e+01 2.112962e+02 1.114264e+02 -1.421085e-14 2.066025e+02 9.748059e+01 1.421085e-14 3.900827e+01 -3.552714e-15 -1.369749e+01 4.203376e+01 -3.552714e-15 -1.700977e+01 2.196199e+02 6.665815e+01 1.421085e-14 3.204314e+01 -1.243450e-14 -5.688425e+01 1.884973e+02 5.056645e+01 0.000000e+00 3.833472e+01 -1.332268e-14 -4.559945e+01 1.888575e+02 9.702087e+01 -1.421085e-14 3.292371e+01 -1.154632e-14 -4.601655e+01 2.917552e+01 -7.105427e-15 -4.722868e+01 1.635454e+02 7.140996e+01 1.421085e-14 3.479801e+01 5.329071e-15 -4.373121e+01 3.579829e+01 -1.776357e-15 -5.338278e+01 6.079948e+01 7.105427e-15 -3.767760e+00 8.250946e+01 3.266242e+00 0.000000e+00 5.227308e+01 1.776357e-15 -7.209377e+00 3.386523e+01 -4.440892e-16 -2.224646e+01 4.597429e+01 -3.552714e-15 -1.006452e+01 3.800188e+01 2.331468e-15 -3.537824e+01 7.577993e+01 5.782345e+00 -7.105427e-15 7.112306e+01 8.171942e+00 0.000000e+00 5.608659e+01 3.552714e-15 -2.385613e+01 1.392315e+02 5.916555e+01 -1.421085e-14 8.890652e+00 -7.105427e-15 -7.358729e+01 1.394008e+02 7.200453e+01 0.000000e+00 3.216406e+01 -3.552714e-15 -3.988604e+01 3.432534e+01 -4.440892e-16 -4.161528e+01 5.905937e+01 -3.552714e-15 -1.009521e+01 5.972014e+01 -1.421085e-14 -6.496973e+00 1.117364e+02 4.471032e+01 -7.105427e-15 1.343892e+01 -3.552714e-15 -6.620662e+01 2.003397e+01 3.552714e-15 -6.423393e+01 4.609766e+01 -5.329071e-15 -3.927173e+01 1.193791e+02 5.290448e+01 -7.105427e-15 2.012553e+01 5.329071e-15 -5.465801e+01 2.761287e+01 -1.776357e-15 -5.276845e+01 2.718582e+01 -5.329071e-15 -4.957101e+01 1.786512e+01 -3.552714e-15 -6.899301e+01 3.944479e+01 -7.549517e-15 -2.865615e+01 5.133734e+01 1.776357e-15 -1.259205e+01 1.387503e+02 3.368297e+01 7.105427e-15 1.539057e+02 3.378328e+01 0.000000e+00 1.521633e+02 7.182502e+01 1.421085e-14 1.821306e+02 8.209985e+01 0.000000e+00 6.298606e+01 0.000000e+00 -1.429210e+01 6.850086e+01 -5.329071e-14 -1.124044e+00 3.791135e+01 -1.021405e-14 -3.142752e+01 4.445322e+01 -1.110223e-14 -3.654278e+01 1.011864e+01 7.105427e-15 -7.130326e+01 5.042871e+01 -5.329071e-15 -1.990341e+01 4.438022e+01 -8.881784e-16 -2.244624e+01 4.581147e+01 -7.105427e-15 -1.801752e+01 4.471784e+01 -6.217249e-15 -2.515718e+01 4.660306e+01 -1.332268e-14 -2.707681e+01 2.630057e+01 -3.552714e-15 -5.990784e+01 1.653140e+02 4.715331e+01 1.421085e-14 5.777014e+01 -3.552714e-15 -1.601842e+01 4.520751e+01 -1.443290e-14 -4.392256e+01 3.215734e+01 -8.881784e-16 -1.941033e+01 3.040166e+01 4.440892e-15 -5.075227e+01 2.444864e+01 3.552714e-15 -5.629866e+01 1.117625e+02 4.014547e+01 -7.105427e-15 2.674396e+01 3.552714e-15 -4.353775e+01 1.056037e+02 2.145430e+01 0.000000e+00 4.604195e+01 -4.662937e-15 -4.225707e+01 4.335538e+01 -7.549517e-15 -3.661889e+01 4.434693e+01 -1.421085e-14 -3.846974e+01 7.841652e+00 0.000000e+00 -7.703264e+01 9.817205e+01 2.848381e+01 7.105427e-15 8.952408e+01 2.430493e+01 -7.105427e-15 9.283852e+01 2.841904e+01 0.000000e+00 8.683909e+01 7.623773e+00 1.421085e-14 4.046753e+01 -1.776357e-15 -1.087815e+01 3.229865e+01 1.110223e-15 -2.656203e+01 1.410016e+02 6.517324e+01 -1.421085e-14 2.122716e+01 -1.776357e-15 -6.755168e+01 1.003321e+02 3.409753e+01 7.105427e-15 1.868474e+02 5.676191e+01 1.421085e-14 1.153783e+02 3.721694e+01 0.000000e+00 4.553736e+01 1.776357e-15 -1.259317e+01 1.074354e+02 2.929059e+01 7.105427e-15 6.899577e+01 3.552714e-15 -1.109222e+01 1.711759e+01 -1.065814e-14 -6.070806e+01 1.419735e+02 6.251111e+01 0.000000e+00 7.372481e+01 7.094828e+00 0.000000e+00 1.788025e+01 -2.131628e-14 -7.402890e+01 1.230005e+02 4.478732e+01 2.131628e-14 4.216097e+01 -7.105427e-15 -1.303188e+01 2.136189e+02 7.745936e+01 1.421085e-14 1.615982e+02 6.003980e+01 2.842171e-14 1.417007e+02 5.365918e+01 0.000000e+00 4.206338e+01 -1.310063e-14 -4.451547e+01 3.866909e+01 -6.883383e-15 -3.342138e+01 1.599103e+01 0.000000e+00 -6.514757e+01 1.920512e+01 -5.329071e-15 -6.281035e+01 8.565050e+01 1.138040e+01 1.421085e-14 3.220919e+01 3.552714e-15 -4.794795e+01 3.018038e+01 -5.329071e-15 -3.757136e+01 1.394080e+02 4.064108e+01 -7.105427e-15 1.021028e+02 3.284826e+01 -1.421085e-14 3.818638e+01 -5.440093e-15 -3.636750e+01 1.257530e+02 4.459161e+01 0.000000e+00 1.222687e+02 3.645216e+01 -7.105427e-15 5.368434e+01 -8.881784e-15 -1.242102e+01 6.309472e+01 -7.105427e-15 -9.692011e+00 1.250035e+01 -7.105427e-15 -6.842625e+01 4.219682e+01 -1.776357e-15 -2.494709e+01 5.167369e+01 7.105427e-15 -2.138845e+01 1.068612e+02 1.998430e+01 7.105427e-15 8.964577e+01 8.067601e-01 1.421085e-14 6.707288e+01 -7.105427e-15 -1.887266e+01 4.259742e+01 1.776357e-15 -1.765452e+01 3.833237e+01 -3.552714e-15 -1.482508e+01 1.765144e+02 9.056902e+01 1.421085e-14 4.633586e+01 -8.881784e-15 -1.028259e+01 4.685304e+01 -7.105427e-15 -1.901918e+01 1.533911e+01 -1.776357e-15 -6.222115e+01 1.563453e+02 3.936876e+01 1.421085e-14 6.350204e+01 2.341417e+00 -2.131628e-14 2.354117e+01 -2.886580e-15 -2.773859e+01 9.674756e+01 2.405590e+01 7.105427e-15 8.693756e+01 2.149904e+01 0.000000e+00 5.463949e+01 -1.776357e-15 -1.539319e+01 3.332359e+01 -4.884981e-15 -4.285149e+01 4.712096e+01 -3.552714e-15 -1.378765e+01 4.953003e+01 -7.105427e-15 -1.200290e+01 5.495109e+01 -5.329071e-15 -3.037829e+01 4.319616e+01 -3.552714e-15 -1.197240e+01 6.202337e+01 3.552714e-15 -4.715651e+00 4.531257e+01 8.881784e-16 -2.915946e+01 6.145078e+01 -1.065814e-14 -6.518878e+00 6.406180e+01 1.882938e-13 -2.161923e-01 5.002100e+01 -8.881784e-15 -3.484135e+01 9.426765e+01 2.369594e+01 7.105427e-15 7.357975e+01 2.025047e-13 -1.648827e-01 1.000022e+01 0.000000e+00 -1.201339e+02 2.306574e+01 1.776357e-15 -6.111244e+01 1.317484e+01 -1.421085e-14 -8.439142e+01 4.697895e+01 5.329071e-15 -5.802785e+00 7.923078e+01 5.200701e+00 3.552714e-15 7.359244e+01 7.675725e+00 -2.842171e-14 6.667633e+01 1.421085e-14 -5.423781e+00 4.748535e+01 -8.881784e-15 -5.291813e+00 5.023634e+01 -1.776357e-15 -9.376634e+00 4.904541e+00 1.421085e-14 -1.250614e+02 3.760828e+01 -4.315992e-15 -3.732974e+01 4.096892e+01 -4.440892e-16 -4.010072e+01 2.017925e+02 8.983228e+01 0.000000e+00 1.606200e+02 4.536296e+01 0.000000e+00 1.091752e+02 2.421377e+01 -7.105427e-15 1.063615e+02 3.012244e+01 7.105427e-15 6.054107e+01 -1.065814e-14 -5.813884e+00 6.180318e+01 -1.776357e-15 -1.650363e+01 1.968191e+02 8.400161e+01 1.421085e-14 5.694822e+01 -3.552714e-15 -1.984966e+01 9.351370e+01 1.817168e+01 -7.105427e-15 3.041518e+01 -3.552714e-15 -4.675722e+01 1.902068e+02 7.881169e+01 1.421085e-14 3.131997e+01 -6.217249e-15 -4.568788e+01 2.407688e+01 -5.329071e-15 -4.849307e+01 3.420079e+01 -8.881784e-16 -4.194266e+01 5.518284e+01 8.881784e-16 -3.553209e+01 9.030412e+01 1.934947e+01 -7.105427e-15 8.413269e+01 1.559049e+01 0.000000e+00 5.382614e+01 -7.105427e-15 -2.347833e+01 4.221158e+01 2.664535e-15 -2.708246e+01 8.989607e+01 8.241168e+00 -7.105427e-15 1.687205e+02 6.408527e+01 1.421085e-14 8.971550e+01 1.214943e+01 7.105427e-15 1.422502e+02 5.437766e+01 1.421085e-14 1.350324e+02 4.557831e+01 -1.421085e-14 1.565694e+02 6.927433e+01 2.842171e-14 8.327526e+01 1.776357e-14 -4.496653e+00 1.246907e+02 2.811395e+01 -7.105427e-15 4.742383e+01 -3.996803e-15 -3.800037e+01 4.046240e+01 -1.776357e-15 -4.124387e+01 5.106515e+01 3.552714e-15 -3.348141e+01 4.182194e+01 -6.439294e-15 -3.666622e+01 7.549964e+01 2.871889e+00 1.776357e-14 6.540707e+01 2.047002e+00 -3.907985e-14 9.400582e+01 1.079590e+01 -7.105427e-15 8.007396e+01 4.432540e+00 2.131628e-14 6.839205e+01 1.494613e+00 1.776357e-14 9.560001e+01 1.866841e+01 7.105427e-15 9.477707e+01 1.719476e+01 7.105427e-15 1.273685e+02 3.708416e+01 0.000000e+00 4.940162e+01 0.000000e+00 -1.996510e+01 2.882698e+01 -1.065814e-14 -5.272934e+01 7.220713e+01 -1.421085e-14 -2.345932e+00 1.806436e+02 6.071230e+01 -1.421085e-14 6.646128e+01 -4.263256e-14 -2.148691e+00 3.524113e+01 -6.217249e-15 -4.366235e+01 6.997913e+01 3.552714e-15 -9.387772e+00 3.486303e+01 -1.176836e-14 -4.081978e+01 5.659930e+01 -5.329071e-15 -1.340609e+01 8.561377e+00 -7.105427e-15 -1.513826e+02 5.193388e+01 2.664535e-15 -2.961455e+01 1.986318e+01 -7.105427e-15 -5.464160e+01 7.039595e+01 -7.105427e-15 -9.568776e+00 7.183290e+01 0.000000e+00 -1.265933e+01 7.748166e+01 8.021484e+00 3.552714e-15 1.495950e+02 4.387878e+01 0.000000e+00 4.890043e+01 -3.552714e-15 -7.579098e+00 8.722423e+01 2.289331e+00 -1.065814e-14 5.260022e+01 7.993606e-15 -3.059838e+01 5.216924e+01 -1.154632e-14 -3.594141e+01 1.234277e+02 3.413511e+01 7.105427e-15 1.357540e+02 3.003281e+01 1.421085e-14 5.989003e+01 -1.243450e-14 -2.859611e+01 5.366062e+01 1.776357e-15 -3.051412e+01 2.676259e+01 -7.105427e-15 -5.564550e+01 9.346733e+01 1.216948e+01 -1.421085e-14 9.885459e+01 9.038810e+00 1.421085e-14 6.583420e+01 3.552714e-15 -4.918349e+00 2.973359e+01 7.105427e-15 -5.171299e+01 4.752214e+01 1.776357e-15 -3.291752e+01 1.104853e+02 2.185052e+01 7.105427e-15 7.525646e+01 -1.065814e-14 -9.103628e+00 4.225053e+01 -3.552714e-15 -2.795207e+01 5.173549e+01 -1.243450e-14 -3.050324e+01 5.718729e+01 -1.243450e-14 -2.386910e+01 8.604741e+01 1.119007e+00 -1.207923e-13 8.017916e+01 7.898225e+00 0.000000e+00 1.213575e+02 3.406575e+01 -7.105427e-15 1.358138e+02 3.071634e+01 0.000000e+00 1.062460e+02 2.342434e+01 -1.421085e-14 6.449738e+01 2.707108e+00 0.000000e+00 1.195420e+02 2.973629e+01 -7.105427e-15 1.095140e+02 2.481409e+01 -7.105427e-15 1.228956e+02 2.683975e+01 7.105427e-15 6.604152e+01 -5.329071e-15 -2.604896e+01 6.581296e+01 3.552714e-15 -1.749472e+01 5.294393e+01 -5.329071e-15 -2.104393e+01 5.990417e+01 -1.776357e-15 -1.361030e+01 1.226056e+02 2.196852e+01 7.105427e-15 1.169514e+02 2.000629e+01 7.105427e-15 5.864274e+01 0.000000e+00 -2.249180e+01 6.485873e+01 1.776357e-15 -2.764316e+01 6.842029e+01 0.000000e+00 -2.003607e+01 9.282501e+01 1.036593e+01 0.000000e+00 8.388538e+01 1.093361e+01 -1.065814e-14 3.727165e+01 8.881784e-16 -3.669809e+01 6.056297e+01 3.552714e-15 -7.355629e+00 9.868487e+01 1.200155e+01 0.000000e+00 9.319776e+01 1.635081e+01 7.105427e-15 7.449643e+01 0.000000e+00 -1.801959e+01 1.008623e+02 1.894337e+01 1.421085e-14 5.576578e+01 -2.309264e-14 -2.471104e+01 6.978688e+01 -1.421085e-14 -3.606504e+00 8.270334e+01 2.752830e+00 -5.329071e-14 1.371879e+02 4.773061e+01 0.000000e+00 1.170193e+02 1.854157e+01 -2.842171e-14 8.252620e+01 5.100224e+00 -1.421085e-14 5.524559e+01 -3.552714e-15 -2.719508e+01 7.422413e+01 -5.329071e-14 -7.672558e-01 6.474512e+01 -3.552714e-15 -1.340261e+01 9.040179e+01 1.527667e-13 -2.570243e-01 7.496745e+01 -7.105427e-15 -1.857652e+01 1.071159e+02 1.618641e+01 1.421085e-14 8.578061e+01 0.000000e+00 -7.065179e+00 2.738294e+01 -8.881784e-16 -4.511032e+01 5.596633e+01 -1.243450e-14 -2.362763e+01 9.967724e+01 1.297037e+01 1.421085e-14   </DataArray>
  <DataArray type="Float64" Name="IST_StrainTensor" NumberOfComponents="9" format="ascii">1.146045e-04 -4.273714e-05 0.000000e+00 -4.273714e-05 -6.332433e-04 0.000000e+00 0.000000e+00 0.000000e+00 0.000000e+00 1.497320e-04 -1.939262e-05 0.000000e+00 -1.939262e-05 -5.801304e-04 0.000000e+00 0.000000e+00 0.000000e+00 0.000000e+00 1.599131e-04 -1.416054e-05 0.000000e+00 -1.416054e-05 -5.252322e-04 0.000000e+00 0.000000e+00 0.000000e+00 0.000000e+00 1.610328e-04 -1.262009e-05 0.000000e+00 -1.262009e-05 -4.706800e-04 0.000000e+00 0.000000e+00 0.000000e+00 0.000000e+00 1.625278e-04 -1.251768e-05 0.000000e+00 -1.251768e-05 -4.208047e-04 0.000000e+00 0.000000e+00 0.000000e+00 0.000000e+00 1.651909e-04 -1.279227e-05 0.000000e+00 -1.279227e-05 -3.725171e-04 0.000000e+00 0.000000e+00 0.000000e+00 0.000000e+00 1.714916e-04 -1.208196e-05 0.000000e+00 -1.208196e-05 -3.297192e-04 0.000000e+00 0.000000e+00 0.000000e+00 0.000000e+00 1.800437e-04 -1.254530e-05 0.000000e+00 -1.254530e-05 -2.896894e-04 0.000000e+00 0.000000e+00 0.000000e+00 0.000000e+00 1.915852e-04 -1.315266e-05 0.000000e+00 -1.315266e-05 -2.525313e-04 0.000000e+00 0.000000e+00 0.000000e+00 0.000000e+00 2.056046e-04 -1.399355e-05 0.000000e+00 -1.399355e-05 -2.176840e-04 0.000000e+00 0.000000e+00 0.000000e+00 0.000000e+00 2.209878e-04 -1.508819e-05 0.000000e+00 -1.508819e-05 -1.822773e-04 0.000000e+00 0.000000e+00 0.000000e+00 0.000000e+00 2.404449e-04 -1.532810e-05 0.000000e+00 -1.532810e-05 -1.505497e-04 0.000000e+00 0.000000e+00 0.000000e+00 0.000000e+00 2.624502e-04 -1.670091e-05 0.000000e+00 -1.670091e-05 -1.197578e-04 0.000000e+00 0.000000e+00 0.000000e+00 0.000000e+00 2.856204e-04 -1.771625e-05 0.000000e+00 -1.771625e-05 -8.598671e-05 0.000000e+00 0.000000e+00 0.000000e+00 0.000000e+00 3.131986e-04 -1.860320e-05 0.000000e+00 -1.860320e-05 -5.403785e-05 0.000000e+00 0.000000e+00 0.000000e+00 0.000000e+00 3.417262e-04 -2.091838e-05 0.000000e+00 -2.091838e-05 -1.674106e-05 0.000000e+00 0.000000e+00 0.000000e+00 0.000000e+00 3.740637e-04 -2.388788e-05 0.000000e+00 -2.388788e-05 2.292750e-05 0.000000e+00 0.000000e+00 0.000000e+00 0.000000e+00 4.138493e-04 -2.683957e-05 0.000000e+00 -2.683957e-05 6.171687e-05 0.000000e+00 0.000000e+00 0.000000e+00 0.000000e+00 4.566725e-04 -2.744241e-05 0.000000e+00 -2.744241e-05 1.123456e-04 0.000000e+00 0.000000e+00 0.000000e+00 0.000000e+00 5.091207e-04 -3.651337e-05 0.000000e+00 -3.651337e-05 1.674314e-04 0.000000e+00 0.000000e+00 0.000000e+00 0.000000e+00 5.763361e-04 -4.730412e-05 0.000000e+00 -4.730412e-05 2.330879e-04 0.000000e+00 0.000000e+00 0.000000e+00 0.000000e+00 6.688766e-04 -6.232603e-05 0.000000e+00 -6.232603e-05 3.210700e-04 0.000000e+00 0.000000e+00 0.000000e+00 0.000000e+00 8.141104e-04 -1.082836e-04 0.000000e+00 -1.082836e-04 4.420462e-04 0.000000e+00 0.000000e+00 0.000000e+00 0.000000e+00 1.091084e-03 -2.632312e-04 0.000000e+00 -2.632312e-04 6.739365e-04 0.000000e+00 0.000000e+00 0.000000e+00 0.000000e+00 1.493984e-03 -8.385031e-04 0.000000e+00 -8.385031e-04 1.568746e-03 0.000000e+00 0.000000e+00 0.000000e+00 0.000000e+00 2.371966e-04 1.608583e-05 0.000000e+00 1.608583e-05 -6.373141e-05 0.000000e+00 0.000000e+00 0.000000e+00 0.000000e+00 2.111119e-04 1.843915e-05 0.000000e+00 1.843915e-05 -6.649570e-05 0.000000e+00 0.000000e+00 0.000000e+00 0.000000e+00 1.627950e-04 2.482900e-05 0.000000e+00 2.482900e-05 -5.080078e-05 0.000000e+00 0.000000e+00 0.000000e+00 0.000000e+00 8.239086e-05 3.322983e-05 0.000000e+00 3.322983e-05 -2.093289e-05 0.000000e+00 0.000000e+00 0.000000e+00 0.000000e+00 9.878723e-05 3.882716e-05 0.000000e+00 3.882716e-05 -1.905462e-05 0.000000e+00 0.000000e+00 0.000000e+00 0.000000e+00 1.692094e-04 8.655276e-05 0.000000e+00 8.655276e-05 -2.130042e-05 0.000000e+00 0.000000e+00 0.000000e+00 0.000000e+00 2.024076e-04 6.045105e-05 0.000000e+00 6.045105e-05 -3.905404e-05 0.000000e+00 0.000000e+00 0.000000e+00 0.000000e+00 4.992765e-05 3.220836e-05 0.000000e+00 3.220836e-05 -1.110430e-05 0.000000e+00 0.000000e+00 0.000000e+00 0.000000e+00 -4.419187e-05 1.725823e-05 0.000000e+00 1.725823e-05 2.664265e-05 0.000000e+00 0.000000e+00 0.000000e+00 0.000000e+00 -3.715246e-05 -9.981876e-06 0.000000e+00 -9.981876e-06 1.543748e-05 0.000000e+00 0.000000e+00 0.000000e+00 0.000000e+00 -2.186298e-06 -4.299850e-06 0.000000e+00 -4.299850e-06 -2.446428e-06 0.000000e+00 0.000000e+00 0.000000e+00 0.000000e+00 3.141408e-06 -4.699609e-06 0.000000e+00 -4.699609e-06 -1.319406e-05 0.000000e+00 0.000000e+00 0.000000e+00 0.000000e+00 9.594728e-06 4.229788e-06 0.000000e+00 4.229788e-06 -2.130060e-05 0.000000e+00 0.000000e+00 0.000000e+00 0.000000e+00 -9.334735e-07 8.234249e-06 0.000000e+00 8.234249e-06 2.326767e-06 0.000000e+00 0.000000e+00 0.000000e+00 0.000000e+00 -8.826985e-06 2.997235e-06 0.000000e+00 2.997235e-06 2.127105e-05 0.000000e+00 0.000000e+00 0.000000e+00 0.000000e+00 -4.961225e-06 -4.627690e-06 0.000000e+00 -4.627690e-06 1.230753e-05 0.000000e+00 0.000000e+00 0.000000e+00 0.000000e+00 2.527301e-07 -3.951009e-06 0.000000e+00 -3.951009e-06 2.842392e-06 0.000000e+00 0.000000e+00 0.000000e+00 0.000000e+00 -2.470566e-07 -5.009436e-06 0.000000e+00 -5.009436e-06 1.742426e-06 0.000000e+00 0.000000e+00 0.000000e+00 0.000000e+00 3.678352e-06 -4.692150e-06 0.000000e+00 -4.692150e-06 -2.164499e-06 0.000000e+00 0.000000e+00 0.000000e+00 0.000000e+00 1.028870e-05 -2.610938e-06 0.000000e+00 -2.610938e-06 -3.000843e-06 0.000000e+00 0.000000e+00 0.000000e+00 0.000000e+00 1.760399e-05 8.138423e-07 0.000000e+00 8.138423e-07 -1.087770e-05 0.000000e+00 0.000000e+00 0.000000e+00 0.000000e+00 -1.517146e-05 1.949952e-05 0.000000e+00 1.949952e-05 -2.210519e-06 0.000000e+00 0.000000e+00 0.000000e+00 0.000000e+00 -1.320977e-04 4.042649e-05 0.000000e+00 4.042649e-05 3.631380e-05 0.000000e+00 0.000000e+00 0.000000e+00 0.000000e+00 -2.877607e-04 4.383257e-05 0.000000e+00 4.383257e-05 9.177074e-05 0.000000e+00 0.000000e+00 0.000000e+00 0.000000e+00 -4.011872e-04 2.187708e-05 0.000000e+00 2.187708e-05 1.407173e-04 0.000000e+00 0.000000e+00 0.000000e+00 0.000000e+00 -3.114181e-04 -4.916176e-05 0.000000e+00 -4.916176e-05 1.210853e-04 0.000000e+00 0.000000e+00 0.000000e+00 0.000000e+00 -1.427246e-04 -7.454821e-05 0.000000e+00 -7.454821e-05 4.879815e-05 0.000000e+00 0.000000e+00 0.000000e+00 0.000000e+00 -1.733203e-05 -2.806482e-05 0.000000e+00 -2.806482e-05 -1.197882e-05 0.000000e+00 0.000000e+00 0.000000e+00 0.000000e+00 -1.000641e-04 -6.625373e-05 0.000000e+00 -6.625373e-05 1.578068e-05 0.000000e+00 0.000000e+00 0.000000e+00 0.000000e+00 -1.260775e-05 -2.691324e-05 0.000000e+00 -2.691324e-05 -1.496245e-05 0.000000e+00 0.000000e+00 0.000000e+00 0.000000e+00 3.189330e-05 -7.238334e-05 0.000000e+00 -7.238334e-05 -1.234381e-04 0.000000e+00 0.000000e+00 0.000000e+00 0.000000e+00 1.380890e-05 2.179652e-05 0.000000e+00 2.179652e-05 -1.623146e-05 0.000000e+00 0.000000e+00 0.000000e+00 0.000000e+00 2.478927e-05 1.105757e-05 0.000000e+00 1.105757e-05 -1.949482e-05 0.000000e+00 0.000000e+00 0.000000e+00 0.000000e+00 2.804410e-05 -3.084829e-06 0.000000e+00 -3.084829e-06 -1.477598e-05 0.000000e+00 0.000000e+00 0.000000e+00 0.000000e+00 2.167085e-05 -1.243301e-05 0.000000e+00 -1.243301e-05 -1.701555e-06 0.000000e+00 0.000000e+00 0.000000e+00 0.000000e+00 6.158784e-06 -1.113386e-05 0.000000e+00 -1.113386e-05 1.655754e-05 0.000000e+00 0.000000e+00 0.000000e+00 0.000000e+00 -9.818123e-06 8.502119e-06 0.000000e+00 8.502119e-06 3.391861e-05 0.000000e+00 0.000000e+00 0.000000e+00 0.000000e+00 -1.147290e-05 3.559921e-05 0.000000e+00 3.559921e-05 3.914012e-05 0.000000e+00 0.000000e+00 0.000000e+00 0.000000e+00 -8.203854e-06 7.364706e-05 0.000000e+00 7.364706e-05 3.635906e-05 0.000000e+00 0.000000e+00 0.000000e+00 0.000000e+00 3.403848e-06 1.101923e-04 0.000000e+00 1.101923e-04 2.856777e-05 0.000000e+00 0.000000e+00 0.000000e+00 0.000000e+00 4.076860e-05 1.438758e-04 0.000000e+00 1.438758e-04 9.945469e-06 0.000000e+00 0.000000e+00 0.000000e+00 0.000000e+00 6.279379e-05 1.588249e-04 0.000000e+00 1.588249e-04 -8.280365e-06 0.000000e+00 0.000000e+00 0.000000e+00 0.000000e+00 7.288257e-05 1.633171e-04 0.000000e+00 1.633171e-04 -2.134260e-05 0.000000e+00 0.000000e+00 0.000000e+00 0.000000e+00 6.826836e-05 1.605229e-04 0.000000e+00 1.605229e-04 -2.467783e-05 0.000000e+00 0.000000e+00 0.000000e+00 0.000000e+00 4.728457e-05 1.560486e-04 0.000000e+00 1.560486e-04 -1.951310e-05 0.000000e+00 0.000000e+00 0.000000e+00 0.000000e+00 1.720822e-05 1.556317e-04 0.000000e+00 1.556317e-04 -9.830600e-06 0.000000e+00 0.000000e+00 0.000000e+00 0.000000e+00 -1.367508e-05 1.636980e-04 0.000000e+00 1.636980e-04 7.593225e-07 0.000000e+00 0.000000e+00 0.000000e+00 0.000000e+00 -2.666792e-05 1.769232e-04 0.000000e+00 1.769232e-04 -2.279306e-06 0.000000e+00 0.000000e+00 0.000000e+00 0.000000e+00 -2.061528e-05 1.805185e-04 0.000000e+00 1.805185e-04 -1.995698e-05 0.000000e+00 0.000000e+00 0.000000e+00 0.000000e+00 -8.689136e-07 1.670954e-04 0.000000e+00 1.670954e-04 -4.364556e-05 0.000000e+00 0.000000e+00 0.000000e+00 0.000000e+00 1.879032e-05 1.392803e-04 0.000000e+00 1.392803e-04 -6.180673e-05 0.000000e+00 0.000000e+00 0.000000e+00 0.000000e+00 3.127176e-05 1.084504e-04 0.000000e+00 1.084504e-04 -7.278138e-05 0.000000e+00 0.000000e+00 0.000000e+00 0.000000e+00 3.736877e-05 7.140383e-05 0.000000e+00 7.140383e-05 -7.803419e-05 0.000000e+00 0.000000e+00 0.000000e+00 0.000000e+00 3.200682e-05 3.555471e-05 0.000000e+00 3.555471e-05 -7.035971e-05 0.000000e+00 0.000000e+00 0.000000e+00 0.000000e+00 1.788543e-05 9.770354e-06 0.000000e+00 9.770354e-06 -5.431587e-05 0.000000e+00 0.000000e+00 0.000000e+00 0.000000e+00 -2.260267e-06 4.599715e-06 0.000000e+00 4.599715e-06 -2.881563e-05 0.000000e+00 0.000000e+00 0.000000e+00 0.000000e+00 -9.402255e-06 1.162933e-05 0.000000e+00 1.162933e-05 -1.501450e-05 0.000000e+00 0.000000e+00 0.000000e+00 0.000000e+00 -6.115902e-06 1.972960e-05 0.000000e+00 1.972960e-05 -1.046004e-05 0.000000e+00 0.000000e+00 0.000000e+00 0.000000e+00 2.300957e-06 2.399146e-05 0.000000e+00 2.399146e-05 -1.215818e-05 0.000000e+00 0.000000e+00 0.000000e+00 0.000000e+00 1.090275e-06 -5.368317e-06 0.000000e+00 -5.368317e-06 -3.457411e-06 0.000000e+00 0.000000e+00 0.000000e+00 0.000000e+00 6.414875e-05 -3.692441e-05 0.000000e+00 -3.692441e-05 -6.332433e-04 0.000000e+00 0.000000e+00 0.000000e+00 0.000000e+00 1.385318e-04 -2.728623e-05 0.000000e+00 -2.728623e-05 -6.097281e-04 0.000000e+00 0.000000e+00 0.000000e+00 0.000000e+00 1.516875e-04 -1.915120e-05 0.000000e+00 -1.915120e-05 -6.183549e-04 0.000000e+00 0.000000e+00 0.000000e+00 0.000000e+00 1.583375e-04 -7.826788e-06 0.000000e+00 -7.826788e-06 -5.938123e-04 0.000000e+00 0.000000e+00 0.000000e+00 0.000000e+00 1.568255e-04 -1.581024e-05 0.000000e+00 -1.581024e-05 -5.528978e-04 0.000000e+00 0.000000e+00 0.000000e+00 0.000000e+00 1.615142e-04 -9.723794e-07 0.000000e+00 -9.723794e-07 -5.382384e-04 0.000000e+00 0.000000e+00 0.000000e+00 0.000000e+00 1.603317e-04 -1.339710e-05 0.000000e+00 -1.339710e-05 -4.966959e-04 0.000000e+00 0.000000e+00 0.000000e+00 0.000000e+00 1.612263e-04 -1.238678e-05 0.000000e+00 -1.238678e-05 -4.447289e-04 0.000000e+00 0.000000e+00 0.000000e+00 0.000000e+00 1.633374e-04 -1.314856e-05 0.000000e+00 -1.314856e-05 -3.959349e-04 0.000000e+00 0.000000e+00 0.000000e+00 0.000000e+00 1.616064e-04 1.050000e-07 0.000000e+00 1.050000e-07 -4.077057e-04 0.000000e+00 0.000000e+00 0.000000e+00 0.000000e+00 1.650159e-04 -5.203103e-07 0.000000e+00 -5.203103e-07 -3.843205e-04 0.000000e+00 0.000000e+00 0.000000e+00 0.000000e+00 1.675434e-04 -1.229074e-05 0.000000e+00 -1.229074e-05 -3.497871e-04 0.000000e+00 0.000000e+00 0.000000e+00 0.000000e+00 1.762974e-04 -1.223442e-05 0.000000e+00 -1.223442e-05 -3.108481e-04 0.000000e+00 0.000000e+00 0.000000e+00 0.000000e+00 1.850631e-04 -1.290617e-05 0.000000e+00 -1.290617e-05 -2.700913e-04 0.000000e+00 0.000000e+00 0.000000e+00 0.000000e+00 1.978454e-04 -1.371261e-05 0.000000e+00 -1.371261e-05 -2.341620e-04 0.000000e+00 0.000000e+00 0.000000e+00 0.000000e+00 1.934170e-04 -3.586121e-06 0.000000e+00 -3.586121e-06 -2.427839e-04 0.000000e+00 0.000000e+00 0.000000e+00 0.000000e+00 2.009432e-04 -4.478763e-06 0.000000e+00 -4.478763e-06 -2.254847e-04 0.000000e+00 0.000000e+00 0.000000e+00 0.000000e+00 2.134121e-04 -1.461126e-05 0.000000e+00 -1.461126e-05 -2.005758e-04 0.000000e+00 0.000000e+00 0.000000e+00 0.000000e+00 2.300986e-04 -1.511245e-05 0.000000e+00 -1.511245e-05 -1.657497e-04 0.000000e+00 0.000000e+00 0.000000e+00 0.000000e+00 2.511914e-04 -1.589144e-05 0.000000e+00 -1.589144e-05 -1.352651e-04 0.000000e+00 0.000000e+00 0.000000e+00 0.000000e+00 2.444643e-04 -6.442843e-06 0.000000e+00 -6.442843e-06 -1.426332e-04 0.000000e+00 0.000000e+00 0.000000e+00 0.000000e+00 2.547070e-04 -6.886050e-06 0.000000e+00 -6.886050e-06 -1.269297e-04 0.000000e+00 0.000000e+00 0.000000e+00 0.000000e+00 2.742759e-04 -1.717958e-05 0.000000e+00 -1.717958e-05 -1.039143e-04 0.000000e+00 0.000000e+00 0.000000e+00 0.000000e+00 2.984460e-04 -1.791380e-05 0.000000e+00 -1.791380e-05 -6.908675e-05 0.000000e+00 0.000000e+00 0.000000e+00 0.000000e+00 3.276349e-04 -1.977917e-05 0.000000e+00 -1.977917e-05 -3.670656e-05 0.000000e+00 0.000000e+00 0.000000e+00 0.000000e+00 3.177337e-04 -9.068159e-06 0.000000e+00 -9.068159e-06 -4.484776e-05 0.000000e+00 0.000000e+00 0.000000e+00 0.000000e+00 3.325677e-04 -8.900832e-06 0.000000e+00 -8.900832e-06 -2.683859e-05 0.000000e+00 0.000000e+00 0.000000e+00 0.000000e+00 3.570756e-04 -2.232062e-05 0.000000e+00 -2.232062e-05 3.314673e-06 0.000000e+00 0.000000e+00 0.000000e+00 0.000000e+00 3.627062e-04 -1.093888e-05 0.000000e+00 -1.093888e-05 1.271162e-05 0.000000e+00 0.000000e+00 0.000000e+00 0.000000e+00 3.938293e-04 -2.550971e-05 0.000000e+00 -2.550971e-05 4.085966e-05 0.000000e+00 0.000000e+00 0.000000e+00 0.000000e+00 4.335978e-04 -2.726109e-05 0.000000e+00 -2.726109e-05 8.722330e-05 0.000000e+00 0.000000e+00 0.000000e+00 0.000000e+00 4.833687e-04 -2.982802e-05 0.000000e+00 -2.982802e-05 1.367005e-04 0.000000e+00 0.000000e+00 0.000000e+00 0.000000e+00 4.652640e-04 -1.435710e-05 0.000000e+00 -1.435710e-05 1.251228e-04 0.000000e+00 0.000000e+00 0.000000e+00 0.000000e+00 4.838100e-04 -1.606176e-05 0.000000e+00 -1.606176e-05 1.527445e-04 0.000000e+00 0.000000e+00 0.000000e+00 0.000000e+00 5.407589e-04 -4.148435e-05 0.000000e+00 -4.148435e-05 1.981645e-04 0.000000e+00 0.000000e+00 0.000000e+00 0.000000e+00 6.195059e-04 -5.464471e-05 0.000000e+00 -5.464471e-05 2.711287e-04 0.000000e+00 0.000000e+00 0.000000e+00 0.000000e+00 7.325619e-04 -7.705436e-05 0.000000e+00 -7.705436e-05 3.760092e-04 0.000000e+00 0.000000e+00 0.000000e+00 0.000000e+00 9.254944e-04 -1.623809e-04 0.000000e+00 -1.623809e-04 5.363936e-04 0.000000e+00 0.000000e+00 0.000000e+00 0.000000e+00 7.613718e-04 -7.584153e-05 0.000000e+00 -7.584153e-05 4.909958e-04 0.000000e+00 0.000000e+00 0.000000e+00 0.000000e+00 7.981407e-04 -1.206178e-04 0.000000e+00 -1.206178e-04 6.045133e-04 0.000000e+00 0.000000e+00 0.000000e+00 0.000000e+00 1.318239e-03 -4.666526e-04 0.000000e+00 -4.666526e-04 9.372959e-04 0.000000e+00 0.000000e+00 0.000000e+00 0.000000e+00 3.765713e-04 1.163166e-05 0.000000e+00 1.163166e-05 -1.143714e-04 0.000000e+00 0.000000e+00 0.000000e+00 0.000000e+00 2.288445e-04 2.116170e-06 0.000000e+00 2.116170e-06 -8.084796e-05 0.000000e+00 0.000000e+00 0.000000e+00 0.000000e+00 2.265066e-04 1.462326e-05 0.000000e+00 1.462326e-05 -6.939283e-05 0.000000e+00 0.000000e+00 0.000000e+00 0.000000e+00 1.891515e-04 2.180393e-05 0.000000e+00 2.180393e-05 -5.870552e-05 0.000000e+00 0.000000e+00 0.000000e+00 0.000000e+00 1.299285e-04 2.907933e-05 0.000000e+00 2.907933e-05 -4.177609e-05 0.000000e+00 0.000000e+00 0.000000e+00 0.000000e+00 1.130825e-04 6.447272e-05 0.000000e+00 6.447272e-05 -2.977740e-05 0.000000e+00 0.000000e+00 0.000000e+00 0.000000e+00 1.416244e-04 5.485600e-05 0.000000e+00 5.485600e-05 -2.054140e-05 0.000000e+00 0.000000e+00 0.000000e+00 0.000000e+00 1.264713e-04 7.268758e-05 0.000000e+00 7.268758e-05 -1.230945e-05 0.000000e+00 0.000000e+00 0.000000e+00 0.000000e+00 1.135930e-04 3.830987e-05 0.000000e+00 3.830987e-05 -2.977499e-05 0.000000e+00 0.000000e+00 0.000000e+00 0.000000e+00 -3.999014e-06 2.726230e-05 0.000000e+00 2.726230e-05 1.171606e-05 0.000000e+00 0.000000e+00 0.000000e+00 0.000000e+00 -5.867484e-06 1.168367e-05 0.000000e+00 1.168367e-05 -3.435240e-06 0.000000e+00 0.000000e+00 0.000000e+00 0.000000e+00 -2.201182e-05 -5.582533e-06 0.000000e+00 -5.582533e-06 3.068980e-06 0.000000e+00 0.000000e+00 0.000000e+00 0.000000e+00 -5.336626e-05 3.299125e-07 0.000000e+00 3.299125e-07 2.522356e-05 0.000000e+00 0.000000e+00 0.000000e+00 0.000000e+00 -1.497834e-05 -9.765208e-06 0.000000e+00 -9.765208e-06 3.906530e-06 0.000000e+00 0.000000e+00 0.000000e+00 0.000000e+00 3.870027e-06 -5.586422e-06 0.000000e+00 -5.586422e-06 -1.212116e-05 0.000000e+00 0.000000e+00 0.000000e+00 0.000000e+00 9.817882e-06 -1.584436e-06 0.000000e+00 -1.584436e-06 -2.246881e-05 0.000000e+00 0.000000e+00 0.000000e+00 0.000000e+00 5.027472e-06 -4.335798e-07 0.000000e+00 -4.335798e-07 -1.620122e-05 0.000000e+00 0.000000e+00 0.000000e+00 0.000000e+00 5.346218e-06 7.314235e-06 0.000000e+00 7.314235e-06 -1.169355e-05 0.000000e+00 0.000000e+00 0.000000e+00 0.000000e+00 -6.083414e-06 5.994584e-06 0.000000e+00 5.994584e-06 1.372608e-05 0.000000e+00 0.000000e+00 0.000000e+00 0.000000e+00 -7.811734e-06 -1.090164e-06 0.000000e+00 -1.090164e-06 1.971138e-05 0.000000e+00 0.000000e+00 0.000000e+00 0.000000e+00 -1.320109e-04 4.280495e-05 0.000000e+00 4.280495e-05 3.961784e-05 0.000000e+00 0.000000e+00 0.000000e+00 0.000000e+00 -2.094725e-04 4.389285e-05 0.000000e+00 4.389285e-05 6.213959e-05 0.000000e+00 0.000000e+00 0.000000e+00 0.000000e+00 3.224080e-06 -3.947502e-06 0.000000e+00 -3.947502e-06 1.527632e-07 0.000000e+00 0.000000e+00 0.000000e+00 0.000000e+00 -2.495919e-07 2.906528e-06 0.000000e+00 2.906528e-06 1.694181e-06 0.000000e+00 0.000000e+00 0.000000e+00 0.000000e+00 1.055212e-05 9.342051e-06 0.000000e+00 9.342051e-06 -1.044417e-05 0.000000e+00 0.000000e+00 0.000000e+00 0.000000e+00 -1.697480e-05 1.313815e-05 0.000000e+00 1.313815e-05 6.193018e-06 0.000000e+00 0.000000e+00 0.000000e+00 0.000000e+00 -6.248062e-05 3.099169e-05 0.000000e+00 3.099169e-05 1.221923e-05 0.000000e+00 0.000000e+00 0.000000e+00 0.000000e+00 -1.879892e-04 4.343829e-05 0.000000e+00 4.343829e-05 5.401558e-05 0.000000e+00 0.000000e+00 0.000000e+00 0.000000e+00 -3.573170e-04 3.641057e-05 0.000000e+00 3.641057e-05 1.192327e-04 0.000000e+00 0.000000e+00 0.000000e+00 0.000000e+00 -2.452317e-04 -5.303308e-05 0.000000e+00 -5.303308e-05 6.680414e-05 0.000000e+00 0.000000e+00 0.000000e+00 0.000000e+00 -3.918305e-04 -1.088625e-05 0.000000e+00 -1.088625e-05 1.450952e-04 0.000000e+00 0.000000e+00 0.000000e+00 0.000000e+00 -1.765211e-04 -5.792390e-05 0.000000e+00 -5.792390e-05 4.184893e-05 0.000000e+00 0.000000e+00 0.000000e+00 0.000000e+00 2.148530e-05 1.171095e-05 0.000000e+00 1.171095e-05 -1.540369e-05 0.000000e+00 0.000000e+00 0.000000e+00 0.000000e+00 8.991906e-06 1.927841e-05 0.000000e+00 1.927841e-05 -1.217278e-05 0.000000e+00 0.000000e+00 0.000000e+00 0.000000e+00 2.820689e-05 -2.312099e-06 0.000000e+00 -2.312099e-06 -1.391441e-05 0.000000e+00 0.000000e+00 0.000000e+00 0.000000e+00 2.457854e-05 -1.557288e-05 0.000000e+00 -1.557288e-05 -3.523375e-06 0.000000e+00 0.000000e+00 0.000000e+00 0.000000e+00 1.473145e-05 -2.190761e-05 0.000000e+00 -2.190761e-05 1.593155e-05 0.000000e+00 0.000000e+00 0.000000e+00 0.000000e+00 -2.240434e-06 -1.025544e-05 0.000000e+00 -1.025544e-05 4.135202e-05 0.000000e+00 0.000000e+00 0.000000e+00 0.000000e+00 -8.503002e-06 1.852448e-05 0.000000e+00 1.852448e-05 5.356031e-05 0.000000e+00 0.000000e+00 0.000000e+00 0.000000e+00 -4.564114e-06 5.602947e-05 0.000000e+00 5.602947e-05 6.220605e-05 0.000000e+00 0.000000e+00 0.000000e+00 0.000000e+00 1.389583e-05 9.510012e-05 0.000000e+00 9.510012e-05 4.995217e-05 0.000000e+00 0.000000e+00 0.000000e+00 0.000000e+00 4.433714e-05 1.327050e-04 0.000000e+00 1.327050e-04 3.652981e-05 0.000000e+00 0.000000e+00 0.000000e+00 0.000000e+00 6.610093e-05 1.508532e-04 0.000000e+00 1.508532e-04 9.588848e-06 0.000000e+00 0.000000e+00 0.000000e+00 0.000000e+00 7.393771e-05 1.571061e-04 0.000000e+00 1.571061e-04 -8.341635e-06 0.000000e+00 0.000000e+00 0.000000e+00 0.000000e+00 6.844890e-05 1.616256e-04 0.000000e+00 1.616256e-04 -1.803235e-05 0.000000e+00 0.000000e+00 0.000000e+00 0.000000e+00 5.286001e-05 1.637685e-04 0.000000e+00 1.637685e-04 -1.716146e-05 0.000000e+00 0.000000e+00 0.000000e+00 0.000000e+00 3.031282e-05 1.660434e-04 0.000000e+00 1.660434e-04 -1.050269e-05 0.000000e+00 0.000000e+00 0.000000e+00 0.000000e+00 3.693722e-06 1.708746e-04 0.000000e+00 1.708746e-04 -2.115725e-06 0.000000e+00 0.000000e+00 0.000000e+00 0.000000e+00 -1.718719e-05 1.783239e-04 0.000000e+00 1.783239e-04 -3.408282e-06 0.000000e+00 0.000000e+00 0.000000e+00 0.000000e+00 -2.554896e-05 1.817329e-04 0.000000e+00 1.817329e-04 -1.894514e-05 0.000000e+00 0.000000e+00 0.000000e+00 0.000000e+00 -2.198580e-05 1.746997e-04 0.000000e+00 1.746997e-04 -4.276765e-05 0.000000e+00 0.000000e+00 0.000000e+00 0.000000e+00 -9.584063e-06 1.533094e-04 0.000000e+00 1.533094e-04 -6.503931e-05 0.000000e+00 0.000000e+00 0.000000e+00 0.000000e+00 4.785037e-06 1.231217e-04 0.000000e+00 1.231217e-04 -8.040402e-05 0.000000e+00 0.000000e+00 0.000000e+00 0.000000e+00 1.932733e-05 8.896739e-05 0.000000e+00 8.896739e-05 -9.352506e-05 0.000000e+00 0.000000e+00 0.000000e+00 0.000000e+00 2.428715e-05 4.988701e-05 0.000000e+00 4.988701e-05 -9.378046e-05 0.000000e+00 0.000000e+00 0.000000e+00 0.000000e+00 1.703848e-05 1.702752e-05 0.000000e+00 1.702752e-05 -7.750463e-05 0.000000e+00 0.000000e+00 0.000000e+00 0.000000e+00 1.771121e-06 -1.452793e-06 0.000000e+00 -1.452793e-06 -5.084640e-05 0.000000e+00 0.000000e+00 0.000000e+00 0.000000e+00 -8.697517e-06 4.280968e-07 0.000000e+00 4.280968e-07 -2.554430e-05 0.000000e+00 0.000000e+00 0.000000e+00 0.000000e+00 -9.234611e-06 9.746638e-06 0.000000e+00 9.746638e-06 -1.305850e-05 0.000000e+00 0.000000e+00 0.000000e+00 0.000000e+00 -2.993674e-06 1.761375e-05 0.000000e+00 1.761375e-05 -9.373204e-06 0.000000e+00 0.000000e+00 0.000000e+00 0.000000e+00 -7.029582e-05 3.620079e-05 0.000000e+00 3.620079e-05 4.203051e-04 0.000000e+00 0.000000e+00 0.000000e+00 0.000000e+00 1.600520e-04 -3.414478e-06 0.000000e+00 -3.414478e-06 -5.658737e-04 0.000000e+00 0.000000e+00 0.000000e+00 0.000000e+00 1.616362e-04 4.968302e-07 0.000000e+00 4.968302e-07 -5.104912e-04 0.000000e+00 0.000000e+00 0.000000e+00 0.000000e+00 1.615954e-04 5.973047e-07 0.000000e+00 5.973047e-07 -4.571298e-04 0.000000e+00 0.000000e+00 0.000000e+00 0.000000e+00 1.699753e-04 -1.776961e-06 0.000000e+00 -1.776961e-06 -3.399834e-04 0.000000e+00 0.000000e+00 0.000000e+00 0.000000e+00 1.674048e-04 -9.056316e-07 0.000000e+00 -9.056316e-07 -3.614994e-04 0.000000e+00 0.000000e+00 0.000000e+00 0.000000e+00 1.735619e-04 -2.116997e-06 0.000000e+00 -2.116997e-06 -3.201758e-04 0.000000e+00 0.000000e+00 0.000000e+00 0.000000e+00 1.818330e-04 -2.657831e-06 0.000000e+00 -2.657831e-06 -2.797859e-04 0.000000e+00 0.000000e+00 0.000000e+00 0.000000e+00 2.157958e-04 -4.702020e-06 0.000000e+00 -4.702020e-06 -1.903647e-04 0.000000e+00 0.000000e+00 0.000000e+00 0.000000e+00 2.077415e-04 -4.266530e-06 0.000000e+00 -4.266530e-06 -2.081611e-04 0.000000e+00 0.000000e+00 0.000000e+00 0.000000e+00 2.253090e-04 -5.806982e-06 0.000000e+00 -5.806982e-06 -1.736753e-04 0.000000e+00 0.000000e+00 0.000000e+00 0.000000e+00 2.785739e-04 -7.292650e-06 0.000000e+00 -7.292650e-06 -9.442840e-05 0.000000e+00 0.000000e+00 0.000000e+00 0.000000e+00 2.667847e-04 -7.265160e-06 0.000000e+00 -7.265160e-06 -1.110654e-04 0.000000e+00 0.000000e+00 0.000000e+00 0.000000e+00 2.914552e-04 -7.665994e-06 0.000000e+00 -7.665994e-06 -7.730330e-05 0.000000e+00 0.000000e+00 0.000000e+00 0.000000e+00 3.468490e-04 -9.430539e-06 0.000000e+00 -9.430539e-06 -7.140285e-06 0.000000e+00 0.000000e+00 0.000000e+00 0.000000e+00 3.806103e-04 -1.265553e-05 0.000000e+00 -1.265553e-05 3.171762e-05 0.000000e+00 0.000000e+00 0.000000e+00 0.000000e+00 4.236630e-04 -1.199818e-05 0.000000e+00 -1.199818e-05 7.347758e-05 0.000000e+00 0.000000e+00 0.000000e+00 0.000000e+00 5.477955e-04 -2.246252e-05 0.000000e+00 -2.246252e-05 2.148419e-04 0.000000e+00 0.000000e+00 0.000000e+00 0.000000e+00 5.153284e-04 -1.941517e-05 0.000000e+00 -1.941517e-05 1.823181e-04 0.000000e+00 0.000000e+00 0.000000e+00 0.000000e+00 5.836922e-04 -2.601805e-05 0.000000e+00 -2.601805e-05 2.513349e-04 0.000000e+00 0.000000e+00 0.000000e+00 0.000000e+00 6.739923e-04 -3.617117e-05 0.000000e+00 -3.617117e-05 3.487243e-04 0.000000e+00 0.000000e+00 0.000000e+00 0.000000e+00 6.415921e-04 -2.529784e-04 0.000000e+00 -2.529784e-04 1.174458e-03 0.000000e+00 0.000000e+00 0.000000e+00 0.000000e+00 7.820206e-04 -1.907516e-04 0.000000e+00 -1.907516e-04 7.953578e-04 0.000000e+00 0.000000e+00 0.000000e+00 0.000000e+00 2.988433e-04 2.087919e-05 0.000000e+00 2.087919e-05 -9.097005e-05 0.000000e+00 0.000000e+00 0.000000e+00 0.000000e+00 2.163899e-04 2.200037e-05 0.000000e+00 2.200037e-05 -6.409947e-05 0.000000e+00 0.000000e+00 0.000000e+00 0.000000e+00 1.602890e-04 2.708062e-05 0.000000e+00 2.708062e-05 -4.769370e-05 0.000000e+00 0.000000e+00 0.000000e+00 0.000000e+00 1.235676e-04 4.273067e-05 0.000000e+00 4.273067e-05 -3.990172e-05 0.000000e+00 0.000000e+00 0.000000e+00 0.000000e+00 4.245888e-05 2.585664e-05 0.000000e+00 2.585664e-05 -1.608273e-05 0.000000e+00 0.000000e+00 0.000000e+00 0.000000e+00 -2.276185e-05 -1.220230e-06 0.000000e+00 -1.220230e-06 1.071463e-06 0.000000e+00 0.000000e+00 0.000000e+00 0.000000e+00 -1.417143e-05 -8.431894e-06 0.000000e+00 -8.431894e-06 2.611265e-06 0.000000e+00 0.000000e+00 0.000000e+00 0.000000e+00 3.784212e-06 5.098049e-06 0.000000e+00 5.098049e-06 -1.339584e-05 0.000000e+00 0.000000e+00 0.000000e+00 0.000000e+00 -4.846143e-07 8.619215e-06 0.000000e+00 8.619215e-06 -4.876867e-07 0.000000e+00 0.000000e+00 0.000000e+00 0.000000e+00 -2.139139e-06 -2.894982e-08 0.000000e+00 -2.894982e-08 6.430723e-06 0.000000e+00 0.000000e+00 0.000000e+00 0.000000e+00 -4.480439e-05 2.432685e-05 0.000000e+00 2.432685e-05 1.353705e-05 0.000000e+00 0.000000e+00 0.000000e+00 0.000000e+00 -2.341992e-04 3.765002e-05 0.000000e+00 3.765002e-05 6.575305e-05 0.000000e+00 0.000000e+00 0.000000e+00 0.000000e+00 -2.770263e-04 -9.623203e-07 0.000000e+00 -9.623203e-07 7.859749e-05 0.000000e+00 0.000000e+00 0.000000e+00 0.000000e+00 5.548117e-05 -6.363811e-05 0.000000e+00 -6.363811e-05 -1.643022e-04 0.000000e+00 0.000000e+00 0.000000e+00 0.000000e+00 1.876900e-04 -3.228730e-06 0.000000e+00 -3.228730e-06 -2.609665e-04 0.000000e+00 0.000000e+00 0.000000e+00 0.000000e+00 7.096859e-04 -5.084119e-05 0.000000e+00 -5.084119e-05 4.109623e-04 0.000000e+00 0.000000e+00 0.000000e+00 0.000000e+00 1.862152e-04 2.390150e-05 0.000000e+00 2.390150e-05 -5.512229e-05 0.000000e+00 0.000000e+00 0.000000e+00 0.000000e+00 1.344111e-04 3.056851e-05 0.000000e+00 3.056851e-05 -4.137145e-05 0.000000e+00 0.000000e+00 0.000000e+00 0.000000e+00 -1.976699e-06 -3.080387e-06 0.000000e+00 -3.080387e-06 4.578777e-06 0.000000e+00 0.000000e+00 0.000000e+00 0.000000e+00 1.615728e-04 1.461449e-07 0.000000e+00 1.461449e-07 -4.321811e-04 0.000000e+00 0.000000e+00 0.000000e+00 0.000000e+00 1.623266e-04 9.355223e-07 0.000000e+00 9.355223e-07 -4.833061e-04 0.000000e+00 0.000000e+00 0.000000e+00 0.000000e+00 1.775036e-04 -1.717786e-06 0.000000e+00 -1.717786e-06 -2.998852e-04 0.000000e+00 0.000000e+00 0.000000e+00 0.000000e+00 2.347579e-04 -6.280356e-06 0.000000e+00 -6.280356e-06 -1.580334e-04 0.000000e+00 0.000000e+00 0.000000e+00 0.000000e+00 3.038541e-04 -8.798958e-06 0.000000e+00 -8.798958e-06 -6.099243e-05 0.000000e+00 0.000000e+00 0.000000e+00 0.000000e+00 4.451210e-04 -1.199666e-05 0.000000e+00 -1.199666e-05 9.940880e-05 0.000000e+00 0.000000e+00 0.000000e+00 0.000000e+00 4.014136e-04 -1.310836e-05 0.000000e+00 -1.310836e-05 5.100304e-05 0.000000e+00 0.000000e+00 0.000000e+00 0.000000e+00 6.295461e-04 -2.768544e-05 0.000000e+00 -2.768544e-05 2.957073e-04 0.000000e+00 0.000000e+00 0.000000e+00 0.000000e+00 2.537933e-04 2.167600e-05 0.000000e+00 2.167600e-05 -7.495621e-05 0.000000e+00 0.000000e+00 0.000000e+00 0.000000e+00 8.708658e-05 3.359496e-05 0.000000e+00 3.359496e-05 -2.705540e-05 0.000000e+00 0.000000e+00 0.000000e+00 0.000000e+00 -1.866281e-06 3.199502e-06 0.000000e+00 3.199502e-06 5.971855e-06 0.000000e+00 0.000000e+00 0.000000e+00 0.000000e+00 2.085246e-06 8.567379e-06 0.000000e+00 8.567379e-06 -6.954374e-06 0.000000e+00 0.000000e+00 0.000000e+00 0.000000e+00 -8.288168e-05 3.449855e-05 0.000000e+00 3.449855e-05 2.458891e-05 0.000000e+00 0.000000e+00 0.000000e+00 0.000000e+00 -2.684654e-04 2.433749e-05 0.000000e+00 2.433749e-05 7.337957e-05 0.000000e+00 0.000000e+00 0.000000e+00 0.000000e+00 1.632472e-04 -2.679822e-05 0.000000e+00 -2.679822e-05 -5.134692e-04 0.000000e+00 0.000000e+00 0.000000e+00 0.000000e+00 1.613638e-04 -2.521843e-05 0.000000e+00 -2.521843e-05 -4.586792e-04 0.000000e+00 0.000000e+00 0.000000e+00 0.000000e+00 1.777859e-04 -2.789572e-05 0.000000e+00 -2.789572e-05 -3.000012e-04 0.000000e+00 0.000000e+00 0.000000e+00 0.000000e+00 1.693649e-04 -2.667601e-05 0.000000e+00 -2.667601e-05 -3.402203e-04 0.000000e+00 0.000000e+00 0.000000e+00 0.000000e+00 1.620102e-04 -2.605769e-05 0.000000e+00 -2.605769e-05 -4.864648e-04 0.000000e+00 0.000000e+00 0.000000e+00 0.000000e+00 1.652982e-04 -1.016001e-05 0.000000e+00 -1.016001e-05 -4.723984e-04 0.000000e+00 0.000000e+00 0.000000e+00 0.000000e+00 1.731453e-04 -2.686915e-05 0.000000e+00 -2.686915e-05 -3.189753e-04 0.000000e+00 0.000000e+00 0.000000e+00 0.000000e+00 1.717621e-04 -1.603126e-05 0.000000e+00 -1.603126e-05 -3.297487e-04 0.000000e+00 0.000000e+00 0.000000e+00 0.000000e+00 1.715678e-04 -1.665319e-05 0.000000e+00 -1.665319e-05 -3.088375e-04 0.000000e+00 0.000000e+00 0.000000e+00 0.000000e+00 1.651369e-04 -2.725959e-05 0.000000e+00 -2.725959e-05 -3.601886e-04 0.000000e+00 0.000000e+00 0.000000e+00 0.000000e+00 1.719396e-04 -1.545213e-05 0.000000e+00 -1.545213e-05 -3.514004e-04 0.000000e+00 0.000000e+00 0.000000e+00 0.000000e+00 2.347216e-04 -3.710249e-05 0.000000e+00 -3.710249e-05 -1.580414e-04 0.000000e+00 0.000000e+00 0.000000e+00 0.000000e+00 2.157864e-04 -3.616624e-05 0.000000e+00 -3.616624e-05 -1.912265e-04 0.000000e+00 0.000000e+00 0.000000e+00 0.000000e+00 7.323213e-04 -1.962919e-04 0.000000e+00 -1.962919e-04 4.351627e-04 0.000000e+00 0.000000e+00 0.000000e+00 0.000000e+00 2.237515e-04 -3.657171e-05 0.000000e+00 -3.657171e-05 -1.732822e-04 0.000000e+00 0.000000e+00 0.000000e+00 0.000000e+00 2.212296e-04 -2.562301e-05 0.000000e+00 -2.562301e-05 -1.825915e-04 0.000000e+00 0.000000e+00 0.000000e+00 0.000000e+00 2.287902e-04 -2.743765e-05 0.000000e+00 -2.743765e-05 -1.654015e-04 0.000000e+00 0.000000e+00 0.000000e+00 0.000000e+00 2.088144e-04 -3.461422e-05 0.000000e+00 -3.461422e-05 -2.087034e-04 0.000000e+00 0.000000e+00 0.000000e+00 0.000000e+00 2.082600e-04 -2.473296e-05 0.000000e+00 -2.473296e-05 -1.991167e-04 0.000000e+00 0.000000e+00 0.000000e+00 0.000000e+00 2.774064e-04 -4.456314e-05 0.000000e+00 -4.456314e-05 -9.345497e-05 0.000000e+00 0.000000e+00 0.000000e+00 0.000000e+00 3.037122e-04 -4.533395e-05 0.000000e+00 -4.533395e-05 -6.061126e-05 0.000000e+00 0.000000e+00 0.000000e+00 0.000000e+00 2.903342e-04 -4.506017e-05 0.000000e+00 -4.506017e-05 -7.743830e-05 0.000000e+00 0.000000e+00 0.000000e+00 0.000000e+00 2.830022e-04 -3.457903e-05 0.000000e+00 -3.457903e-05 -8.537174e-05 0.000000e+00 0.000000e+00 0.000000e+00 0.000000e+00 2.984468e-04 -3.427055e-05 0.000000e+00 -3.427055e-05 -6.949743e-05 0.000000e+00 0.000000e+00 0.000000e+00 0.000000e+00 2.661246e-04 -4.296218e-05 0.000000e+00 -4.296218e-05 -1.112513e-04 0.000000e+00 0.000000e+00 0.000000e+00 0.000000e+00 2.668198e-04 -3.253315e-05 0.000000e+00 -3.253315e-05 -1.015961e-04 0.000000e+00 0.000000e+00 0.000000e+00 0.000000e+00 3.484807e-04 -5.526040e-05 0.000000e+00 -5.526040e-05 -3.936319e-06 0.000000e+00 0.000000e+00 0.000000e+00 0.000000e+00 4.352609e-04 -6.977465e-05 0.000000e+00 -6.977465e-05 1.064476e-04 0.000000e+00 0.000000e+00 0.000000e+00 0.000000e+00 3.817821e-04 -6.324573e-05 0.000000e+00 -6.324573e-05 3.623993e-05 0.000000e+00 0.000000e+00 0.000000e+00 0.000000e+00 4.164925e-04 -7.017251e-05 0.000000e+00 -7.017251e-05 8.133337e-05 0.000000e+00 0.000000e+00 0.000000e+00 0.000000e+00 4.292718e-04 -5.407152e-05 0.000000e+00 -5.407152e-05 9.063574e-05 0.000000e+00 0.000000e+00 0.000000e+00 0.000000e+00 6.147468e-04 -1.403486e-04 0.000000e+00 -1.403486e-04 3.146894e-04 0.000000e+00 0.000000e+00 0.000000e+00 0.000000e+00 5.470418e-04 -1.132053e-04 0.000000e+00 -1.132053e-04 2.282588e-04 0.000000e+00 0.000000e+00 0.000000e+00 0.000000e+00 3.982543e-04 -6.755165e-05 0.000000e+00 -6.755165e-05 5.783767e-05 0.000000e+00 0.000000e+00 0.000000e+00 0.000000e+00 3.797982e-04 -5.164487e-05 0.000000e+00 -5.164487e-05 4.622193e-05 0.000000e+00 0.000000e+00 0.000000e+00 0.000000e+00 3.983770e-04 -5.313898e-05 0.000000e+00 -5.313898e-05 6.846355e-05 0.000000e+00 0.000000e+00 0.000000e+00 0.000000e+00 5.803201e-04 -1.282761e-04 0.000000e+00 -1.282761e-04 2.702468e-04 0.000000e+00 0.000000e+00 0.000000e+00 0.000000e+00 5.275923e-04 -9.462232e-05 0.000000e+00 -9.462232e-05 2.499464e-04 0.000000e+00 0.000000e+00 0.000000e+00 0.000000e+00 5.631658e-04 -1.042845e-04 0.000000e+00 -1.042845e-04 2.906203e-04 0.000000e+00 0.000000e+00 0.000000e+00 0.000000e+00 5.195896e-04 -9.851907e-05 0.000000e+00 -9.851907e-05 1.900078e-04 0.000000e+00 0.000000e+00 0.000000e+00 0.000000e+00 4.959011e-04 -8.317057e-05 0.000000e+00 -8.317057e-05 2.122977e-04 0.000000e+00 0.000000e+00 0.000000e+00 0.000000e+00 6.713285e-04 -1.578969e-04 0.000000e+00 -1.578969e-04 3.710997e-04 0.000000e+00 0.000000e+00 0.000000e+00 0.000000e+00 6.129462e-04 -1.115338e-04 0.000000e+00 -1.115338e-04 3.369015e-04 0.000000e+00 0.000000e+00 0.000000e+00 0.000000e+00 6.008044e-04 -1.442237e-04 0.000000e+00 -1.442237e-04 4.147860e-04 0.000000e+00 0.000000e+00 0.000000e+00 0.000000e+00 2.482138e-04 6.466202e-05 0.000000e+00 6.466202e-05 -6.980945e-05 0.000000e+00 0.000000e+00 0.000000e+00 0.000000e+00 6.679888e-04 -3.825719e-04 0.000000e+00 -3.825719e-04 1.249487e-03 0.000000e+00 0.000000e+00 0.000000e+00 0.000000e+00 1.882265e-04 5.729054e-05 0.000000e+00 5.729054e-05 -5.813373e-05 0.000000e+00 0.000000e+00 0.000000e+00 0.000000e+00 2.933653e-04 8.372310e-05 0.000000e+00 8.372310e-05 -6.966458e-05 0.000000e+00 0.000000e+00 0.000000e+00 0.000000e+00 2.872007e-04 7.043779e-05 0.000000e+00 7.043779e-05 -8.430108e-05 0.000000e+00 0.000000e+00 0.000000e+00 0.000000e+00 3.551510e-04 1.320599e-04 0.000000e+00 1.320599e-04 -5.826599e-05 0.000000e+00 0.000000e+00 0.000000e+00 0.000000e+00 3.391205e-04 9.521462e-05 0.000000e+00 9.521462e-05 -9.550487e-05 0.000000e+00 0.000000e+00 0.000000e+00 0.000000e+00 8.097670e-04 -4.111240e-04 0.000000e+00 -4.111240e-04 9.250641e-04 0.000000e+00 0.000000e+00 0.000000e+00 0.000000e+00 3.694356e-04 -2.238894e-04 0.000000e+00 -2.238894e-04 1.165940e-03 0.000000e+00 0.000000e+00 0.000000e+00 0.000000e+00 2.163899e-04 5.941260e-05 0.000000e+00 5.941260e-05 -6.379606e-05 0.000000e+00 0.000000e+00 0.000000e+00 0.000000e+00 2.049373e-04 5.694941e-05 0.000000e+00 5.694941e-05 -6.265626e-05 0.000000e+00 0.000000e+00 0.000000e+00 0.000000e+00 5.141422e-04 -4.370756e-05 0.000000e+00 -4.370756e-05 -3.069800e-04 0.000000e+00 0.000000e+00 0.000000e+00 0.000000e+00 7.341388e-05 8.066416e-05 0.000000e+00 8.066416e-05 -1.517307e-05 0.000000e+00 0.000000e+00 0.000000e+00 0.000000e+00 1.416098e-04 5.943711e-05 0.000000e+00 5.943711e-05 -4.671352e-05 0.000000e+00 0.000000e+00 0.000000e+00 0.000000e+00 1.071372e-04 8.487339e-05 0.000000e+00 8.487339e-05 -1.626102e-05 0.000000e+00 0.000000e+00 0.000000e+00 0.000000e+00 9.988725e-05 8.093494e-05 0.000000e+00 8.093494e-05 -1.691323e-05 0.000000e+00 0.000000e+00 0.000000e+00 0.000000e+00 -5.165656e-06 -4.638075e-06 0.000000e+00 -4.638075e-06 4.095786e-06 0.000000e+00 0.000000e+00 0.000000e+00 0.000000e+00 1.521359e-04 5.841848e-05 0.000000e+00 5.841848e-05 -4.862433e-05 0.000000e+00 0.000000e+00 0.000000e+00 0.000000e+00 3.367252e-05 7.036913e-05 0.000000e+00 7.036913e-05 4.455157e-07 0.000000e+00 0.000000e+00 0.000000e+00 0.000000e+00 -7.687551e-06 8.882164e-06 0.000000e+00 8.882164e-06 4.825250e-06 0.000000e+00 0.000000e+00 0.000000e+00 0.000000e+00 1.212872e-05 9.090064e-06 0.000000e+00 9.090064e-06 -1.385647e-05 0.000000e+00 0.000000e+00 0.000000e+00 0.000000e+00 -2.135973e-05 -9.832062e-06 0.000000e+00 -9.832062e-06 1.856246e-05 0.000000e+00 0.000000e+00 0.000000e+00 0.000000e+00 -1.084886e-05 -1.751496e-05 0.000000e+00 -1.751496e-05 5.348739e-06 0.000000e+00 0.000000e+00 0.000000e+00 0.000000e+00 -4.909186e-06 -1.009419e-05 0.000000e+00 -1.009419e-05 -1.464817e-06 0.000000e+00 0.000000e+00 0.000000e+00 0.000000e+00 1.604677e-04 -3.351230e-05 0.000000e+00 -3.351230e-05 -5.730037e-04 0.000000e+00 0.000000e+00 0.000000e+00 0.000000e+00 9.388268e-06 -9.487237e-06 0.000000e+00 -9.487237e-06 -1.171550e-05 0.000000e+00 0.000000e+00 0.000000e+00 0.000000e+00 1.548435e-05 -6.449683e-07 0.000000e+00 -6.449683e-07 -1.620285e-05 0.000000e+00 0.000000e+00 0.000000e+00 0.000000e+00 6.932521e-06 -7.609188e-06 0.000000e+00 -7.609188e-06 -1.225407e-05 0.000000e+00 0.000000e+00 0.000000e+00 0.000000e+00 8.170035e-06 5.834571e-06 0.000000e+00 5.834571e-06 -1.518257e-05 0.000000e+00 0.000000e+00 0.000000e+00 0.000000e+00 -9.280921e-05 8.264896e-05 0.000000e+00 8.264896e-05 1.258317e-05 0.000000e+00 0.000000e+00 0.000000e+00 0.000000e+00 -7.292303e-06 -7.897626e-08 0.000000e+00 -7.897626e-08 6.543167e-06 0.000000e+00 0.000000e+00 0.000000e+00 0.000000e+00 -1.655120e-06 4.075930e-06 0.000000e+00 4.075930e-06 -2.459211e-06 0.000000e+00 0.000000e+00 0.000000e+00 0.000000e+00 -1.359103e-06 5.423314e-07 0.000000e+00 5.423314e-07 -5.857538e-06 0.000000e+00 0.000000e+00 0.000000e+00 0.000000e+00 4.071194e-06 1.487936e-05 0.000000e+00 1.487936e-05 -6.488335e-06 0.000000e+00 0.000000e+00 0.000000e+00 0.000000e+00 -4.769418e-05 6.111740e-05 0.000000e+00 6.111740e-05 -3.364435e-06 0.000000e+00 0.000000e+00 0.000000e+00 0.000000e+00 -1.407107e-04 9.521162e-05 0.000000e+00 9.521162e-05 3.774061e-05 0.000000e+00 0.000000e+00 0.000000e+00 0.000000e+00 -1.503375e-06 -5.123459e-06 0.000000e+00 -5.123459e-06 1.800383e-06 0.000000e+00 0.000000e+00 0.000000e+00 0.000000e+00 3.398890e-07 -2.658931e-06 0.000000e+00 -2.658931e-06 -8.073090e-06 0.000000e+00 0.000000e+00 0.000000e+00 0.000000e+00 3.545670e-06 -1.966564e-06 0.000000e+00 -1.966564e-06 -1.051164e-05 0.000000e+00 0.000000e+00 0.000000e+00 0.000000e+00 -2.395420e-04 8.337879e-05 0.000000e+00 8.337879e-05 9.327145e-05 0.000000e+00 0.000000e+00 0.000000e+00 0.000000e+00 -2.490234e-04 -7.798518e-05 0.000000e+00 -7.798518e-05 1.288760e-04 0.000000e+00 0.000000e+00 0.000000e+00 0.000000e+00 -1.592102e-05 3.624261e-05 0.000000e+00 3.624261e-05 -1.470775e-05 0.000000e+00 0.000000e+00 0.000000e+00 0.000000e+00 -2.502294e-05 4.814624e-05 0.000000e+00 4.814624e-05 4.039697e-06 0.000000e+00 0.000000e+00 0.000000e+00 0.000000e+00 -1.925399e-04 9.858926e-05 0.000000e+00 9.858926e-05 6.718929e-05 0.000000e+00 0.000000e+00 0.000000e+00 0.000000e+00 -1.212052e-04 1.008330e-04 0.000000e+00 1.008330e-04 3.428958e-05 0.000000e+00 0.000000e+00 0.000000e+00 0.000000e+00 -1.548063e-04 9.517698e-05 0.000000e+00 9.517698e-05 4.751675e-05 0.000000e+00 0.000000e+00 0.000000e+00 0.000000e+00 -1.756538e-04 -1.369127e-04 0.000000e+00 -1.369127e-04 7.870744e-05 0.000000e+00 0.000000e+00 0.000000e+00 0.000000e+00 3.520894e-05 -1.496027e-04 0.000000e+00 -1.496027e-04 -1.622945e-04 0.000000e+00 0.000000e+00 0.000000e+00 0.000000e+00 -6.785466e-05 -1.369695e-04 0.000000e+00 -1.369695e-04 8.566760e-06 0.000000e+00 0.000000e+00 0.000000e+00 0.000000e+00 1.481452e-05 -6.853417e-05 0.000000e+00 -6.853417e-05 -9.733003e-05 0.000000e+00 0.000000e+00 0.000000e+00 0.000000e+00 1.633513e-04 -2.868658e-05 0.000000e+00 -2.868658e-05 -5.434677e-04 0.000000e+00 0.000000e+00 0.000000e+00 0.000000e+00 1.704330e-04 -1.601912e-05 0.000000e+00 -1.601912e-05 -5.568274e-04 0.000000e+00 0.000000e+00 0.000000e+00 0.000000e+00 1.661934e-04 -1.095064e-05 0.000000e+00 -1.095064e-05 -5.265052e-04 0.000000e+00 0.000000e+00 0.000000e+00 0.000000e+00 3.644176e-04 -5.898531e-05 0.000000e+00 -5.898531e-05 1.683401e-05 0.000000e+00 0.000000e+00 0.000000e+00 0.000000e+00 3.492428e-04 -4.381023e-05 0.000000e+00 -4.381023e-05 5.735989e-06 0.000000e+00 0.000000e+00 0.000000e+00 0.000000e+00 3.642385e-04 -4.789086e-05 0.000000e+00 -4.789086e-05 2.601249e-05 0.000000e+00 0.000000e+00 0.000000e+00 0.000000e+00 2.629826e-04 1.832494e-04 0.000000e+00 1.832494e-04 2.001858e-03 0.000000e+00 0.000000e+00 0.000000e+00 0.000000e+00 3.219395e-07 1.380786e-05 0.000000e+00 1.380786e-05 -1.835075e-05 0.000000e+00 0.000000e+00 0.000000e+00 0.000000e+00 -1.001163e-06 3.746570e-06 0.000000e+00 3.746570e-06 -8.958141e-07 0.000000e+00 0.000000e+00 0.000000e+00 0.000000e+00 -9.302156e-06 2.524078e-05 0.000000e+00 2.524078e-05 -8.427923e-07 0.000000e+00 0.000000e+00 0.000000e+00 0.000000e+00 7.137370e-05 -4.980331e-05 0.000000e+00 -4.980331e-05 -3.025035e-04 0.000000e+00 0.000000e+00 0.000000e+00 0.000000e+00 1.227432e-05 1.445125e-05 0.000000e+00 1.445125e-05 -1.607781e-05 0.000000e+00 0.000000e+00 0.000000e+00 0.000000e+00 1.885367e-04 -2.943922e-05 0.000000e+00 -2.943922e-05 -2.620957e-04 0.000000e+00 0.000000e+00 0.000000e+00 0.000000e+00 2.086980e-05 -1.012763e-05 0.000000e+00 -1.012763e-05 -1.064518e-05 0.000000e+00 0.000000e+00 0.000000e+00 0.000000e+00 1.011809e-05 -1.352944e-05 0.000000e+00 -1.352944e-05 2.232229e-06 0.000000e+00 0.000000e+00 0.000000e+00 0.000000e+00 -3.075684e-06 -2.129766e-06 0.000000e+00 -2.129766e-06 1.399325e-05 0.000000e+00 0.000000e+00 0.000000e+00 0.000000e+00 -6.177531e-06 1.539437e-05 0.000000e+00 1.539437e-05 1.566376e-05 0.000000e+00 0.000000e+00 0.000000e+00 0.000000e+00 9.245374e-06 7.929359e-05 0.000000e+00 7.929359e-05 1.237788e-05 0.000000e+00 0.000000e+00 0.000000e+00 0.000000e+00 3.103089e-05 1.097088e-04 0.000000e+00 1.097088e-04 4.517644e-06 0.000000e+00 0.000000e+00 0.000000e+00 0.000000e+00 5.707433e-05 1.383028e-04 0.000000e+00 1.383028e-04 -7.671795e-06 0.000000e+00 0.000000e+00 0.000000e+00 0.000000e+00 8.309085e-05 1.572666e-04 0.000000e+00 1.572666e-04 -2.528530e-05 0.000000e+00 0.000000e+00 0.000000e+00 0.000000e+00 3.354187e-05 1.561231e-04 0.000000e+00 1.561231e-04 -1.052380e-05 0.000000e+00 0.000000e+00 0.000000e+00 0.000000e+00 -3.031166e-05 1.687020e-04 0.000000e+00 1.687020e-04 8.648475e-06 0.000000e+00 0.000000e+00 0.000000e+00 0.000000e+00 -3.760862e-05 1.733979e-04 0.000000e+00 1.733979e-04 1.906423e-06 0.000000e+00 0.000000e+00 0.000000e+00 0.000000e+00 -2.614167e-05 1.665604e-04 0.000000e+00 1.665604e-04 -1.499524e-05 0.000000e+00 0.000000e+00 0.000000e+00 0.000000e+00 -8.316902e-06 1.445146e-04 0.000000e+00 1.445146e-04 -3.157812e-05 0.000000e+00 0.000000e+00 0.000000e+00 0.000000e+00 1.906990e-05 8.202308e-05 0.000000e+00 8.202308e-05 -5.316237e-05 0.000000e+00 0.000000e+00 0.000000e+00 0.000000e+00 2.178402e-05 4.785579e-05 0.000000e+00 4.785579e-05 -5.228347e-05 0.000000e+00 0.000000e+00 0.000000e+00 0.000000e+00 1.442345e-05 2.081292e-05 0.000000e+00 2.081292e-05 -4.195975e-05 0.000000e+00 0.000000e+00 0.000000e+00 0.000000e+00 -5.539267e-06 9.052527e-06 0.000000e+00 9.052527e-06 -1.468670e-05 0.000000e+00 0.000000e+00 0.000000e+00 0.000000e+00 -6.485372e-06 1.551892e-05 0.000000e+00 1.551892e-05 -8.124607e-06 0.000000e+00 0.000000e+00 0.000000e+00 0.000000e+00 8.948678e-04 4.152532e-04 0.000000e+00 4.152532e-04 -4.067180e-04 0.000000e+00 0.000000e+00 0.000000e+00 0.000000e+00 5.035150e-04 2.852251e-04 0.000000e+00 2.852251e-04 -1.822596e-05 0.000000e+00 0.000000e+00 0.000000e+00 0.000000e+00 4.012421e-04 1.712143e-04 0.000000e+00 1.712143e-04 -1.135909e-04 0.000000e+00 0.000000e+00 0.000000e+00 0.000000e+00 1.188955e-06 -1.382031e-05 0.000000e+00 -1.382031e-05 -5.448989e-06 0.000000e+00 0.000000e+00 0.000000e+00 0.000000e+00 8.879856e-05 -1.234858e-04 0.000000e+00 -1.234858e-04 -2.268857e-04 0.000000e+00 0.000000e+00 0.000000e+00 0.000000e+00 4.921505e-04 5.479297e-04 0.000000e+00 5.479297e-04 2.715870e-04 0.000000e+00 0.000000e+00 0.000000e+00 0.000000e+00 1.465959e-04 -6.483262e-05 0.000000e+00 -6.483262e-05 -6.420045e-04 0.000000e+00 0.000000e+00 0.000000e+00 0.000000e+00 7.387882e-05 8.292155e-05 0.000000e+00 8.292155e-05 -1.164803e-05 0.000000e+00 0.000000e+00 0.000000e+00 0.000000e+00 1.654332e-04 -1.053788e-05 0.000000e+00 -1.053788e-05 -4.982717e-04 0.000000e+00 0.000000e+00 0.000000e+00 0.000000e+00 1.635846e-04 -2.669972e-05 0.000000e+00 -2.669972e-05 -4.078442e-04 0.000000e+00 0.000000e+00 0.000000e+00 0.000000e+00 2.347421e-04 -2.812526e-05 0.000000e+00 -2.812526e-05 -1.488026e-04 0.000000e+00 0.000000e+00 0.000000e+00 0.000000e+00 2.450716e-04 -3.892892e-05 0.000000e+00 -3.892892e-05 -1.418671e-04 0.000000e+00 0.000000e+00 0.000000e+00 0.000000e+00 1.820808e-04 -2.886751e-05 0.000000e+00 -2.886751e-05 -2.786404e-04 0.000000e+00 0.000000e+00 0.000000e+00 0.000000e+00 3.331461e-06 -1.517063e-05 0.000000e+00 -1.517063e-05 -4.967035e-06 0.000000e+00 0.000000e+00 0.000000e+00 0.000000e+00 3.047246e-04 -3.626725e-05 0.000000e+00 -3.626725e-05 -5.131022e-05 0.000000e+00 0.000000e+00 0.000000e+00 0.000000e+00 3.178907e-04 -4.785604e-05 0.000000e+00 -4.785604e-05 -4.289374e-05 0.000000e+00 0.000000e+00 0.000000e+00 0.000000e+00 1.795324e-04 -1.664919e-05 0.000000e+00 -1.664919e-05 -2.897195e-04 0.000000e+00 0.000000e+00 0.000000e+00 0.000000e+00 4.547908e-04 -5.579910e-05 0.000000e+00 -5.579910e-05 1.134168e-04 0.000000e+00 0.000000e+00 0.000000e+00 0.000000e+00 4.642985e-04 -7.178467e-05 0.000000e+00 -7.178467e-05 1.293314e-04 0.000000e+00 0.000000e+00 0.000000e+00 0.000000e+00 1.874888e-04 4.103190e-04 0.000000e+00 4.103190e-04 1.319041e-03 0.000000e+00 0.000000e+00 0.000000e+00 0.000000e+00 2.409905e-04 6.070474e-05 0.000000e+00 6.070474e-05 -7.192078e-05 0.000000e+00 0.000000e+00 0.000000e+00 0.000000e+00 1.369029e-04 2.137318e-05 0.000000e+00 2.137318e-05 1.716950e-03 0.000000e+00 0.000000e+00 0.000000e+00 0.000000e+00 1.799875e-04 5.650467e-05 0.000000e+00 5.650467e-05 -5.690099e-05 0.000000e+00 0.000000e+00 0.000000e+00 0.000000e+00 1.638918e-04 5.805182e-05 0.000000e+00 5.805182e-05 -5.343862e-05 0.000000e+00 0.000000e+00 0.000000e+00 0.000000e+00 5.174542e-04 3.833138e-04 0.000000e+00 3.833138e-04 -8.627322e-05 0.000000e+00 0.000000e+00 0.000000e+00 0.000000e+00 6.049162e-04 -1.783942e-04 0.000000e+00 -1.783942e-04 5.039355e-04 0.000000e+00 0.000000e+00 0.000000e+00 0.000000e+00 7.774049e-04 -2.569045e-04 0.000000e+00 -2.569045e-04 5.393867e-04 0.000000e+00 0.000000e+00 0.000000e+00 0.000000e+00 1.619002e-04 5.709138e-05 0.000000e+00 5.709138e-05 -5.389530e-05 0.000000e+00 0.000000e+00 0.000000e+00 0.000000e+00 1.239227e-04 6.973764e-05 0.000000e+00 6.973764e-05 -1.346028e-05 0.000000e+00 0.000000e+00 0.000000e+00 0.000000e+00 -1.812949e-04 7.664385e-05 0.000000e+00 7.664385e-05 5.718138e-05 0.000000e+00 0.000000e+00 0.000000e+00 0.000000e+00 -2.724343e-04 4.893424e-05 0.000000e+00 4.893424e-05 1.199826e-04 0.000000e+00 0.000000e+00 0.000000e+00 0.000000e+00 1.536893e-04 6.247822e-05 0.000000e+00 6.247822e-05 -3.859301e-05 0.000000e+00 0.000000e+00 0.000000e+00 0.000000e+00 1.314827e-04 6.696233e-05 0.000000e+00 6.696233e-05 -3.470200e-05 0.000000e+00 0.000000e+00 0.000000e+00 0.000000e+00 3.168403e-05 7.101145e-05 0.000000e+00 7.101145e-05 3.435197e-06 0.000000e+00 0.000000e+00 0.000000e+00 0.000000e+00 -4.880496e-05 7.129643e-05 0.000000e+00 7.129643e-05 1.317152e-05 0.000000e+00 0.000000e+00 0.000000e+00 0.000000e+00 -2.395789e-05 9.723807e-06 0.000000e+00 9.723807e-06 2.869188e-05 0.000000e+00 0.000000e+00 0.000000e+00 0.000000e+00 -8.668093e-06 -3.412662e-07 0.000000e+00 -3.412662e-07 3.176107e-06 0.000000e+00 0.000000e+00 0.000000e+00 0.000000e+00 -2.717437e-06 -1.524715e-05 0.000000e+00 -1.524715e-05 4.479253e-07 0.000000e+00 0.000000e+00 0.000000e+00 0.000000e+00 9.647685e-05 -1.072776e-04 0.000000e+00 -1.072776e-04 -3.361730e-04 0.000000e+00 0.000000e+00 0.000000e+00 0.000000e+00 5.891631e-05 -1.499798e-04 0.000000e+00 -1.499798e-04 -2.384323e-04 0.000000e+00 0.000000e+00 0.000000e+00 0.000000e+00 -7.924411e-05 9.556321e-05 0.000000e+00 9.556321e-05 2.486872e-05 0.000000e+00 0.000000e+00 0.000000e+00 0.000000e+00 1.622299e-04 -2.540573e-05 0.000000e+00 -2.540573e-05 -4.327765e-04 0.000000e+00 0.000000e+00 0.000000e+00 0.000000e+00 -2.020229e-04 -8.925728e-05 0.000000e+00 -8.925728e-05 9.759922e-05 0.000000e+00 0.000000e+00 0.000000e+00 0.000000e+00 4.588125e-04 5.027675e-04 0.000000e+00 5.027675e-04 2.955855e-04 0.000000e+00 0.000000e+00 0.000000e+00 0.000000e+00 1.626981e-04 -1.125101e-05 0.000000e+00 -1.125101e-05 -4.452167e-04 0.000000e+00 0.000000e+00 0.000000e+00 0.000000e+00 3.881389e-05 -1.571031e-04 0.000000e+00 -1.571031e-04 -1.485208e-04 0.000000e+00 0.000000e+00 0.000000e+00 0.000000e+00 1.590590e-04 -1.204882e-05 0.000000e+00 -1.204882e-05 -4.193526e-04 0.000000e+00 0.000000e+00 0.000000e+00 0.000000e+00 -1.121273e-04 -1.434728e-04 0.000000e+00 -1.434728e-04 1.970128e-05 0.000000e+00 0.000000e+00 0.000000e+00 0.000000e+00 -1.179524e-05 -1.213673e-04 0.000000e+00 -1.213673e-04 -3.583116e-05 0.000000e+00 0.000000e+00 0.000000e+00 0.000000e+00 1.229205e-04 -7.542200e-05 0.000000e+00 -7.542200e-05 -3.462261e-04 0.000000e+00 0.000000e+00 0.000000e+00 0.000000e+00 5.400135e-06 2.107044e-05 0.000000e+00 2.107044e-05 -1.208422e-05 0.000000e+00 0.000000e+00 0.000000e+00 0.000000e+00 1.889747e-04 -1.914533e-05 0.000000e+00 -1.914533e-05 -2.519936e-04 0.000000e+00 0.000000e+00 0.000000e+00 0.000000e+00 1.942603e-04 -3.056560e-05 0.000000e+00 -3.056560e-05 -2.421506e-04 0.000000e+00 0.000000e+00 0.000000e+00 0.000000e+00 -5.862060e-06 1.326667e-05 0.000000e+00 1.326667e-05 -4.982313e-06 0.000000e+00 0.000000e+00 0.000000e+00 0.000000e+00 -2.245877e-06 2.079432e-05 0.000000e+00 2.079432e-05 -7.919146e-06 0.000000e+00 0.000000e+00 0.000000e+00 0.000000e+00 -9.481150e-06 5.504920e-06 0.000000e+00 5.504920e-06 -1.018502e-05 0.000000e+00 0.000000e+00 0.000000e+00 0.000000e+00 5.299168e-06 6.872151e-06 0.000000e+00 6.872151e-06 -4.576730e-05 0.000000e+00 0.000000e+00 0.000000e+00 0.000000e+00 1.689292e-06 7.144634e-06 0.000000e+00 7.144634e-06 -2.694946e-05 0.000000e+00 0.000000e+00 0.000000e+00 0.000000e+00 1.222891e-05 3.061018e-05 0.000000e+00 3.061018e-05 -6.429445e-05 0.000000e+00 0.000000e+00 0.000000e+00 0.000000e+00 1.027998e-05 6.314060e-05 0.000000e+00 6.314060e-05 -7.083512e-05 0.000000e+00 0.000000e+00 0.000000e+00 0.000000e+00 -2.182026e-05 1.286548e-04 0.000000e+00 1.286548e-04 -5.001411e-05 0.000000e+00 0.000000e+00 0.000000e+00 0.000000e+00 7.143495e-06 1.137268e-04 0.000000e+00 1.137268e-04 -4.344280e-05 0.000000e+00 0.000000e+00 0.000000e+00 0.000000e+00 -3.570034e-05 1.521929e-04 0.000000e+00 1.521929e-04 -3.266704e-05 0.000000e+00 0.000000e+00 0.000000e+00 0.000000e+00 -3.594225e-05 1.446582e-04 0.000000e+00 1.446582e-04 -5.542856e-06 0.000000e+00 0.000000e+00 0.000000e+00 0.000000e+00 -3.906229e-05 1.676456e-04 0.000000e+00 1.676456e-04 -1.449762e-05 0.000000e+00 0.000000e+00 0.000000e+00 0.000000e+00 -3.136831e-05 1.751694e-04 0.000000e+00 1.751694e-04 2.267500e-06 0.000000e+00 0.000000e+00 0.000000e+00 0.000000e+00 1.520258e-05 1.708896e-04 0.000000e+00 1.708896e-04 1.072380e-06 0.000000e+00 0.000000e+00 0.000000e+00 0.000000e+00 -3.053727e-06 1.604370e-04 0.000000e+00 1.604370e-04 2.211054e-06 0.000000e+00 0.000000e+00 0.000000e+00 0.000000e+00 6.575866e-05 1.584958e-04 0.000000e+00 1.584958e-04 -1.830746e-05 0.000000e+00 0.000000e+00 0.000000e+00 0.000000e+00 6.480955e-05 1.565156e-04 0.000000e+00 1.565156e-04 -2.129904e-05 0.000000e+00 0.000000e+00 0.000000e+00 0.000000e+00 8.314435e-05 1.389888e-04 0.000000e+00 1.389888e-04 -7.961084e-06 0.000000e+00 0.000000e+00 0.000000e+00 0.000000e+00 7.824941e-05 1.519403e-04 0.000000e+00 1.519403e-04 -1.985842e-05 0.000000e+00 0.000000e+00 0.000000e+00 0.000000e+00 6.651384e-05 1.238378e-04 0.000000e+00 1.238378e-04 7.453044e-06 0.000000e+00 0.000000e+00 0.000000e+00 0.000000e+00 3.375053e-05 9.872070e-05 0.000000e+00 9.872070e-05 2.471858e-05 0.000000e+00 0.000000e+00 0.000000e+00 0.000000e+00 -7.549342e-06 3.223426e-05 0.000000e+00 3.223426e-05 4.059899e-05 0.000000e+00 0.000000e+00 0.000000e+00 0.000000e+00 -6.008642e-06 1.853816e-05 0.000000e+00 1.853816e-05 1.899618e-06 0.000000e+00 0.000000e+00 0.000000e+00 0.000000e+00 -5.345866e-06 4.461274e-05 0.000000e+00 4.461274e-05 2.097155e-05 0.000000e+00 0.000000e+00 0.000000e+00 0.000000e+00 -9.833501e-06 -9.523933e-07 0.000000e+00 -9.523933e-07 3.194656e-05 0.000000e+00 0.000000e+00 0.000000e+00 0.000000e+00 1.328474e-05 -1.933258e-05 0.000000e+00 -1.933258e-05 1.750141e-06 0.000000e+00 0.000000e+00 0.000000e+00 0.000000e+00 -5.501347e-05 -1.409171e-04 0.000000e+00 -1.409171e-04 -4.328560e-05 0.000000e+00 0.000000e+00 0.000000e+00 0.000000e+00 2.019206e-05 4.475849e-06 0.000000e+00 4.475849e-06 -1.517065e-05 0.000000e+00 0.000000e+00 0.000000e+00 0.000000e+00 1.849034e-04 -1.986404e-05 0.000000e+00 -1.986404e-05 -2.704634e-04 0.000000e+00 0.000000e+00 0.000000e+00 0.000000e+00 1.099578e-05 6.674088e-05 0.000000e+00 6.674088e-05 3.647967e-05 0.000000e+00 0.000000e+00 0.000000e+00 0.000000e+00 8.056375e-05 1.488378e-04 0.000000e+00 1.488378e-04 -1.764034e-05 0.000000e+00 0.000000e+00 0.000000e+00 0.000000e+00 4.292650e-05 1.647711e-04 0.000000e+00 1.647711e-04 -1.042297e-05 0.000000e+00 0.000000e+00 0.000000e+00 0.000000e+00 -1.205390e-05 1.750486e-04 0.000000e+00 1.750486e-04 7.358038e-06 0.000000e+00 0.000000e+00 0.000000e+00 0.000000e+00 -4.070000e-06 9.745236e-05 0.000000e+00 9.745236e-05 -6.327609e-05 0.000000e+00 0.000000e+00 0.000000e+00 0.000000e+00 -4.992817e-06 -7.302582e-07 0.000000e+00 -7.302582e-07 -2.185824e-05 0.000000e+00 0.000000e+00 0.000000e+00 0.000000e+00 1.961313e-05 2.951462e-06 0.000000e+00 2.951462e-06 -1.707432e-05 0.000000e+00 0.000000e+00 0.000000e+00 0.000000e+00 1.546146e-04 -4.287747e-05 0.000000e+00 -4.287747e-05 -6.044157e-04 0.000000e+00 0.000000e+00 0.000000e+00 0.000000e+00 1.918811e-04 -3.405694e-05 0.000000e+00 -3.405694e-05 -6.254525e-04 0.000000e+00 0.000000e+00 0.000000e+00 0.000000e+00 1.761838e-04 -2.204681e-05 0.000000e+00 -2.204681e-05 -5.885701e-04 0.000000e+00 0.000000e+00 0.000000e+00 0.000000e+00 1.629162e-04 -2.749353e-05 0.000000e+00 -2.749353e-05 -3.827623e-04 0.000000e+00 0.000000e+00 0.000000e+00 0.000000e+00 1.628167e-04 -1.312312e-05 0.000000e+00 -1.312312e-05 -3.955434e-04 0.000000e+00 0.000000e+00 0.000000e+00 0.000000e+00 1.666447e-04 -1.430122e-05 0.000000e+00 -1.430122e-05 -3.725448e-04 0.000000e+00 0.000000e+00 0.000000e+00 0.000000e+00 2.014022e-04 -3.244348e-05 0.000000e+00 -3.244348e-05 -2.250650e-04 0.000000e+00 0.000000e+00 0.000000e+00 0.000000e+00 1.950566e-04 -2.216208e-05 0.000000e+00 -2.216208e-05 -2.331918e-04 0.000000e+00 0.000000e+00 0.000000e+00 0.000000e+00 1.976696e-04 -2.358217e-05 0.000000e+00 -2.358217e-05 -2.150952e-04 0.000000e+00 0.000000e+00 0.000000e+00 0.000000e+00 2.558903e-04 -4.125497e-05 0.000000e+00 -4.125497e-05 -1.266824e-04 0.000000e+00 0.000000e+00 0.000000e+00 0.000000e+00 2.440548e-04 -3.056967e-05 0.000000e+00 -3.056967e-05 -1.331955e-04 0.000000e+00 0.000000e+00 0.000000e+00 0.000000e+00 2.558532e-04 -3.191425e-05 0.000000e+00 -3.191425e-05 -1.180197e-04 0.000000e+00 0.000000e+00 0.000000e+00 0.000000e+00 3.336758e-04 -5.130658e-05 0.000000e+00 -5.130658e-05 -2.543126e-05 0.000000e+00 0.000000e+00 0.000000e+00 0.000000e+00 3.143691e-04 -3.835634e-05 0.000000e+00 -3.835634e-05 -3.276395e-05 0.000000e+00 0.000000e+00 0.000000e+00 0.000000e+00 3.307561e-04 -4.047331e-05 0.000000e+00 -4.047331e-05 -1.345676e-05 0.000000e+00 0.000000e+00 0.000000e+00 0.000000e+00 4.977194e-04 -8.275204e-05 0.000000e+00 -8.275204e-05 1.540479e-04 0.000000e+00 0.000000e+00 0.000000e+00 0.000000e+00 4.481811e-04 -6.294270e-05 0.000000e+00 -6.294270e-05 1.461753e-04 0.000000e+00 0.000000e+00 0.000000e+00 0.000000e+00 4.693608e-04 -7.248382e-05 0.000000e+00 -7.248382e-05 1.778816e-04 0.000000e+00 0.000000e+00 0.000000e+00 0.000000e+00 8.196254e-04 -3.337046e-04 0.000000e+00 -3.337046e-04 6.927703e-04 0.000000e+00 0.000000e+00 0.000000e+00 0.000000e+00 5.896894e-04 -2.203272e-04 0.000000e+00 -2.203272e-04 6.378747e-04 0.000000e+00 0.000000e+00 0.000000e+00 0.000000e+00 5.149145e-04 -2.551856e-04 0.000000e+00 -2.551856e-04 8.438723e-04 0.000000e+00 0.000000e+00 0.000000e+00 0.000000e+00 -1.912566e-06 4.331200e-05 0.000000e+00 4.331200e-05 2.259077e-05 0.000000e+00 0.000000e+00 0.000000e+00 0.000000e+00 -3.250012e-06 1.314509e-05 0.000000e+00 1.314509e-05 1.017886e-06 0.000000e+00 0.000000e+00 0.000000e+00 0.000000e+00 -2.742846e-04 -1.531026e-05 0.000000e+00 -1.531026e-05 1.331922e-04 0.000000e+00 0.000000e+00 0.000000e+00 0.000000e+00 1.016132e-04 -8.606486e-05 0.000000e+00 -8.606486e-05 -3.257006e-04 0.000000e+00 0.000000e+00 0.000000e+00 0.000000e+00 6.750361e-05 -1.049233e-05 0.000000e+00 -1.049233e-05 -4.096773e-04 0.000000e+00 0.000000e+00 0.000000e+00 0.000000e+00 9.680845e-05 -1.144890e-04 0.000000e+00 -1.144890e-04 -3.456165e-04 0.000000e+00 0.000000e+00 0.000000e+00 0.000000e+00 2.210151e-04 3.281619e-04 0.000000e+00 3.281619e-04 1.111641e-03 0.000000e+00 0.000000e+00 0.000000e+00 0.000000e+00 -2.024106e-04 4.601788e-05 0.000000e+00 4.601788e-05 7.065012e-05 0.000000e+00 0.000000e+00 0.000000e+00 0.000000e+00 1.374415e-06 1.828673e-05 0.000000e+00 1.828673e-05 -6.828362e-06 0.000000e+00 0.000000e+00 0.000000e+00 0.000000e+00 2.398578e-06 -1.432248e-04 0.000000e+00 -1.432248e-04 -9.913576e-05 0.000000e+00 0.000000e+00 0.000000e+00 0.000000e+00 1.238598e-04 -1.185889e-04 0.000000e+00 -1.185889e-04 -3.586656e-04 0.000000e+00 0.000000e+00 0.000000e+00 0.000000e+00 1.840419e-05 -1.089949e-05 0.000000e+00 -1.089949e-05 -1.086624e-05 0.000000e+00 0.000000e+00 0.000000e+00 0.000000e+00 8.775255e-05 -1.576212e-04 0.000000e+00 -1.576212e-04 -2.588920e-04 0.000000e+00 0.000000e+00 0.000000e+00 0.000000e+00 9.516201e-05 -1.461018e-04 0.000000e+00 -1.461018e-04 -2.926388e-04 0.000000e+00 0.000000e+00 0.000000e+00 0.000000e+00 1.362270e-04 -1.330812e-04 0.000000e+00 -1.330812e-04 -3.744773e-04 0.000000e+00 0.000000e+00 0.000000e+00 0.000000e+00 9.606442e-05 -8.429876e-05 0.000000e+00 -8.429876e-05 -3.774100e-04 0.000000e+00 0.000000e+00 0.000000e+00 0.000000e+00 5.584578e-05 1.112305e-04 0.000000e+00 1.112305e-04 -7.021927e-06 0.000000e+00 0.000000e+00 0.000000e+00 0.000000e+00 1.662300e-04 -3.778548e-05 0.000000e+00 -3.778548e-05 -5.025201e-04 0.000000e+00 0.000000e+00 0.000000e+00 0.000000e+00 2.111509e-04 -5.886455e-05 0.000000e+00 -5.886455e-05 -1.992605e-04 0.000000e+00 0.000000e+00 0.000000e+00 0.000000e+00 5.379854e-06 -1.720824e-05 0.000000e+00 -1.720824e-05 -4.137470e-06 0.000000e+00 0.000000e+00 0.000000e+00 0.000000e+00 5.025508e-04 -1.624559e-04 0.000000e+00 -1.624559e-04 2.245015e-04 0.000000e+00 0.000000e+00 0.000000e+00 0.000000e+00 2.673787e-04 -7.303326e-05 0.000000e+00 -7.303326e-05 -9.910911e-05 0.000000e+00 0.000000e+00 0.000000e+00 0.000000e+00 -2.027509e-04 4.332760e-05 0.000000e+00 4.332760e-05 1.398178e-04 0.000000e+00 0.000000e+00 0.000000e+00 0.000000e+00 4.042354e-04 -1.154149e-04 0.000000e+00 -1.154149e-04 1.144157e-04 0.000000e+00 0.000000e+00 0.000000e+00 0.000000e+00 2.378881e-04 1.101504e-04 0.000000e+00 1.101504e-04 -5.578560e-05 0.000000e+00 0.000000e+00 0.000000e+00 0.000000e+00 1.771163e-04 -4.852377e-05 0.000000e+00 -4.852377e-05 -2.858993e-04 0.000000e+00 0.000000e+00 0.000000e+00 0.000000e+00 2.753742e-04 1.376757e-04 0.000000e+00 1.376757e-04 -4.761018e-05 0.000000e+00 0.000000e+00 0.000000e+00 0.000000e+00 2.353301e-04 1.152415e-04 0.000000e+00 1.152415e-04 -6.017344e-05 0.000000e+00 0.000000e+00 0.000000e+00 0.000000e+00 1.040379e-04 8.726493e-05 0.000000e+00 8.726493e-05 -2.089817e-05 0.000000e+00 0.000000e+00 0.000000e+00 0.000000e+00 1.855365e-04 8.422121e-05 0.000000e+00 8.422121e-05 -5.541300e-05 0.000000e+00 0.000000e+00 0.000000e+00 0.000000e+00 1.177824e-04 1.491243e-04 0.000000e+00 1.491243e-04 1.112691e-03 0.000000e+00 0.000000e+00 0.000000e+00 0.000000e+00 1.677129e-04 7.519400e-05 0.000000e+00 7.519400e-05 -5.053865e-05 0.000000e+00 0.000000e+00 0.000000e+00 0.000000e+00 1.633245e-04 8.012803e-05 0.000000e+00 8.012803e-05 -5.548138e-05 0.000000e+00 0.000000e+00 0.000000e+00 0.000000e+00 1.465478e-04 7.245595e-05 0.000000e+00 7.245595e-05 -5.021895e-05 0.000000e+00 0.000000e+00 0.000000e+00 0.000000e+00 3.282425e-04 1.911776e-04 0.000000e+00 1.911776e-04 -2.115651e-05 0.000000e+00 0.000000e+00 0.000000e+00 0.000000e+00 2.686400e-04 1.458508e-04 0.000000e+00 1.458508e-04 -5.368634e-05 0.000000e+00 0.000000e+00 0.000000e+00 0.000000e+00 3.745348e-04 -2.338801e-04 0.000000e+00 -2.338801e-04 1.057123e-03 0.000000e+00 0.000000e+00 0.000000e+00 0.000000e+00 8.773012e-05 -1.161896e-05 0.000000e+00 -1.161896e-05 1.318104e-03 0.000000e+00 0.000000e+00 0.000000e+00 0.000000e+00 2.081798e-04 9.469247e-05 0.000000e+00 9.469247e-05 -5.583221e-05 0.000000e+00 0.000000e+00 0.000000e+00 0.000000e+00 1.815841e-04 8.694794e-05 0.000000e+00 8.694794e-05 -5.728891e-05 0.000000e+00 0.000000e+00 0.000000e+00 0.000000e+00 7.365072e-04 6.164347e-04 0.000000e+00 6.164347e-04 3.775551e-04 0.000000e+00 0.000000e+00 0.000000e+00 0.000000e+00 2.724596e-04 5.880682e-04 0.000000e+00 5.880682e-04 6.532665e-04 0.000000e+00 0.000000e+00 0.000000e+00 0.000000e+00 -2.019012e-04 -8.464532e-05 0.000000e+00 -8.464532e-05 1.708196e-04 0.000000e+00 0.000000e+00 0.000000e+00 0.000000e+00 -5.688337e-05 9.791447e-05 0.000000e+00 9.791447e-05 -1.025383e-05 0.000000e+00 0.000000e+00 0.000000e+00 0.000000e+00 -1.858974e-04 9.275598e-05 0.000000e+00 9.275598e-05 1.040801e-04 0.000000e+00 0.000000e+00 0.000000e+00 0.000000e+00 6.936052e-05 -1.965699e-04 0.000000e+00 -1.965699e-04 -1.722284e-04 0.000000e+00 0.000000e+00 0.000000e+00 0.000000e+00 8.958974e-05 3.690750e-04 0.000000e+00 3.690750e-04 1.243426e-03 0.000000e+00 0.000000e+00 0.000000e+00 0.000000e+00 1.655160e-04 -4.033530e-05 0.000000e+00 -4.033530e-05 -4.201316e-04 0.000000e+00 0.000000e+00 0.000000e+00 0.000000e+00 -9.063184e-05 1.185978e-04 0.000000e+00 1.185978e-04 8.765614e-06 0.000000e+00 0.000000e+00 0.000000e+00 0.000000e+00 1.668262e-05 -9.301156e-06 0.000000e+00 -9.301156e-06 -1.233907e-05 0.000000e+00 0.000000e+00 0.000000e+00 0.000000e+00 1.621679e-04 -4.312397e-05 0.000000e+00 -4.312397e-05 -3.484803e-04 0.000000e+00 0.000000e+00 0.000000e+00 0.000000e+00 -1.075497e-04 -1.880291e-04 0.000000e+00 -1.880291e-04 5.068796e-05 0.000000e+00 0.000000e+00 0.000000e+00 0.000000e+00 -2.476074e-06 2.079390e-07 0.000000e+00 2.079390e-07 -5.193848e-06 0.000000e+00 0.000000e+00 0.000000e+00 0.000000e+00 -1.626666e-04 -1.226357e-04 0.000000e+00 -1.226357e-04 5.473840e-05 0.000000e+00 0.000000e+00 0.000000e+00 0.000000e+00 9.066768e-05 1.142926e-04 0.000000e+00 1.142926e-04 -7.591728e-06 0.000000e+00 0.000000e+00 0.000000e+00 0.000000e+00 8.272853e-05 1.066696e-04 0.000000e+00 1.066696e-04 -1.405688e-05 0.000000e+00 0.000000e+00 0.000000e+00 0.000000e+00 7.767191e-05 1.318479e-04 0.000000e+00 1.318479e-04 -1.719227e-05 0.000000e+00 0.000000e+00 0.000000e+00 0.000000e+00 1.198189e-05 1.567687e-05 0.000000e+00 1.567687e-05 -1.234301e-05 0.000000e+00 0.000000e+00 0.000000e+00 0.000000e+00 3.890988e-04 3.083266e-04 0.000000e+00 3.083266e-04 5.299595e-05 0.000000e+00 0.000000e+00 0.000000e+00 0.000000e+00 2.856587e-04 2.038456e-04 0.000000e+00 2.038456e-04 -2.363522e-05 0.000000e+00 0.000000e+00 0.000000e+00 0.000000e+00 6.080716e-05 -2.452846e-04 0.000000e+00 -2.452846e-04 2.640082e-04 0.000000e+00 0.000000e+00 0.000000e+00 0.000000e+00 -2.745966e-06 8.567566e-05 0.000000e+00 8.567566e-05 -2.729200e-05 0.000000e+00 0.000000e+00 0.000000e+00 0.000000e+00 -2.780147e-05 1.641069e-04 0.000000e+00 1.641069e-04 1.524665e-05 0.000000e+00 0.000000e+00 0.000000e+00 0.000000e+00 5.580898e-05 1.561123e-04 0.000000e+00 1.561123e-04 -1.247729e-05 0.000000e+00 0.000000e+00 0.000000e+00 0.000000e+00 4.660584e-06 -2.078700e-05 0.000000e+00 -2.078700e-05 1.273410e-05 0.000000e+00 0.000000e+00 0.000000e+00 0.000000e+00 3.469777e-05 -2.028535e-04 0.000000e+00 -2.028535e-04 -1.353757e-04 0.000000e+00 0.000000e+00 0.000000e+00 0.000000e+00 8.058846e-05 -1.690961e-04 0.000000e+00 -1.690961e-04 -2.639727e-04 0.000000e+00 0.000000e+00 0.000000e+00 0.000000e+00 -3.074593e-05 -1.760708e-04 0.000000e+00 -1.760708e-04 -2.303817e-05 0.000000e+00 0.000000e+00 0.000000e+00 0.000000e+00 -6.297308e-05 -1.990899e-04 0.000000e+00 -1.990899e-04 -5.995828e-06 0.000000e+00 0.000000e+00 0.000000e+00 0.000000e+00 -1.306874e-05 -1.885474e-04 0.000000e+00 -1.885474e-04 -7.250999e-05 0.000000e+00 0.000000e+00 0.000000e+00 0.000000e+00 9.691748e-05 1.449092e-04 0.000000e+00 1.449092e-04 -2.618287e-05 0.000000e+00 0.000000e+00 0.000000e+00 0.000000e+00 8.854860e-05 1.557398e-04 0.000000e+00 1.557398e-04 -2.423267e-05 0.000000e+00 0.000000e+00 0.000000e+00 0.000000e+00 1.160839e-05 1.598083e-04 0.000000e+00 1.598083e-04 2.626782e-06 0.000000e+00 0.000000e+00 0.000000e+00 0.000000e+00 2.908679e-05 1.716917e-04 0.000000e+00 1.716917e-04 2.531265e-06 0.000000e+00 0.000000e+00 0.000000e+00 0.000000e+00 -4.409220e-06 1.752393e-04 0.000000e+00 1.752393e-04 1.464482e-05 0.000000e+00 0.000000e+00 0.000000e+00 0.000000e+00 -5.271873e-05 1.685325e-04 0.000000e+00 1.685325e-04 1.916209e-05 0.000000e+00 0.000000e+00 0.000000e+00 0.000000e+00 -5.257001e-05 1.633484e-04 0.000000e+00 1.633484e-04 9.647198e-06 0.000000e+00 0.000000e+00 0.000000e+00 0.000000e+00 -5.253522e-05 1.632594e-04 0.000000e+00 1.632594e-04 9.592609e-06 0.000000e+00 0.000000e+00 0.000000e+00 0.000000e+00 -6.156361e-05 1.450281e-04 0.000000e+00 1.450281e-04 -5.547492e-06 0.000000e+00 0.000000e+00 0.000000e+00 0.000000e+00 -1.735816e-05 1.161769e-04 0.000000e+00 1.161769e-04 -1.644651e-05 0.000000e+00 0.000000e+00 0.000000e+00 0.000000e+00 7.446874e-06 5.588999e-05 0.000000e+00 5.588999e-05 -3.582795e-05 0.000000e+00 0.000000e+00 0.000000e+00 0.000000e+00 9.658885e-06 2.894870e-05 0.000000e+00 2.894870e-05 -3.137360e-05 0.000000e+00 0.000000e+00 0.000000e+00 0.000000e+00 6.173093e-05 -2.405233e-04 0.000000e+00 -2.405233e-04 1.931103e-04 0.000000e+00 0.000000e+00 0.000000e+00 0.000000e+00 1.059553e-04 -1.210429e-04 0.000000e+00 -1.210429e-04 -3.460174e-04 0.000000e+00 0.000000e+00 0.000000e+00 0.000000e+00 -3.542124e-06 1.556924e-05 0.000000e+00 1.556924e-05 -3.534242e-06 0.000000e+00 0.000000e+00 0.000000e+00 0.000000e+00 1.157063e-04 -1.716154e-04 0.000000e+00 -1.716154e-04 -2.968055e-04 0.000000e+00 0.000000e+00 0.000000e+00 0.000000e+00 -1.666440e-04 -1.505059e-04 0.000000e+00 -1.505059e-04 1.256131e-04 0.000000e+00 0.000000e+00 0.000000e+00 0.000000e+00 -1.533982e-04 -1.290185e-04 0.000000e+00 -1.290185e-04 9.865004e-05 0.000000e+00 0.000000e+00 0.000000e+00 0.000000e+00 -1.078996e-04 -1.902126e-04 0.000000e+00 -1.902126e-04 5.343622e-05 0.000000e+00 0.000000e+00 0.000000e+00 0.000000e+00 1.680655e-04 -2.028047e-05 0.000000e+00 -2.028047e-05 -4.884977e-04 0.000000e+00 0.000000e+00 0.000000e+00 0.000000e+00 1.616082e-04 -3.701849e-05 0.000000e+00 -3.701849e-05 -4.723658e-04 0.000000e+00 0.000000e+00 0.000000e+00 0.000000e+00 3.339145e-04 -9.017238e-05 0.000000e+00 -9.017238e-05 -9.851016e-06 0.000000e+00 0.000000e+00 0.000000e+00 0.000000e+00 2.073589e-04 -5.486393e-05 0.000000e+00 -5.486393e-05 -2.173042e-04 0.000000e+00 0.000000e+00 0.000000e+00 0.000000e+00 1.974890e-04 -4.607786e-05 0.000000e+00 -4.607786e-05 -2.065748e-04 0.000000e+00 0.000000e+00 0.000000e+00 0.000000e+00 1.781741e-04 -4.533342e-05 0.000000e+00 -4.533342e-05 -3.082286e-04 0.000000e+00 0.000000e+00 0.000000e+00 0.000000e+00 1.683170e-04 -3.508901e-05 0.000000e+00 -3.508901e-05 -2.954446e-04 0.000000e+00 0.000000e+00 0.000000e+00 0.000000e+00 2.381021e-04 -6.095246e-05 0.000000e+00 -6.095246e-05 -1.481180e-04 0.000000e+00 0.000000e+00 0.000000e+00 0.000000e+00 3.972930e-04 -1.146220e-04 0.000000e+00 -1.146220e-04 8.363896e-05 0.000000e+00 0.000000e+00 0.000000e+00 0.000000e+00 3.924493e-04 -9.625747e-05 0.000000e+00 -9.625747e-05 9.336949e-05 0.000000e+00 0.000000e+00 0.000000e+00 0.000000e+00 4.859247e-04 -1.388609e-04 0.000000e+00 -1.388609e-04 1.779185e-04 0.000000e+00 0.000000e+00 0.000000e+00 0.000000e+00 4.348775e-04 -1.317414e-04 0.000000e+00 -1.317414e-04 2.122629e-04 0.000000e+00 0.000000e+00 0.000000e+00 0.000000e+00 -1.371006e-04 9.390885e-05 0.000000e+00 9.390885e-05 7.215161e-05 0.000000e+00 0.000000e+00 0.000000e+00 0.000000e+00 5.355604e-04 -3.361611e-04 0.000000e+00 -3.361611e-04 8.578274e-04 0.000000e+00 0.000000e+00 0.000000e+00 0.000000e+00 2.343807e-04 -2.023621e-04 0.000000e+00 -2.023621e-04 1.054471e-03 0.000000e+00 0.000000e+00 0.000000e+00 0.000000e+00 1.364772e-04 7.582696e-05 0.000000e+00 7.582696e-05 -2.214347e-05 0.000000e+00 0.000000e+00 0.000000e+00 0.000000e+00 5.400731e-04 -2.079778e-04 0.000000e+00 -2.079778e-04 3.368475e-04 0.000000e+00 0.000000e+00 0.000000e+00 0.000000e+00 2.878785e-04 -7.384299e-05 0.000000e+00 -7.384299e-05 -6.560527e-05 0.000000e+00 0.000000e+00 0.000000e+00 0.000000e+00 3.819998e-04 -1.058471e-04 0.000000e+00 -1.058471e-04 5.826784e-05 0.000000e+00 0.000000e+00 0.000000e+00 0.000000e+00 3.647520e-04 -9.330304e-05 0.000000e+00 -9.330304e-05 6.997584e-05 0.000000e+00 0.000000e+00 0.000000e+00 0.000000e+00 1.129133e-04 9.718866e-05 0.000000e+00 9.718866e-05 -1.340945e-05 0.000000e+00 0.000000e+00 0.000000e+00 0.000000e+00 2.251638e-04 -5.860373e-05 0.000000e+00 -5.860373e-05 -1.650835e-04 0.000000e+00 0.000000e+00 0.000000e+00 0.000000e+00 2.232463e-04 -4.917067e-05 0.000000e+00 -4.917067e-05 -1.542008e-04 0.000000e+00 0.000000e+00 0.000000e+00 0.000000e+00 6.326017e-04 -2.152522e-04 0.000000e+00 -2.152522e-04 4.019656e-04 0.000000e+00 0.000000e+00 0.000000e+00 0.000000e+00 2.070068e-04 9.815315e-05 0.000000e+00 9.815315e-05 -5.948460e-05 0.000000e+00 0.000000e+00 0.000000e+00 0.000000e+00 -2.155489e-04 3.364987e-06 0.000000e+00 3.364987e-06 9.894866e-05 0.000000e+00 0.000000e+00 0.000000e+00 0.000000e+00 1.655863e-06 4.467464e-05 0.000000e+00 4.467464e-05 1.123264e-05 0.000000e+00 0.000000e+00 0.000000e+00 0.000000e+00 1.665766e-04 -2.109372e-05 0.000000e+00 -2.109372e-05 -4.606741e-04 0.000000e+00 0.000000e+00 0.000000e+00 0.000000e+00 1.621089e-04 -3.731916e-05 0.000000e+00 -3.731916e-05 -4.452803e-04 0.000000e+00 0.000000e+00 0.000000e+00 0.000000e+00 3.052991e-04 4.338555e-04 0.000000e+00 4.338555e-04 3.068742e-04 0.000000e+00 0.000000e+00 0.000000e+00 0.000000e+00 4.542868e-04 -1.480315e-04 0.000000e+00 -1.480315e-04 2.580604e-04 0.000000e+00 0.000000e+00 0.000000e+00 0.000000e+00 5.196809e-04 -1.862936e-04 0.000000e+00 -1.862936e-04 2.788627e-04 0.000000e+00 0.000000e+00 0.000000e+00 0.000000e+00 -1.143402e-04 1.262015e-04 0.000000e+00 1.262015e-04 5.147426e-05 0.000000e+00 0.000000e+00 0.000000e+00 0.000000e+00 2.760584e-05 -1.883621e-04 0.000000e+00 -1.883621e-04 -1.560402e-04 0.000000e+00 0.000000e+00 0.000000e+00 0.000000e+00 -5.240063e-06 6.590897e-06 0.000000e+00 6.590897e-06 -9.828156e-07 0.000000e+00 0.000000e+00 0.000000e+00 0.000000e+00 1.562853e-04 -2.675798e-05 0.000000e+00 -2.675798e-05 -4.047686e-04 0.000000e+00 0.000000e+00 0.000000e+00 0.000000e+00 1.629524e-04 -4.370279e-05 0.000000e+00 -4.370279e-05 -3.940641e-04 0.000000e+00 0.000000e+00 0.000000e+00 0.000000e+00 3.647344e-04 -9.821423e-05 0.000000e+00 -9.821423e-05 3.404964e-05 0.000000e+00 0.000000e+00 0.000000e+00 0.000000e+00 3.576633e-04 -8.677862e-05 0.000000e+00 -8.677862e-05 4.469102e-05 0.000000e+00 0.000000e+00 0.000000e+00 0.000000e+00 6.419444e-07 4.842841e-06 0.000000e+00 4.842841e-06 -2.318661e-05 0.000000e+00 0.000000e+00 0.000000e+00 0.000000e+00 8.637598e-05 1.438413e-04 0.000000e+00 1.438413e-04 -2.048491e-05 0.000000e+00 0.000000e+00 0.000000e+00 0.000000e+00 4.209637e-04 -1.071027e-04 0.000000e+00 -1.071027e-04 1.365273e-04 0.000000e+00 0.000000e+00 0.000000e+00 0.000000e+00 4.373878e-04 -1.054460e-04 0.000000e+00 -1.054460e-04 1.162970e-04 0.000000e+00 0.000000e+00 0.000000e+00 0.000000e+00 4.767098e-04 -1.092797e-04 0.000000e+00 -1.092797e-04 1.366024e-04 0.000000e+00 0.000000e+00 0.000000e+00 0.000000e+00 -5.425108e-06 -6.671972e-07 0.000000e+00 -6.671972e-07 -6.211735e-06 0.000000e+00 0.000000e+00 0.000000e+00 0.000000e+00 1.040786e-04 1.237953e-04 0.000000e+00 1.237953e-04 -1.706944e-05 0.000000e+00 0.000000e+00 0.000000e+00 0.000000e+00 9.571017e-05 1.143136e-04 0.000000e+00 1.143136e-04 -2.436443e-05 0.000000e+00 0.000000e+00 0.000000e+00 0.000000e+00 9.109780e-05 1.352231e-04 0.000000e+00 1.352231e-04 -2.414763e-05 0.000000e+00 0.000000e+00 0.000000e+00 0.000000e+00 2.756478e-04 4.539728e-04 0.000000e+00 4.539728e-04 3.067013e-04 0.000000e+00 0.000000e+00 0.000000e+00 0.000000e+00 -1.615792e-04 1.224434e-04 0.000000e+00 1.224434e-04 7.214249e-05 0.000000e+00 0.000000e+00 0.000000e+00 0.000000e+00 2.574487e-04 -6.955121e-05 0.000000e+00 -6.955121e-05 -1.167017e-04 0.000000e+00 0.000000e+00 0.000000e+00 0.000000e+00 2.510557e-04 -5.986213e-05 0.000000e+00 -5.986213e-05 -1.069224e-04 0.000000e+00 0.000000e+00 0.000000e+00 0.000000e+00 3.490648e-04 -9.406602e-05 0.000000e+00 -9.406602e-05 1.039211e-05 0.000000e+00 0.000000e+00 0.000000e+00 0.000000e+00 3.309941e-04 -7.824467e-05 0.000000e+00 -7.824467e-05 4.337165e-07 0.000000e+00 0.000000e+00 0.000000e+00 0.000000e+00 3.484984e-04 -8.056752e-05 0.000000e+00 -8.056752e-05 2.154215e-05 0.000000e+00 0.000000e+00 0.000000e+00 0.000000e+00 -3.244838e-05 1.736635e-04 0.000000e+00 1.736635e-04 1.755865e-05 0.000000e+00 0.000000e+00 0.000000e+00 0.000000e+00 -5.979972e-05 1.616085e-04 0.000000e+00 1.616085e-04 3.086310e-05 0.000000e+00 0.000000e+00 0.000000e+00 0.000000e+00 1.748440e-04 -3.119001e-05 0.000000e+00 -3.119001e-05 -3.418329e-04 0.000000e+00 0.000000e+00 0.000000e+00 0.000000e+00 1.702611e-04 -4.181245e-05 0.000000e+00 -4.181245e-05 -3.292317e-04 0.000000e+00 0.000000e+00 0.000000e+00 0.000000e+00 1.746064e-04 -3.704999e-05 0.000000e+00 -3.704999e-05 -5.371350e-04 0.000000e+00 0.000000e+00 0.000000e+00 0.000000e+00 1.898213e-04 -4.810576e-05 0.000000e+00 -4.810576e-05 -2.501882e-04 0.000000e+00 0.000000e+00 0.000000e+00 0.000000e+00 1.619085e-04 -4.482921e-05 0.000000e+00 -4.482921e-05 -3.687367e-04 0.000000e+00 0.000000e+00 0.000000e+00 0.000000e+00 1.731530e-04 -3.233612e-05 0.000000e+00 -3.233612e-05 -3.617927e-04 0.000000e+00 0.000000e+00 0.000000e+00 0.000000e+00 2.156398e-04 -5.255676e-05 0.000000e+00 -5.255676e-05 -6.908042e-04 0.000000e+00 0.000000e+00 0.000000e+00 0.000000e+00 -2.823444e-05 1.008342e-04 0.000000e+00 1.008342e-04 -3.628884e-05 0.000000e+00 0.000000e+00 0.000000e+00 0.000000e+00 -5.106401e-05 1.279082e-04 0.000000e+00 1.279082e-04 -2.051237e-05 0.000000e+00 0.000000e+00 0.000000e+00 0.000000e+00 6.053845e-05 1.610881e-04 0.000000e+00 1.610881e-04 -1.194944e-05 0.000000e+00 0.000000e+00 0.000000e+00 0.000000e+00 -3.279174e-07 9.693377e-06 0.000000e+00 9.693377e-06 -2.094810e-05 0.000000e+00 0.000000e+00 0.000000e+00 0.000000e+00 7.667020e-07 1.715767e-05 0.000000e+00 1.715767e-05 -7.115734e-06 0.000000e+00 0.000000e+00 0.000000e+00 0.000000e+00 -2.042283e-04 -2.672373e-05 0.000000e+00 -2.672373e-05 1.627005e-04 0.000000e+00 0.000000e+00 0.000000e+00 0.000000e+00 -1.615696e-04 3.670715e-05 0.000000e+00 3.670715e-05 1.032638e-04 0.000000e+00 0.000000e+00 0.000000e+00 0.000000e+00 -1.702251e-04 -4.609347e-05 0.000000e+00 -4.609347e-05 1.134423e-04 0.000000e+00 0.000000e+00 0.000000e+00 0.000000e+00 1.562282e-04 -2.357249e-05 0.000000e+00 -2.357249e-05 -4.292182e-04 0.000000e+00 0.000000e+00 0.000000e+00 0.000000e+00 2.979656e-04 -6.193362e-05 0.000000e+00 -6.193362e-05 -5.854901e-05 0.000000e+00 0.000000e+00 0.000000e+00 0.000000e+00 3.081592e-04 -7.590005e-05 0.000000e+00 -7.590005e-05 -4.768561e-05 0.000000e+00 0.000000e+00 0.000000e+00 0.000000e+00 4.835745e-04 -2.264733e-04 0.000000e+00 -2.264733e-04 5.083256e-04 0.000000e+00 0.000000e+00 0.000000e+00 0.000000e+00 6.251649e-04 -2.774296e-04 0.000000e+00 -2.774296e-04 5.253376e-04 0.000000e+00 0.000000e+00 0.000000e+00 0.000000e+00 2.993432e-04 3.985853e-04 0.000000e+00 3.985853e-04 1.929462e-04 0.000000e+00 0.000000e+00 0.000000e+00 0.000000e+00 2.282651e-04 2.734254e-04 0.000000e+00 2.734254e-04 1.359454e-04 0.000000e+00 0.000000e+00 0.000000e+00 0.000000e+00 1.730253e-04 -1.834656e-05 0.000000e+00 -1.834656e-05 -5.168689e-04 0.000000e+00 0.000000e+00 0.000000e+00 0.000000e+00 2.231358e-04 -3.180494e-05 0.000000e+00 -3.180494e-05 -6.677888e-04 0.000000e+00 0.000000e+00 0.000000e+00 0.000000e+00 1.841290e-04 -5.688903e-05 0.000000e+00 -5.688903e-05 -6.403960e-04 0.000000e+00 0.000000e+00 0.000000e+00 0.000000e+00 -5.736035e-06 1.080020e-05 0.000000e+00 1.080020e-05 -5.254386e-06 0.000000e+00 0.000000e+00 0.000000e+00 0.000000e+00 -2.712323e-05 7.002933e-05 0.000000e+00 7.002933e-05 -2.323503e-05 0.000000e+00 0.000000e+00 0.000000e+00 0.000000e+00 1.818420e-04 -4.775058e-05 0.000000e+00 -4.775058e-05 -2.691077e-04 0.000000e+00 0.000000e+00 0.000000e+00 0.000000e+00 -6.857894e-05 1.423757e-04 0.000000e+00 1.423757e-04 1.866871e-05 0.000000e+00 0.000000e+00 0.000000e+00 0.000000e+00 -9.444499e-06 -1.942488e-04 0.000000e+00 -1.942488e-04 -7.596834e-05 0.000000e+00 0.000000e+00 0.000000e+00 0.000000e+00 1.759027e-04 -3.963028e-05 0.000000e+00 -3.963028e-05 -5.692121e-04 0.000000e+00 0.000000e+00 0.000000e+00 0.000000e+00 1.749332e-04 -2.044303e-05 0.000000e+00 -2.044303e-05 -5.450227e-04 0.000000e+00 0.000000e+00 0.000000e+00 0.000000e+00 5.017708e-06 3.955204e-05 0.000000e+00 3.955204e-05 -4.875732e-05 0.000000e+00 0.000000e+00 0.000000e+00 0.000000e+00 2.144420e-06 7.368361e-06 0.000000e+00 7.368361e-06 -2.158492e-05 0.000000e+00 0.000000e+00 0.000000e+00 0.000000e+00 1.642853e-04 -1.216328e-04 0.000000e+00 -1.216328e-04 -4.260812e-04 0.000000e+00 0.000000e+00 0.000000e+00 0.000000e+00 1.723872e-04 -4.682241e-05 0.000000e+00 -4.682241e-05 -5.955766e-04 0.000000e+00 0.000000e+00 0.000000e+00 0.000000e+00 2.047000e-04 -3.082939e-05 0.000000e+00 -3.082939e-05 -6.255270e-04 0.000000e+00 0.000000e+00 0.000000e+00 0.000000e+00 1.896064e-04 -2.791039e-05 0.000000e+00 -2.791039e-05 -5.819023e-04 0.000000e+00 0.000000e+00 0.000000e+00 0.000000e+00 1.899253e-04 -3.914036e-05 0.000000e+00 -3.914036e-05 -2.816553e-04 0.000000e+00 0.000000e+00 0.000000e+00 0.000000e+00 2.705976e-04 -6.169865e-05 0.000000e+00 -6.169865e-05 -9.065912e-05 0.000000e+00 0.000000e+00 0.000000e+00 0.000000e+00 2.756934e-04 -7.446466e-05 0.000000e+00 -7.446466e-05 -8.012786e-05 0.000000e+00 0.000000e+00 0.000000e+00 0.000000e+00 2.120689e-04 -4.719908e-05 0.000000e+00 -4.719908e-05 -1.897585e-04 0.000000e+00 0.000000e+00 0.000000e+00 0.000000e+00 2.141772e-04 -5.962991e-05 0.000000e+00 -5.962991e-05 -1.790224e-04 0.000000e+00 0.000000e+00 0.000000e+00 0.000000e+00 1.817443e-04 -3.637033e-05 0.000000e+00 -3.637033e-05 -2.589095e-04 0.000000e+00 0.000000e+00 0.000000e+00 0.000000e+00 -2.372400e-05 8.384978e-05 0.000000e+00 8.384978e-05 -4.583980e-06 0.000000e+00 0.000000e+00 0.000000e+00 0.000000e+00 -8.301855e-05 1.368183e-04 0.000000e+00 1.368183e-04 1.722882e-05 0.000000e+00 0.000000e+00 0.000000e+00 0.000000e+00 -8.221773e-05 1.606207e-04 0.000000e+00 1.606207e-04 3.183295e-05 0.000000e+00 0.000000e+00 0.000000e+00 0.000000e+00 -1.256061e-04 1.385769e-04 0.000000e+00 1.385769e-04 4.786647e-05 0.000000e+00 0.000000e+00 0.000000e+00 0.000000e+00 1.523684e-04 -8.536227e-05 0.000000e+00 -8.536227e-05 -4.333696e-04 0.000000e+00 0.000000e+00 0.000000e+00 0.000000e+00 -9.160846e-06 2.120756e-06 0.000000e+00 2.120756e-06 -2.938499e-06 0.000000e+00 0.000000e+00 0.000000e+00 0.000000e+00 8.644672e-05 -1.652534e-04 0.000000e+00 -1.652534e-04 -2.591973e-04 0.000000e+00 0.000000e+00 0.000000e+00 0.000000e+00 1.438579e-04 -1.622397e-04 0.000000e+00 -1.622397e-04 -3.354512e-04 0.000000e+00 0.000000e+00 0.000000e+00 0.000000e+00 1.646204e-04 -7.413243e-05 0.000000e+00 -7.413243e-05 -4.826654e-04 0.000000e+00 0.000000e+00 0.000000e+00 0.000000e+00 -3.243642e-06 5.983267e-06 0.000000e+00 5.983267e-06 -1.343845e-05 0.000000e+00 0.000000e+00 0.000000e+00 0.000000e+00 1.751047e-04 -1.075444e-04 0.000000e+00 -1.075444e-04 -5.050113e-04 0.000000e+00 0.000000e+00 0.000000e+00 0.000000e+00 1.835550e-04 -6.039716e-05 0.000000e+00 -6.039716e-05 -5.345645e-04 0.000000e+00 0.000000e+00 0.000000e+00 0.000000e+00 1.218044e-04 -7.927518e-05 0.000000e+00 -7.927518e-05 -4.598056e-04 0.000000e+00 0.000000e+00 0.000000e+00 0.000000e+00 7.275575e-05 3.918212e-05 0.000000e+00 3.918212e-05 -5.754601e-04 0.000000e+00 0.000000e+00 0.000000e+00 0.000000e+00 1.684727e-04 -4.160175e-05 0.000000e+00 -4.160175e-05 -5.331094e-04 0.000000e+00 0.000000e+00 0.000000e+00 0.000000e+00 1.528191e-04 -5.208052e-05 0.000000e+00 -5.208052e-05 -4.856412e-04 0.000000e+00 0.000000e+00 0.000000e+00 0.000000e+00 1.837783e-04 -4.903006e-05 0.000000e+00 -4.903006e-05 -5.438044e-04 0.000000e+00 0.000000e+00 0.000000e+00 0.000000e+00 1.760951e-04 -7.381701e-05 0.000000e+00 -7.381701e-05 -4.840125e-04 0.000000e+00 0.000000e+00 0.000000e+00 0.000000e+00 1.495696e-04 -3.113312e-05 0.000000e+00 -3.113312e-05 -5.093420e-04 0.000000e+00 0.000000e+00 0.000000e+00 0.000000e+00 1.398662e-04 -6.221435e-06 0.000000e+00 -6.221435e-06 -5.481499e-04 0.000000e+00 0.000000e+00 0.000000e+00 0.000000e+00 1.716284e-04 -4.239674e-05 0.000000e+00 -4.239674e-05 -5.340442e-04 0.000000e+00 0.000000e+00 0.000000e+00 0.000000e+00 2.066580e-04 1.351648e-05 0.000000e+00 1.351648e-05 -6.580442e-04 0.000000e+00 0.000000e+00 0.000000e+00 0.000000e+00 1.712835e-04 -1.070602e-04 0.000000e+00 -1.070602e-04 -4.539583e-04 0.000000e+00 0.000000e+00 0.000000e+00 0.000000e+00 1.282929e-04 -1.035182e-04 0.000000e+00 -1.035182e-04 -3.937589e-04 0.000000e+00 0.000000e+00 0.000000e+00 0.000000e+00 1.293320e-04 -7.818261e-05 0.000000e+00 -7.818261e-05 -4.253573e-04 0.000000e+00 0.000000e+00 0.000000e+00 0.000000e+00 2.022779e-04 -1.958206e-05 0.000000e+00 -1.958206e-05 -5.814914e-04 0.000000e+00 0.000000e+00 0.000000e+00 0.000000e+00 1.974874e-04 -3.140534e-05 0.000000e+00 -3.140534e-05 -5.807215e-04 0.000000e+00 0.000000e+00 0.000000e+00 0.000000e+00 1.979746e-04 -5.045109e-05 0.000000e+00 -5.045109e-05 -2.329558e-04 0.000000e+00 0.000000e+00 0.000000e+00 0.000000e+00 1.930198e-04 -3.812345e-05 0.000000e+00 -3.812345e-05 -2.425568e-04 0.000000e+00 0.000000e+00 0.000000e+00 0.000000e+00 1.877804e-04 -4.399792e-05 0.000000e+00 -4.399792e-05 -2.216212e-04 0.000000e+00 0.000000e+00 0.000000e+00 0.000000e+00 2.491334e-04 -6.547274e-05 0.000000e+00 -6.547274e-05 -1.331265e-04 0.000000e+00 0.000000e+00 0.000000e+00 0.000000e+00 2.325854e-04 -5.423388e-05 0.000000e+00 -5.423388e-05 -1.389103e-04 0.000000e+00 0.000000e+00 0.000000e+00 0.000000e+00 2.401667e-04 -5.739095e-05 0.000000e+00 -5.739095e-05 -1.227274e-04 0.000000e+00 0.000000e+00 0.000000e+00 0.000000e+00 1.193628e-05 -1.616859e-05 0.000000e+00 -1.616859e-05 -4.815146e-06 0.000000e+00 0.000000e+00 0.000000e+00 0.000000e+00 -1.390093e-04 9.731068e-05 0.000000e+00 9.731068e-05 1.307961e-04 0.000000e+00 0.000000e+00 0.000000e+00 0.000000e+00 1.904456e-04 -6.475690e-05 0.000000e+00 -6.475690e-05 -2.597527e-04 0.000000e+00 0.000000e+00 0.000000e+00 0.000000e+00 6.847488e-05 -1.890870e-04 0.000000e+00 -1.890870e-04 -2.044791e-04 0.000000e+00 0.000000e+00 0.000000e+00 0.000000e+00 3.233154e-04 -8.324305e-05 0.000000e+00 -8.324305e-05 -3.079384e-05 0.000000e+00 0.000000e+00 0.000000e+00 0.000000e+00 2.907584e-04 -6.982502e-05 0.000000e+00 -6.982502e-05 -3.583132e-05 0.000000e+00 0.000000e+00 0.000000e+00 0.000000e+00 3.055467e-04 -7.389634e-05 0.000000e+00 -7.389634e-05 -1.809680e-05 0.000000e+00 0.000000e+00 0.000000e+00 0.000000e+00 5.158172e-04 -1.743817e-04 0.000000e+00 -1.743817e-04 3.590003e-04 0.000000e+00 0.000000e+00 0.000000e+00 0.000000e+00 6.067507e-04 -3.216451e-04 0.000000e+00 -3.216451e-04 6.660792e-04 0.000000e+00 0.000000e+00 0.000000e+00 0.000000e+00 4.364093e-04 -2.525882e-04 0.000000e+00 -2.525882e-04 6.390275e-04 0.000000e+00 0.000000e+00 0.000000e+00 0.000000e+00 3.666805e-04 -2.573537e-04 0.000000e+00 -2.573537e-04 8.216628e-04 0.000000e+00 0.000000e+00 0.000000e+00 0.000000e+00 1.213593e-04 9.066157e-05 0.000000e+00 9.066157e-05 -3.545861e-05 0.000000e+00 0.000000e+00 0.000000e+00 0.000000e+00 1.312837e-04 1.049802e-04 0.000000e+00 1.049802e-04 -2.601088e-05 0.000000e+00 0.000000e+00 0.000000e+00 0.000000e+00 8.821603e-05 -2.265237e-04 0.000000e+00 -2.265237e-04 -1.971604e-04 0.000000e+00 0.000000e+00 0.000000e+00 0.000000e+00 -2.828939e-06 -1.514134e-05 0.000000e+00 -1.514134e-05 8.669615e-06 0.000000e+00 0.000000e+00 0.000000e+00 0.000000e+00 2.831549e-04 -6.419271e-05 0.000000e+00 -6.419271e-05 -7.317228e-05 0.000000e+00 0.000000e+00 0.000000e+00 0.000000e+00 2.173944e-04 -2.974810e-05 0.000000e+00 -2.974810e-05 -6.494713e-04 0.000000e+00 0.000000e+00 0.000000e+00 0.000000e+00 2.086433e-04 1.407455e-04 0.000000e+00 1.407455e-04 -3.648340e-05 0.000000e+00 0.000000e+00 0.000000e+00 0.000000e+00 -4.443444e-05 1.131912e-04 0.000000e+00 1.131912e-04 8.362714e-06 0.000000e+00 0.000000e+00 0.000000e+00 0.000000e+00 7.557980e-05 7.363466e-05 0.000000e+00 7.363466e-05 9.870191e-04 0.000000e+00 0.000000e+00 0.000000e+00 0.000000e+00 -9.921129e-05 1.367932e-04 0.000000e+00 1.367932e-04 3.584522e-05 0.000000e+00 0.000000e+00 0.000000e+00 0.000000e+00 -1.169732e-04 1.309122e-04 0.000000e+00 1.309122e-04 7.847184e-05 0.000000e+00 0.000000e+00 0.000000e+00 0.000000e+00 4.687795e-04 -1.638916e-04 0.000000e+00 -1.638916e-04 3.103870e-04 0.000000e+00 0.000000e+00 0.000000e+00 0.000000e+00 4.069314e-05 -2.419946e-04 0.000000e+00 -2.419946e-04 -1.122980e-04 0.000000e+00 0.000000e+00 0.000000e+00 0.000000e+00 4.639601e-04 -2.689862e-04 0.000000e+00 -2.689862e-04 4.208175e-04 0.000000e+00 0.000000e+00 0.000000e+00 0.000000e+00 1.004598e-04 4.079864e-04 0.000000e+00 4.079864e-04 8.624773e-04 0.000000e+00 0.000000e+00 0.000000e+00 0.000000e+00 1.000890e-04 1.446406e-04 0.000000e+00 1.446406e-04 -2.971764e-05 0.000000e+00 0.000000e+00 0.000000e+00 0.000000e+00 1.628920e-04 -4.651989e-05 0.000000e+00 -4.651989e-05 -4.798358e-04 0.000000e+00 0.000000e+00 0.000000e+00 0.000000e+00 4.393195e-04 8.160768e-04 0.000000e+00 8.160768e-04 7.688483e-04 0.000000e+00 0.000000e+00 0.000000e+00 0.000000e+00 1.820258e-04 -7.647751e-05 0.000000e+00 -7.647751e-05 -4.837927e-04 0.000000e+00 0.000000e+00 0.000000e+00 0.000000e+00 1.897478e-04 -3.189178e-06 0.000000e+00 -3.189178e-06 -5.541789e-04 0.000000e+00 0.000000e+00 0.000000e+00 0.000000e+00 2.415479e-04 -3.062575e-05 0.000000e+00 -3.062575e-05 -6.807696e-04 0.000000e+00 0.000000e+00 0.000000e+00 0.000000e+00 2.858476e-04 2.726277e-04 0.000000e+00 2.726277e-04 7.299225e-05 0.000000e+00 0.000000e+00 0.000000e+00 0.000000e+00 1.304661e-04 3.765752e-04 0.000000e+00 3.765752e-04 6.125760e-04 0.000000e+00 0.000000e+00 0.000000e+00 0.000000e+00 -5.683987e-06 3.898792e-05 0.000000e+00 3.898792e-05 -2.870569e-05 0.000000e+00 0.000000e+00 0.000000e+00 0.000000e+00 1.813420e-04 -5.446548e-05 0.000000e+00 -5.446548e-05 -5.051409e-04 0.000000e+00 0.000000e+00 0.000000e+00 0.000000e+00 3.522007e-06 1.720194e-05 0.000000e+00 1.720194e-05 -4.067300e-05 0.000000e+00 0.000000e+00 0.000000e+00 0.000000e+00 1.438406e-04 -5.514196e-05 0.000000e+00 -5.514196e-05 -4.533070e-04 0.000000e+00 0.000000e+00 0.000000e+00 0.000000e+00 1.633885e-04 -5.664776e-05 0.000000e+00 -5.664776e-05 -2.620237e-04 0.000000e+00 0.000000e+00 0.000000e+00 0.000000e+00 -5.857018e-05 -2.186044e-04 0.000000e+00 -2.186044e-04 5.868322e-06 0.000000e+00 0.000000e+00 0.000000e+00 0.000000e+00 -1.493962e-05 -2.315466e-04 0.000000e+00 -2.315466e-04 -4.758208e-05 0.000000e+00 0.000000e+00 0.000000e+00 0.000000e+00 2.216626e-04 -3.793098e-05 0.000000e+00 -3.793098e-05 -6.474840e-04 0.000000e+00 0.000000e+00 0.000000e+00 0.000000e+00 -9.442243e-06 5.622091e-05 0.000000e+00 5.622091e-05 -1.247517e-05 0.000000e+00 0.000000e+00 0.000000e+00 0.000000e+00 1.532862e-04 -4.483118e-05 0.000000e+00 -4.483118e-05 -4.725307e-04 0.000000e+00 0.000000e+00 0.000000e+00 0.000000e+00 1.394821e-04 3.369068e-04 0.000000e+00 3.369068e-04 7.372257e-04 0.000000e+00 0.000000e+00 0.000000e+00 0.000000e+00 4.065384e-05 1.950816e-04 0.000000e+00 1.950816e-04 1.132887e-03 0.000000e+00 0.000000e+00 0.000000e+00 0.000000e+00 -8.740953e-06 6.896132e-05 0.000000e+00 6.896132e-05 -4.636276e-05 0.000000e+00 0.000000e+00 0.000000e+00 0.000000e+00 7.847604e-05 1.540674e-04 0.000000e+00 1.540674e-04 -1.422961e-05 0.000000e+00 0.000000e+00 0.000000e+00 0.000000e+00 1.738687e-04 -8.415789e-05 0.000000e+00 -8.415789e-05 -4.430093e-04 0.000000e+00 0.000000e+00 0.000000e+00 0.000000e+00 2.290308e-04 1.700150e-04 0.000000e+00 1.700150e-04 -1.896264e-05 0.000000e+00 0.000000e+00 0.000000e+00 0.000000e+00 1.740589e-04 1.439853e-04 0.000000e+00 1.439853e-04 -3.116335e-05 0.000000e+00 0.000000e+00 0.000000e+00 0.000000e+00 1.596666e-04 -8.330127e-05 0.000000e+00 -8.330127e-05 -5.464385e-04 0.000000e+00 0.000000e+00 0.000000e+00 0.000000e+00 -6.021346e-05 1.630306e-04 0.000000e+00 1.630306e-04 2.707000e-05 0.000000e+00 0.000000e+00 0.000000e+00 0.000000e+00 2.411102e-04 -8.646125e-05 0.000000e+00 -8.646125e-05 -1.415603e-04 0.000000e+00 0.000000e+00 0.000000e+00 0.000000e+00 1.734635e-04 -2.380702e-05 0.000000e+00 -2.380702e-05 -5.084280e-04 0.000000e+00 0.000000e+00 0.000000e+00 0.000000e+00 1.651737e-04 -3.193919e-05 0.000000e+00 -3.193919e-05 -3.153700e-04 0.000000e+00 0.000000e+00 0.000000e+00 0.000000e+00 1.200840e-04 3.277817e-04 0.000000e+00 3.277817e-04 4.110305e-04 0.000000e+00 0.000000e+00 0.000000e+00 0.000000e+00 1.046032e-04 2.988756e-04 0.000000e+00 2.988756e-04 3.944040e-04 0.000000e+00 0.000000e+00 0.000000e+00 0.000000e+00 1.848887e-04 -5.551272e-05 0.000000e+00 -5.551272e-05 -2.472979e-04 0.000000e+00 0.000000e+00 0.000000e+00 0.000000e+00 1.853253e-04 -6.667409e-05 0.000000e+00 -6.667409e-05 -2.349024e-04 0.000000e+00 0.000000e+00 0.000000e+00 0.000000e+00 -1.010386e-04 9.876892e-05 0.000000e+00 9.876892e-05 1.098712e-04 0.000000e+00 0.000000e+00 0.000000e+00 0.000000e+00 4.449094e-04 -1.914551e-04 0.000000e+00 -1.914551e-04 2.136643e-04 0.000000e+00 0.000000e+00 0.000000e+00 0.000000e+00 5.532391e-04 -2.150883e-04 0.000000e+00 -2.150883e-04 4.020285e-04 0.000000e+00 0.000000e+00 0.000000e+00 0.000000e+00 7.373017e-05 3.406423e-04 0.000000e+00 3.406423e-04 8.576274e-04 0.000000e+00 0.000000e+00 0.000000e+00 0.000000e+00 4.588119e-05 2.218551e-04 0.000000e+00 2.218551e-04 7.830283e-04 0.000000e+00 0.000000e+00 0.000000e+00 0.000000e+00 8.257604e-05 3.024224e-04 0.000000e+00 3.024224e-04 5.771736e-04 0.000000e+00 0.000000e+00 0.000000e+00 0.000000e+00 3.785580e-04 -1.554434e-04 0.000000e+00 -1.554434e-04 8.791191e-05 0.000000e+00 0.000000e+00 0.000000e+00 0.000000e+00 3.215169e-04 -1.298807e-04 0.000000e+00 -1.298807e-04 1.064560e-05 0.000000e+00 0.000000e+00 0.000000e+00 0.000000e+00 2.263020e-04 -1.683232e-04 0.000000e+00 -1.683232e-04 9.168296e-04 0.000000e+00 0.000000e+00 0.000000e+00 0.000000e+00 7.308559e-05 -5.248620e-05 0.000000e+00 -5.248620e-05 1.090706e-03 0.000000e+00 0.000000e+00 0.000000e+00 0.000000e+00 2.059032e-04 -8.559116e-05 0.000000e+00 -8.559116e-05 -1.829202e-04 0.000000e+00 0.000000e+00 0.000000e+00 0.000000e+00 4.193800e-04 -1.212533e-04 0.000000e+00 -1.212533e-04 1.734938e-04 0.000000e+00 0.000000e+00 0.000000e+00 0.000000e+00 2.101314e-04 2.054482e-04 0.000000e+00 2.054482e-04 2.010650e-05 0.000000e+00 0.000000e+00 0.000000e+00 0.000000e+00 2.523791e-04 2.086867e-04 0.000000e+00 2.086867e-04 1.363625e-05 0.000000e+00 0.000000e+00 0.000000e+00 0.000000e+00 1.209164e-04 1.382550e-04 0.000000e+00 1.382550e-04 -2.893148e-05 0.000000e+00 0.000000e+00 0.000000e+00 0.000000e+00 8.795390e-05 1.611204e-04 0.000000e+00 1.611204e-04 -1.412102e-05 0.000000e+00 0.000000e+00 0.000000e+00 0.000000e+00 2.321547e-04 -7.904808e-05 0.000000e+00 -7.904808e-05 -1.604769e-04 0.000000e+00 0.000000e+00 0.000000e+00 0.000000e+00 2.218092e-04 -7.310057e-05 0.000000e+00 -7.310057e-05 -1.469515e-04 0.000000e+00 0.000000e+00 0.000000e+00 0.000000e+00 4.346433e-04 6.661720e-04 0.000000e+00 6.661720e-04 1.242843e-03 0.000000e+00 0.000000e+00 0.000000e+00 0.000000e+00 2.433041e-04 3.241137e-04 0.000000e+00 3.241137e-04 1.862846e-04 0.000000e+00 0.000000e+00 0.000000e+00 0.000000e+00 1.685658e-04 2.446460e-04 0.000000e+00 2.446460e-04 1.352509e-04 0.000000e+00 0.000000e+00 0.000000e+00 0.000000e+00 1.708053e-04 1.021307e-04 0.000000e+00 1.021307e-04 -4.663880e-05 0.000000e+00 0.000000e+00 0.000000e+00 0.000000e+00 -1.856373e-05 -2.223530e-04 0.000000e+00 -2.223530e-04 -5.572279e-05 0.000000e+00 0.000000e+00 0.000000e+00 0.000000e+00 3.951955e-04 -2.182112e-04 0.000000e+00 -2.182112e-04 4.667413e-04 0.000000e+00 0.000000e+00 0.000000e+00 0.000000e+00 5.010899e-04 -2.793052e-04 0.000000e+00 -2.793052e-04 5.000079e-04 0.000000e+00 0.000000e+00 0.000000e+00 0.000000e+00 -1.035592e-04 1.491751e-04 0.000000e+00 1.491751e-04 5.044894e-05 0.000000e+00 0.000000e+00 0.000000e+00 0.000000e+00 1.897425e-04 1.189723e-04 0.000000e+00 1.189723e-04 -4.628282e-05 0.000000e+00 0.000000e+00 0.000000e+00 0.000000e+00 5.013918e-06 1.425008e-05 0.000000e+00 1.425008e-05 -1.214440e-05 0.000000e+00 0.000000e+00 0.000000e+00 0.000000e+00 -6.885630e-05 1.458552e-04 0.000000e+00 1.458552e-04 6.674971e-05 0.000000e+00 0.000000e+00 0.000000e+00 0.000000e+00 1.721014e-04 -4.483322e-05 0.000000e+00 -4.483322e-05 -4.461718e-04 0.000000e+00 0.000000e+00 0.000000e+00 0.000000e+00 -6.345074e-05 1.647300e-04 0.000000e+00 1.647300e-04 4.467288e-05 0.000000e+00 0.000000e+00 0.000000e+00 0.000000e+00 4.592733e-04 -2.471844e-04 0.000000e+00 -2.471844e-04 3.442710e-04 0.000000e+00 0.000000e+00 0.000000e+00 0.000000e+00 3.779274e-04 -2.159967e-04 0.000000e+00 -2.159967e-04 3.892900e-04 0.000000e+00 0.000000e+00 0.000000e+00 0.000000e+00 2.633142e-05 -2.206380e-04 0.000000e+00 -2.206380e-04 -1.169405e-04 0.000000e+00 0.000000e+00 0.000000e+00 0.000000e+00 1.555369e-04 -4.448997e-05 0.000000e+00 -4.448997e-05 -4.460995e-04 0.000000e+00 0.000000e+00 0.000000e+00 0.000000e+00 1.640869e-04 -2.809190e-05 0.000000e+00 -2.809190e-05 -3.823314e-04 0.000000e+00 0.000000e+00 0.000000e+00 0.000000e+00 2.708019e-04 -1.043759e-04 0.000000e+00 -1.043759e-04 -6.294626e-05 0.000000e+00 0.000000e+00 0.000000e+00 0.000000e+00 1.177363e-04 1.266501e-04 0.000000e+00 1.266501e-04 -2.734510e-05 0.000000e+00 0.000000e+00 0.000000e+00 0.000000e+00 3.614421e-04 -1.392142e-04 0.000000e+00 -1.392142e-04 5.788427e-05 0.000000e+00 0.000000e+00 0.000000e+00 0.000000e+00 3.292779e-04 -1.302173e-04 0.000000e+00 -1.302173e-04 7.532074e-05 0.000000e+00 0.000000e+00 0.000000e+00 0.000000e+00 1.659913e-04 -3.073512e-05 0.000000e+00 -3.073512e-05 -4.694640e-04 0.000000e+00 0.000000e+00 0.000000e+00 0.000000e+00 2.074110e-04 -8.071092e-05 0.000000e+00 -8.071092e-05 -2.084781e-04 0.000000e+00 0.000000e+00 0.000000e+00 0.000000e+00 1.945616e-04 -7.106746e-05 0.000000e+00 -7.106746e-05 -1.934346e-04 0.000000e+00 0.000000e+00 0.000000e+00 0.000000e+00 1.535365e-04 -4.534169e-05 0.000000e+00 -4.534169e-05 -4.375045e-04 0.000000e+00 0.000000e+00 0.000000e+00 0.000000e+00 1.522898e-04 -5.963608e-05 0.000000e+00 -5.963608e-05 -3.504949e-04 0.000000e+00 0.000000e+00 0.000000e+00 0.000000e+00 2.568226e-04 -1.022050e-04 0.000000e+00 -1.022050e-04 -1.031671e-04 0.000000e+00 0.000000e+00 0.000000e+00 0.000000e+00 2.290905e-04 -5.036193e-05 0.000000e+00 -5.036193e-05 -1.742276e-04 0.000000e+00 0.000000e+00 0.000000e+00 0.000000e+00 9.873291e-05 -2.363806e-04 0.000000e+00 -2.363806e-04 1.265042e-04 0.000000e+00 0.000000e+00 0.000000e+00 0.000000e+00 1.494411e-04 1.103646e-04 0.000000e+00 1.103646e-04 -4.712684e-05 0.000000e+00 0.000000e+00 0.000000e+00 0.000000e+00 1.734682e-04 -1.095583e-04 0.000000e+00 -1.095583e-04 -4.155572e-04 0.000000e+00 0.000000e+00 0.000000e+00 0.000000e+00 1.900711e-04 -7.433436e-05 0.000000e+00 -7.433436e-05 -2.781073e-04 0.000000e+00 0.000000e+00 0.000000e+00 0.000000e+00 2.912464e-06 1.198870e-05 0.000000e+00 1.198870e-05 -1.940451e-05 0.000000e+00 0.000000e+00 0.000000e+00 0.000000e+00 1.561279e-04 -5.115621e-05 0.000000e+00 -5.115621e-05 -3.281016e-04 0.000000e+00 0.000000e+00 0.000000e+00 0.000000e+00 1.744544e-04 -5.106418e-05 0.000000e+00 -5.106418e-05 -3.482787e-04 0.000000e+00 0.000000e+00 0.000000e+00 0.000000e+00 1.805636e-04 -5.180592e-05 0.000000e+00 -5.180592e-05 -3.281626e-04 0.000000e+00 0.000000e+00 0.000000e+00 0.000000e+00 1.683120e-04 1.237480e-04 0.000000e+00 1.237480e-04 -4.324657e-05 0.000000e+00 0.000000e+00 0.000000e+00 0.000000e+00 -1.703804e-04 -4.989832e-05 0.000000e+00 -4.989832e-05 2.147323e-04 0.000000e+00 0.000000e+00 0.000000e+00 0.000000e+00 2.602867e-04 -1.051417e-04 0.000000e+00 -1.051417e-04 -8.195569e-05 0.000000e+00 0.000000e+00 0.000000e+00 0.000000e+00 2.488903e-04 -9.108252e-05 0.000000e+00 -9.108252e-05 -9.258709e-05 0.000000e+00 0.000000e+00 0.000000e+00 0.000000e+00 2.749374e-04 -9.423472e-05 0.000000e+00 -9.423472e-05 -7.700780e-05 0.000000e+00 0.000000e+00 0.000000e+00 0.000000e+00 1.766444e-04 -4.530591e-05 0.000000e+00 -4.530591e-05 -5.282678e-04 0.000000e+00 0.000000e+00 0.000000e+00 0.000000e+00 1.554176e-04 8.764539e-05 0.000000e+00 8.764539e-05 -3.745530e-05 0.000000e+00 0.000000e+00 0.000000e+00 0.000000e+00 3.067975e-05 1.603094e-04 0.000000e+00 1.603094e-04 2.632483e-06 0.000000e+00 0.000000e+00 0.000000e+00 0.000000e+00 1.792125e-04 -2.422855e-05 0.000000e+00 -2.422855e-05 -5.376422e-04 0.000000e+00 0.000000e+00 0.000000e+00 0.000000e+00 1.333638e-04 -7.274030e-05 0.000000e+00 -7.274030e-05 -3.989346e-04 0.000000e+00 0.000000e+00 0.000000e+00 0.000000e+00 1.955886e-04 1.688895e-04 0.000000e+00 1.688895e-04 -1.402165e-05 0.000000e+00 0.000000e+00 0.000000e+00 0.000000e+00 1.695059e-04 -6.359559e-05 0.000000e+00 -6.359559e-05 -4.654068e-04 0.000000e+00 0.000000e+00 0.000000e+00 0.000000e+00 3.834706e-04 -1.774697e-04 0.000000e+00 -1.774697e-04 2.560551e-04 0.000000e+00 0.000000e+00 0.000000e+00 0.000000e+00 4.572988e-04 -2.184915e-04 0.000000e+00 -2.184915e-04 2.773710e-04 0.000000e+00 0.000000e+00 0.000000e+00 0.000000e+00 -1.627406e-04 3.405421e-05 0.000000e+00 3.405421e-05 1.846094e-04 0.000000e+00 0.000000e+00 0.000000e+00 0.000000e+00 1.497077e-04 -3.730890e-05 0.000000e+00 -3.730890e-05 -4.167141e-04 0.000000e+00 0.000000e+00 0.000000e+00 0.000000e+00 1.604114e-04 -7.103077e-05 0.000000e+00 -7.103077e-05 -4.144466e-04 0.000000e+00 0.000000e+00 0.000000e+00 0.000000e+00 1.669618e-04 -5.868495e-05 0.000000e+00 -5.868495e-05 -4.074051e-04 0.000000e+00 0.000000e+00 0.000000e+00 0.000000e+00 2.767425e-04 -9.182155e-05 0.000000e+00 -9.182155e-05 -5.684181e-05 0.000000e+00 0.000000e+00 0.000000e+00 0.000000e+00 2.802707e-04 -1.024979e-04 0.000000e+00 -1.024979e-04 -4.413690e-05 0.000000e+00 0.000000e+00 0.000000e+00 0.000000e+00 -5.704015e-07 3.372549e-05 0.000000e+00 3.372549e-05 -2.441678e-05 0.000000e+00 0.000000e+00 0.000000e+00 0.000000e+00 -1.421125e-04 -8.126860e-05 0.000000e+00 -8.126860e-05 1.427109e-04 0.000000e+00 0.000000e+00 0.000000e+00 0.000000e+00 4.604020e-05 1.734900e-04 0.000000e+00 1.734900e-04 7.170780e-06 0.000000e+00 0.000000e+00 0.000000e+00 0.000000e+00 1.278902e-04 -2.771626e-04 0.000000e+00 -2.771626e-04 1.079550e-04 0.000000e+00 0.000000e+00 0.000000e+00 0.000000e+00 1.643387e-04 -1.374336e-04 0.000000e+00 -1.374336e-04 -3.820974e-04 0.000000e+00 0.000000e+00 0.000000e+00 0.000000e+00 1.080819e-04 -1.343056e-04 0.000000e+00 -1.343056e-04 -3.176199e-04 0.000000e+00 0.000000e+00 0.000000e+00 0.000000e+00 2.476162e-04 3.370026e-05 0.000000e+00 3.370026e-05 -7.116980e-04 0.000000e+00 0.000000e+00 0.000000e+00 0.000000e+00 -1.519492e-04 -1.422145e-04 0.000000e+00 -1.422145e-04 1.932708e-04 0.000000e+00 0.000000e+00 0.000000e+00 0.000000e+00 2.216245e-04 -8.340537e-05 0.000000e+00 -8.340537e-05 -1.268248e-04 0.000000e+00 0.000000e+00 0.000000e+00 0.000000e+00 2.495358e-04 -9.417690e-05 0.000000e+00 -9.417690e-05 -1.238741e-04 0.000000e+00 0.000000e+00 0.000000e+00 0.000000e+00 -1.422196e-04 -8.578588e-05 0.000000e+00 -8.578588e-05 2.616775e-04 0.000000e+00 0.000000e+00 0.000000e+00 0.000000e+00 1.370783e-04 1.003554e-04 0.000000e+00 1.003554e-04 -4.516684e-05 0.000000e+00 0.000000e+00 0.000000e+00 0.000000e+00 1.856869e-04 -6.512035e-05 0.000000e+00 -6.512035e-05 -3.034664e-04 0.000000e+00 0.000000e+00 0.000000e+00 0.000000e+00 1.590909e-04 -5.405438e-05 0.000000e+00 -5.405438e-05 -3.054408e-04 0.000000e+00 0.000000e+00 0.000000e+00 0.000000e+00 1.581310e-04 -6.453749e-05 0.000000e+00 -6.453749e-05 -2.801096e-04 0.000000e+00 0.000000e+00 0.000000e+00 0.000000e+00 -5.998159e-05 -2.378067e-04 0.000000e+00 -2.378067e-04 3.046158e-05 0.000000e+00 0.000000e+00 0.000000e+00 0.000000e+00 2.975302e-04 -1.132428e-04 0.000000e+00 -1.132428e-04 1.230624e-06 0.000000e+00 0.000000e+00 0.000000e+00 0.000000e+00 3.185848e-04 -1.213140e-04 0.000000e+00 -1.213140e-04 -1.515675e-05 0.000000e+00 0.000000e+00 0.000000e+00 0.000000e+00 4.439513e-04 -1.555550e-04 0.000000e+00 -1.555550e-04 1.576028e-04 0.000000e+00 0.000000e+00 0.000000e+00 0.000000e+00 3.738229e-04 -1.712368e-04 0.000000e+00 -1.712368e-04 2.080380e-04 0.000000e+00 0.000000e+00 0.000000e+00 0.000000e+00 1.129465e-04 1.203086e-04 0.000000e+00 1.203086e-04 -3.409481e-05 0.000000e+00 0.000000e+00 0.000000e+00 0.000000e+00 6.285584e-05 -2.063815e-04 0.000000e+00 -2.063815e-04 -1.761129e-04 0.000000e+00 0.000000e+00 0.000000e+00 0.000000e+00 1.246629e-04 -1.044146e-04 0.000000e+00 -1.044146e-04 -3.643997e-04 0.000000e+00 0.000000e+00 0.000000e+00 0.000000e+00 -1.356448e-04 1.339933e-05 0.000000e+00 1.339933e-05 1.400856e-04 0.000000e+00 0.000000e+00 0.000000e+00 0.000000e+00 1.651391e-04 -7.405574e-05 0.000000e+00 -7.405574e-05 -2.552942e-04 0.000000e+00 0.000000e+00 0.000000e+00 0.000000e+00 4.729577e-05 -2.618689e-04 0.000000e+00 -2.618689e-04 -8.969732e-05 0.000000e+00 0.000000e+00 0.000000e+00 0.000000e+00 1.595937e-04 -6.410711e-05 0.000000e+00 -6.410711e-05 -3.765413e-04 0.000000e+00 0.000000e+00 0.000000e+00 0.000000e+00 1.537131e-04 -4.619449e-05 0.000000e+00 -4.619449e-05 -3.873177e-04 0.000000e+00 0.000000e+00 0.000000e+00 0.000000e+00 1.734212e-04 -5.198904e-05 0.000000e+00 -5.198904e-05 -3.709262e-04 0.000000e+00 0.000000e+00 0.000000e+00 0.000000e+00 1.797479e-04 1.830326e-04 0.000000e+00 1.830326e-04 2.001537e-06 0.000000e+00 0.000000e+00 0.000000e+00 0.000000e+00 1.711623e-04 2.434735e-04 0.000000e+00 2.434735e-04 1.163715e-04 0.000000e+00 0.000000e+00 0.000000e+00 0.000000e+00 1.257195e-04 -2.028141e-04 0.000000e+00 -2.028141e-04 -2.491232e-04 0.000000e+00 0.000000e+00 0.000000e+00 0.000000e+00 2.309814e-04 -8.746891e-05 0.000000e+00 -8.746891e-05 -1.100182e-04 0.000000e+00 0.000000e+00 0.000000e+00 0.000000e+00 2.048209e-04 -7.754902e-05 0.000000e+00 -7.754902e-05 -1.604569e-04 0.000000e+00 0.000000e+00 0.000000e+00 0.000000e+00 3.343918e-04 -1.320680e-04 0.000000e+00 -1.320680e-04 3.422629e-05 0.000000e+00 0.000000e+00 0.000000e+00 0.000000e+00 3.190241e-04 -1.155701e-04 0.000000e+00 -1.155701e-04 2.213284e-05 0.000000e+00 0.000000e+00 0.000000e+00 0.000000e+00 3.404273e-04 -1.191021e-04 0.000000e+00 -1.191021e-04 4.193955e-05 0.000000e+00 0.000000e+00 0.000000e+00 0.000000e+00 -1.238706e-04 -1.568285e-04 0.000000e+00 -1.568285e-04 1.284475e-04 0.000000e+00 0.000000e+00 0.000000e+00 0.000000e+00 1.578628e-04 1.341065e-04 0.000000e+00 1.341065e-04 -3.640854e-05 0.000000e+00 0.000000e+00 0.000000e+00 0.000000e+00 1.740867e-04 2.151604e-04 0.000000e+00 2.151604e-04 5.556104e-05 0.000000e+00 0.000000e+00 0.000000e+00 0.000000e+00 1.341013e-04 1.986743e-04 0.000000e+00 1.986743e-04 6.230061e-05 0.000000e+00 0.000000e+00 0.000000e+00 0.000000e+00 1.194529e-04 1.723345e-04 0.000000e+00 1.723345e-04 2.213740e-05 0.000000e+00 0.000000e+00 0.000000e+00 0.000000e+00 1.748067e-04 -1.038231e-04 0.000000e+00 -1.038231e-04 -3.868768e-04 0.000000e+00 0.000000e+00 0.000000e+00 0.000000e+00 -3.050385e-05 1.761396e-04 0.000000e+00 1.761396e-04 3.113033e-05 0.000000e+00 0.000000e+00 0.000000e+00 0.000000e+00 1.486023e-04 1.177452e-04 0.000000e+00 1.177452e-04 -3.534974e-05 0.000000e+00 0.000000e+00 0.000000e+00 0.000000e+00 2.977802e-04 -1.612501e-04 0.000000e+00 -1.612501e-04 1.009084e-05 0.000000e+00 0.000000e+00 0.000000e+00 0.000000e+00 2.744700e-04 -1.053646e-04 0.000000e+00 -1.053646e-04 -2.019986e-05 0.000000e+00 0.000000e+00 0.000000e+00 0.000000e+00 1.649040e-04 -1.429073e-04 0.000000e+00 -1.429073e-04 -3.430868e-04 0.000000e+00 0.000000e+00 0.000000e+00 0.000000e+00 8.757596e-05 -1.765025e-04 0.000000e+00 -1.765025e-04 -2.307600e-04 0.000000e+00 0.000000e+00 0.000000e+00 0.000000e+00 -1.760048e-05 1.613390e-04 0.000000e+00 1.613390e-04 1.862988e-05 0.000000e+00 0.000000e+00 0.000000e+00 0.000000e+00 1.168343e-04 1.328616e-04 0.000000e+00 1.328616e-04 -3.509153e-05 0.000000e+00 0.000000e+00 0.000000e+00 0.000000e+00 2.071703e-04 -6.463993e-05 0.000000e+00 -6.463993e-05 -2.347731e-04 0.000000e+00 0.000000e+00 0.000000e+00 0.000000e+00 8.745295e-05 -2.720017e-04 0.000000e+00 -2.720017e-04 2.891503e-04 0.000000e+00 0.000000e+00 0.000000e+00 0.000000e+00 1.831385e-04 -6.868202e-05 0.000000e+00 -6.868202e-05 -2.124360e-04 0.000000e+00 0.000000e+00 0.000000e+00 0.000000e+00 4.664413e-05 1.618853e-04 0.000000e+00 1.618853e-04 6.575345e-06 0.000000e+00 0.000000e+00 0.000000e+00 0.000000e+00 3.798167e-04 -1.666691e-04 0.000000e+00 -1.666691e-04 1.234977e-04 0.000000e+00 0.000000e+00 0.000000e+00 0.000000e+00 -1.036537e-04 1.052524e-04 0.000000e+00 1.052524e-04 1.864653e-04 0.000000e+00 0.000000e+00 0.000000e+00 0.000000e+00 1.933716e-04 -2.871331e-05 0.000000e+00 -2.871331e-05 -5.809691e-04 0.000000e+00 0.000000e+00 0.000000e+00 0.000000e+00 3.840418e-04 -1.535632e-04 0.000000e+00 -1.535632e-04 1.575490e-04 0.000000e+00 0.000000e+00 0.000000e+00 0.000000e+00 6.286134e-06 1.777154e-04 0.000000e+00 1.777154e-04 2.118979e-05 0.000000e+00 0.000000e+00 0.000000e+00 0.000000e+00 -6.899514e-05 1.428064e-04 0.000000e+00 1.428064e-04 9.940257e-05 0.000000e+00 0.000000e+00 0.000000e+00 0.000000e+00 -2.457367e-05 1.590464e-04 0.000000e+00 1.590464e-04 9.445446e-05 0.000000e+00 0.000000e+00 0.000000e+00 0.000000e+00 4.009899e-04 -1.519086e-04 0.000000e+00 -1.519086e-04 1.267242e-04 0.000000e+00 0.000000e+00 0.000000e+00 0.000000e+00 1.899318e-04 -4.335579e-05 0.000000e+00 -4.335579e-05 -5.889968e-04 0.000000e+00 0.000000e+00 0.000000e+00 0.000000e+00 -2.322040e-07 1.595224e-04 0.000000e+00 1.595224e-04 2.146127e-05 0.000000e+00 0.000000e+00 0.000000e+00 0.000000e+00 3.957272e-04 -2.111757e-04 0.000000e+00 -2.111757e-04 1.962595e-04 0.000000e+00 0.000000e+00 0.000000e+00 0.000000e+00 3.392283e-04 -1.401604e-04 0.000000e+00 -1.401604e-04 1.062388e-04 0.000000e+00 0.000000e+00 0.000000e+00 0.000000e+00 1.308396e-04 -2.477803e-04 0.000000e+00 -2.477803e-04 1.744179e-04 0.000000e+00 0.000000e+00 0.000000e+00 0.000000e+00 1.718406e-05 -2.081321e-04 0.000000e+00 -2.081321e-04 4.247231e-04 0.000000e+00 0.000000e+00 0.000000e+00 0.000000e+00 -1.362226e-04 2.279513e-05 0.000000e+00 2.279513e-05 2.550963e-04 0.000000e+00 0.000000e+00 0.000000e+00 0.000000e+00 -8.086394e-05 8.834140e-05 0.000000e+00 8.834140e-05 1.546354e-04 0.000000e+00 0.000000e+00 0.000000e+00 0.000000e+00 -1.209274e-04 -1.360372e-05 0.000000e+00 -1.360372e-05 1.925511e-04 0.000000e+00 0.000000e+00 0.000000e+00 0.000000e+00 1.530211e-04 -1.780166e-04 0.000000e+00 -1.780166e-04 -2.960150e-04 0.000000e+00 0.000000e+00 0.000000e+00 0.000000e+00 1.726905e-04 -7.366255e-05 0.000000e+00 -7.366255e-05 -6.926528e-04 0.000000e+00 0.000000e+00 0.000000e+00 0.000000e+00 -1.192722e-04 -1.146469e-04 0.000000e+00 -1.146469e-04 1.894329e-04 0.000000e+00 0.000000e+00 0.000000e+00 0.000000e+00 2.836018e-04 -1.453636e-04 0.000000e+00 -1.453636e-04 2.430506e-05 0.000000e+00 0.000000e+00 0.000000e+00 0.000000e+00 3.017448e-04 -1.654683e-04 0.000000e+00 -1.654683e-04 4.330457e-05 0.000000e+00 0.000000e+00 0.000000e+00 0.000000e+00 1.848775e-04 -8.367802e-05 0.000000e+00 -8.367802e-05 -3.002353e-04 0.000000e+00 0.000000e+00 0.000000e+00 0.000000e+00 1.055026e-04 3.176674e-04 0.000000e+00 3.176674e-04 3.724116e-04 0.000000e+00 0.000000e+00 0.000000e+00 0.000000e+00 8.202291e-05 2.405568e-04 0.000000e+00 2.405568e-04 2.902405e-04 0.000000e+00 0.000000e+00 0.000000e+00 0.000000e+00 2.050581e-05 1.819309e-04 0.000000e+00 1.819309e-04 3.926242e-05 0.000000e+00 0.000000e+00 0.000000e+00 0.000000e+00 6.010771e-05 1.677574e-05 0.000000e+00 1.677574e-05 8.276225e-04 0.000000e+00 0.000000e+00 0.000000e+00 0.000000e+00 1.172192e-04 -1.298568e-04 0.000000e+00 -1.298568e-04 -2.964009e-04 0.000000e+00 0.000000e+00 0.000000e+00 0.000000e+00 3.566121e-04 -1.926567e-04 0.000000e+00 -1.926567e-04 1.122126e-04 0.000000e+00 0.000000e+00 0.000000e+00 0.000000e+00 2.235193e-04 -7.572228e-05 0.000000e+00 -7.572228e-05 -1.786208e-04 0.000000e+00 0.000000e+00 0.000000e+00 0.000000e+00 3.710909e-04 -2.670056e-04 0.000000e+00 -2.670056e-04 7.636839e-04 0.000000e+00 0.000000e+00 0.000000e+00 0.000000e+00 1.811859e-04 -2.069111e-04 0.000000e+00 -2.069111e-04 9.390559e-04 0.000000e+00 0.000000e+00 0.000000e+00 0.000000e+00 2.444289e-04 -1.263283e-04 0.000000e+00 -1.263283e-04 -1.120294e-04 0.000000e+00 0.000000e+00 0.000000e+00 0.000000e+00 4.450717e-04 -2.948627e-04 0.000000e+00 -2.948627e-04 6.306704e-04 0.000000e+00 0.000000e+00 0.000000e+00 0.000000e+00 2.610843e-04 -2.317366e-04 0.000000e+00 -2.317366e-04 7.525259e-04 0.000000e+00 0.000000e+00 0.000000e+00 0.000000e+00 9.885962e-05 1.529758e-04 0.000000e+00 1.529758e-04 -1.449035e-05 0.000000e+00 0.000000e+00 0.000000e+00 0.000000e+00 6.722975e-05 1.809628e-04 0.000000e+00 1.809628e-04 1.618357e-05 0.000000e+00 0.000000e+00 0.000000e+00 0.000000e+00 1.232761e-05 9.009111e-05 0.000000e+00 9.009111e-05 9.419325e-04 0.000000e+00 0.000000e+00 0.000000e+00 0.000000e+00 1.332176e-04 -2.127708e-04 0.000000e+00 -2.127708e-04 -2.160213e-04 0.000000e+00 0.000000e+00 0.000000e+00 0.000000e+00 2.007294e-05 1.977547e-04 0.000000e+00 1.977547e-04 7.768063e-04 0.000000e+00 0.000000e+00 0.000000e+00 0.000000e+00 -6.383976e-06 -2.597332e-04 0.000000e+00 -2.597332e-04 -1.783179e-05 0.000000e+00 0.000000e+00 0.000000e+00 0.000000e+00 3.400055e-04 -2.493607e-04 0.000000e+00 -2.493607e-04 6.129225e-04 0.000000e+00 0.000000e+00 0.000000e+00 0.000000e+00 3.156909e-05 -2.384344e-04 0.000000e+00 -2.384344e-04 -7.521191e-05 0.000000e+00 0.000000e+00 0.000000e+00 0.000000e+00 1.893145e-04 -8.825761e-05 0.000000e+00 -8.825761e-05 -2.494917e-04 0.000000e+00 0.000000e+00 0.000000e+00 0.000000e+00 3.600711e-04 -2.834338e-04 0.000000e+00 -2.834338e-04 4.231134e-04 0.000000e+00 0.000000e+00 0.000000e+00 0.000000e+00 -1.129743e-05 -2.430401e-04 0.000000e+00 -2.430401e-04 -1.847989e-05 0.000000e+00 0.000000e+00 0.000000e+00 0.000000e+00 9.406549e-05 -2.469318e-04 0.000000e+00 -2.469318e-04 -1.526804e-04 0.000000e+00 0.000000e+00 0.000000e+00 0.000000e+00 2.452640e-04 -1.318219e-04 0.000000e+00 -1.318219e-04 -5.515830e-05 0.000000e+00 0.000000e+00 0.000000e+00 0.000000e+00 1.695055e-04 2.438359e-04 0.000000e+00 2.438359e-04 1.164135e-04 0.000000e+00 0.000000e+00 0.000000e+00 0.000000e+00 1.757221e-04 1.541875e-04 0.000000e+00 1.541875e-04 -2.550981e-05 0.000000e+00 0.000000e+00 0.000000e+00 0.000000e+00 -5.331968e-06 1.719142e-04 0.000000e+00 1.719142e-04 4.406121e-05 0.000000e+00 0.000000e+00 0.000000e+00 0.000000e+00 1.288514e-04 1.591378e-04 0.000000e+00 1.591378e-04 -9.152145e-06 0.000000e+00 0.000000e+00 0.000000e+00 0.000000e+00 2.023435e-04 -1.113334e-04 0.000000e+00 -1.113334e-04 -1.935980e-04 0.000000e+00 0.000000e+00 0.000000e+00 0.000000e+00 2.932296e-04 -1.489976e-04 0.000000e+00 -1.489976e-04 -2.135532e-05 0.000000e+00 0.000000e+00 0.000000e+00 0.000000e+00 2.667593e-04 -1.408851e-04 0.000000e+00 -1.408851e-04 -2.442608e-06 0.000000e+00 0.000000e+00 0.000000e+00 0.000000e+00 -1.209282e-04 -1.752893e-04 0.000000e+00 -1.752893e-04 2.283630e-04 0.000000e+00 0.000000e+00 0.000000e+00 0.000000e+00 3.698343e-04 -2.447076e-04 0.000000e+00 -2.447076e-04 2.914891e-04 0.000000e+00 0.000000e+00 0.000000e+00 0.000000e+00 1.290168e-04 -9.527361e-05 0.000000e+00 -9.527361e-05 -3.446723e-04 0.000000e+00 0.000000e+00 0.000000e+00 0.000000e+00 3.787814e-04 -2.069252e-04 0.000000e+00 -2.069252e-04 3.259029e-04 0.000000e+00 0.000000e+00 0.000000e+00 0.000000e+00 -1.126247e-04 -1.994579e-04 0.000000e+00 -1.994579e-04 8.688479e-05 0.000000e+00 0.000000e+00 0.000000e+00 0.000000e+00 -5.934876e-05 -2.302668e-04 0.000000e+00 -2.302668e-04 3.504897e-05 0.000000e+00 0.000000e+00 0.000000e+00 0.000000e+00 2.460617e-04 -1.370108e-04 0.000000e+00 -1.370108e-04 -8.284788e-05 0.000000e+00 0.000000e+00 0.000000e+00 0.000000e+00 2.517836e-04 -1.241496e-04 0.000000e+00 -1.241496e-04 -7.437308e-05 0.000000e+00 0.000000e+00 0.000000e+00 0.000000e+00 3.286433e-04 -1.960361e-04 0.000000e+00 -1.960361e-04 1.928459e-04 0.000000e+00 0.000000e+00 0.000000e+00 0.000000e+00 1.497123e-04 -6.550959e-05 0.000000e+00 -6.550959e-05 -3.256046e-04 0.000000e+00 0.000000e+00 0.000000e+00 0.000000e+00 1.784103e-04 -6.700095e-05 0.000000e+00 -6.700095e-05 -3.257435e-04 0.000000e+00 0.000000e+00 0.000000e+00 0.000000e+00 -5.071912e-05 -2.568388e-04 0.000000e+00 -2.568388e-04 7.347220e-05 0.000000e+00 0.000000e+00 0.000000e+00 0.000000e+00 3.095758e-04 -2.045277e-04 0.000000e+00 -2.045277e-04 2.647027e-04 0.000000e+00 0.000000e+00 0.000000e+00 0.000000e+00 1.549610e-04 -9.174429e-05 0.000000e+00 -9.174429e-05 -2.700692e-04 0.000000e+00 0.000000e+00 0.000000e+00 0.000000e+00 1.841364e-04 -1.039083e-04 0.000000e+00 -1.039083e-04 -2.679883e-04 0.000000e+00 0.000000e+00 0.000000e+00 0.000000e+00 7.543599e-05 -2.091249e-04 0.000000e+00 -2.091249e-04 -1.500533e-04 0.000000e+00 0.000000e+00 0.000000e+00 0.000000e+00 1.715673e-04 -7.963859e-05 0.000000e+00 -7.963859e-05 -3.419935e-04 0.000000e+00 0.000000e+00 0.000000e+00 0.000000e+00 1.967781e-04 -1.116398e-04 0.000000e+00 -1.116398e-04 -1.608160e-04 0.000000e+00 0.000000e+00 0.000000e+00 0.000000e+00 2.217692e-04 -1.201888e-04 0.000000e+00 -1.201888e-04 -9.261819e-05 0.000000e+00 0.000000e+00 0.000000e+00 0.000000e+00 1.975246e-05 1.847466e-04 0.000000e+00 1.847466e-04 5.550251e-04 0.000000e+00 0.000000e+00 0.000000e+00 0.000000e+00 3.066734e-05 2.421437e-04 0.000000e+00 2.421437e-04 5.949627e-04 0.000000e+00 0.000000e+00 0.000000e+00 0.000000e+00 2.667562e-04 -2.246781e-04 0.000000e+00 -2.246781e-04 4.798714e-04 0.000000e+00 0.000000e+00 0.000000e+00 0.000000e+00 3.365632e-04 -2.916934e-04 0.000000e+00 -2.916934e-04 5.442049e-04 0.000000e+00 0.000000e+00 0.000000e+00 0.000000e+00 9.439337e-05 -2.388277e-04 0.000000e+00 -2.388277e-04 6.791983e-05 0.000000e+00 0.000000e+00 0.000000e+00 0.000000e+00 2.795197e-04 -1.359356e-04 0.000000e+00 -1.359356e-04 -5.493027e-05 0.000000e+00 0.000000e+00 0.000000e+00 0.000000e+00 2.017639e-04 -9.796472e-05 0.000000e+00 -9.796472e-05 -1.801512e-04 0.000000e+00 0.000000e+00 0.000000e+00 0.000000e+00 -1.066819e-04 -2.201899e-04 0.000000e+00 -2.201899e-04 1.330500e-04 0.000000e+00 0.000000e+00 0.000000e+00 0.000000e+00 1.393850e-04 -7.252466e-05 0.000000e+00 -7.252466e-05 -3.433337e-04 0.000000e+00 0.000000e+00 0.000000e+00 0.000000e+00 2.409724e-04 -1.060855e-04 0.000000e+00 -1.060855e-04 -1.392214e-04 0.000000e+00 0.000000e+00 0.000000e+00 0.000000e+00 2.125603e-04 -1.086604e-04 0.000000e+00 -1.086604e-04 -1.394470e-04 0.000000e+00 0.000000e+00 0.000000e+00 0.000000e+00 2.074597e-04 -1.143124e-04 0.000000e+00 -1.143124e-04 -1.148132e-04 0.000000e+00 0.000000e+00 0.000000e+00 0.000000e+00 2.230909e-04 -1.024236e-04 0.000000e+00 -1.024236e-04 -1.578887e-04 0.000000e+00 0.000000e+00 0.000000e+00 0.000000e+00 -8.501099e-05 -1.954246e-04 0.000000e+00 -1.954246e-04 1.500985e-04 0.000000e+00 0.000000e+00 0.000000e+00 0.000000e+00 1.471131e-04 -1.730357e-04 0.000000e+00 -1.730357e-04 -2.591374e-04 0.000000e+00 0.000000e+00 0.000000e+00 0.000000e+00 9.985423e-06 1.238515e-04 0.000000e+00 1.238515e-04 6.982390e-04 0.000000e+00 0.000000e+00 0.000000e+00 0.000000e+00 2.303610e-04 -1.622187e-04 0.000000e+00 -1.622187e-04 -9.118859e-05 0.000000e+00 0.000000e+00 0.000000e+00 0.000000e+00 5.936761e-05 -2.698783e-04 0.000000e+00 -2.698783e-04 -5.508443e-05 0.000000e+00 0.000000e+00 0.000000e+00 0.000000e+00 2.510060e-06 1.585109e-04 0.000000e+00 1.585109e-04 3.997997e-05 0.000000e+00 0.000000e+00 0.000000e+00 0.000000e+00 1.095815e-04 -2.061669e-04 0.000000e+00 -2.061669e-04 -1.774169e-04 0.000000e+00 0.000000e+00 0.000000e+00 0.000000e+00 1.406338e-04 -1.579231e-04 0.000000e+00 -1.579231e-04 -2.468006e-04 0.000000e+00 0.000000e+00 0.000000e+00 0.000000e+00 3.437048e-04 -2.023452e-04 0.000000e+00 -2.023452e-04 1.626550e-04 0.000000e+00 0.000000e+00 0.000000e+00 0.000000e+00 1.745065e-04 -7.948802e-05 0.000000e+00 -7.948802e-05 -2.304859e-04 0.000000e+00 0.000000e+00 0.000000e+00 0.000000e+00 -2.545990e-05 -1.075444e-04 0.000000e+00 -1.075444e-04 4.489865e-04 0.000000e+00 0.000000e+00 0.000000e+00 0.000000e+00 1.040852e-06 -2.732557e-04 0.000000e+00 -2.732557e-04 1.157542e-05 0.000000e+00 0.000000e+00 0.000000e+00 0.000000e+00 -4.923266e-05 -2.400424e-04 0.000000e+00 -2.400424e-04 7.168761e-05 0.000000e+00 0.000000e+00 0.000000e+00 0.000000e+00 -5.097091e-06 -2.559043e-04 0.000000e+00 -2.559043e-04 2.468771e-05 0.000000e+00 0.000000e+00 0.000000e+00 0.000000e+00 1.365871e-04 -7.455308e-05 0.000000e+00 -7.455308e-05 -3.672238e-04 0.000000e+00 0.000000e+00 0.000000e+00 0.000000e+00 3.538186e-04 -1.617302e-04 0.000000e+00 -1.617302e-04 6.836756e-05 0.000000e+00 0.000000e+00 0.000000e+00 0.000000e+00 3.110598e-04 -1.613272e-04 0.000000e+00 -1.613272e-04 6.837024e-05 0.000000e+00 0.000000e+00 0.000000e+00 0.000000e+00 2.961649e-04 -1.758091e-04 0.000000e+00 -1.758091e-04 1.080270e-04 0.000000e+00 0.000000e+00 0.000000e+00 0.000000e+00 7.429885e-05 2.306645e-04 0.000000e+00 2.306645e-04 2.405774e-04 0.000000e+00 0.000000e+00 0.000000e+00 0.000000e+00 1.285422e-04 1.377715e-04 0.000000e+00 1.377715e-04 -2.991093e-05 0.000000e+00 0.000000e+00 0.000000e+00 0.000000e+00 -3.171522e-05 1.774505e-04 0.000000e+00 1.774505e-04 5.083728e-05 0.000000e+00 0.000000e+00 0.000000e+00 0.000000e+00 3.920841e-04 -2.296497e-04 0.000000e+00 -2.296497e-04 2.951654e-04 0.000000e+00 0.000000e+00 0.000000e+00 0.000000e+00 1.642314e-04 -1.312161e-04 0.000000e+00 -1.312161e-04 -3.186465e-04 0.000000e+00 0.000000e+00 0.000000e+00 0.000000e+00 2.859809e-04 -1.954336e-04 0.000000e+00 -1.954336e-04 1.621178e-04 0.000000e+00 0.000000e+00 0.000000e+00 0.000000e+00 3.670136e-06 -1.554475e-05 0.000000e+00 -1.554475e-05 8.083609e-04 0.000000e+00 0.000000e+00 0.000000e+00 0.000000e+00 2.679662e-04 -2.415430e-04 0.000000e+00 -2.415430e-04 2.406845e-04 0.000000e+00 0.000000e+00 0.000000e+00 0.000000e+00 1.209004e-04 1.673884e-04 0.000000e+00 1.673884e-04 -1.108650e-05 0.000000e+00 0.000000e+00 0.000000e+00 0.000000e+00 3.044414e-04 -2.294389e-04 0.000000e+00 -2.294389e-04 1.513119e-04 0.000000e+00 0.000000e+00 0.000000e+00 0.000000e+00 -1.198410e-04 -1.210130e-04 0.000000e+00 -1.210130e-04 3.128528e-04 0.000000e+00 0.000000e+00 0.000000e+00 0.000000e+00 1.541802e-04 -8.108759e-05 0.000000e+00 -8.108759e-05 -2.994817e-04 0.000000e+00 0.000000e+00 0.000000e+00 0.000000e+00 2.829456e-04 -2.390519e-04 0.000000e+00 -2.390519e-04 3.986697e-04 0.000000e+00 0.000000e+00 0.000000e+00 0.000000e+00 3.136146e-04 -1.025793e-04 0.000000e+00 -1.025793e-04 -4.421576e-05 0.000000e+00 0.000000e+00 0.000000e+00 0.000000e+00 1.752992e-04 -9.291222e-05 0.000000e+00 -9.291222e-05 -3.624613e-04 0.000000e+00 0.000000e+00 0.000000e+00 0.000000e+00 3.193220e-04 -2.388150e-04 0.000000e+00 -2.388150e-04 2.399706e-04 0.000000e+00 0.000000e+00 0.000000e+00 0.000000e+00 -2.394285e-05 1.546920e-04 0.000000e+00 1.546920e-04 1.210398e-04 0.000000e+00 0.000000e+00 0.000000e+00 0.000000e+00 8.664927e-05 -1.372213e-04 0.000000e+00 -1.372213e-04 8.836117e-04 0.000000e+00 0.000000e+00 0.000000e+00 0.000000e+00 6.170943e-05 -6.436498e-05 0.000000e+00 -6.436498e-05 6.770839e-04 0.000000e+00 0.000000e+00 0.000000e+00 0.000000e+00 2.879475e-04 -2.698959e-04 0.000000e+00 -2.698959e-04 3.632523e-04 0.000000e+00 0.000000e+00 0.000000e+00 0.000000e+00 9.847889e-05 -2.475777e-04 0.000000e+00 -2.475777e-04 -1.066525e-04 0.000000e+00 0.000000e+00 0.000000e+00 0.000000e+00 1.760164e-04 -1.476850e-04 0.000000e+00 -1.476850e-04 -1.585240e-04 0.000000e+00 0.000000e+00 0.000000e+00 0.000000e+00 1.591227e-04 -7.048217e-05 0.000000e+00 -7.048217e-05 -3.229778e-04 0.000000e+00 0.000000e+00 0.000000e+00 0.000000e+00 1.567119e-04 -1.087431e-04 0.000000e+00 -1.087431e-04 -3.020627e-04 0.000000e+00 0.000000e+00 0.000000e+00 0.000000e+00 2.731441e-04 -2.010740e-04 0.000000e+00 -2.010740e-04 5.029217e-05 0.000000e+00 0.000000e+00 0.000000e+00 0.000000e+00 1.231797e-04 -1.980724e-04 0.000000e+00 -1.980724e-04 -1.756422e-04 0.000000e+00 0.000000e+00 0.000000e+00 0.000000e+00 1.737002e-04 -9.682176e-05 0.000000e+00 -9.682176e-05 -1.983369e-04 0.000000e+00 0.000000e+00 0.000000e+00 0.000000e+00 -4.558954e-06 2.551112e-05 0.000000e+00 2.551112e-05 6.047224e-04 0.000000e+00 0.000000e+00 0.000000e+00 0.000000e+00 2.470536e-04 -2.132135e-04 0.000000e+00 -2.132135e-04 2.027834e-04 0.000000e+00 0.000000e+00 0.000000e+00 0.000000e+00 -8.852031e-05 -2.118239e-04 0.000000e+00 -2.118239e-04 9.458323e-05 0.000000e+00 0.000000e+00 0.000000e+00 0.000000e+00 2.149499e-04 -2.415642e-04 0.000000e+00 -2.415642e-04 3.528655e-04 0.000000e+00 0.000000e+00 0.000000e+00 0.000000e+00 2.170401e-04 -2.613419e-04 0.000000e+00 -2.613419e-04 3.120293e-04 0.000000e+00 0.000000e+00 0.000000e+00 0.000000e+00 2.048729e-04 -1.527829e-04 0.000000e+00 -1.527829e-04 -6.732846e-05 0.000000e+00 0.000000e+00 0.000000e+00 0.000000e+00 2.316485e-04 -1.743826e-04 0.000000e+00 -1.743826e-04 -5.363945e-05 0.000000e+00 0.000000e+00 0.000000e+00 0.000000e+00 1.423888e-04 -8.507104e-05 0.000000e+00 -8.507104e-05 -3.288084e-04 0.000000e+00 0.000000e+00 0.000000e+00 0.000000e+00 1.868704e-04 -1.348689e-04 0.000000e+00 -1.348689e-04 -1.293713e-04 0.000000e+00 0.000000e+00 0.000000e+00 0.000000e+00 2.303512e-04 -1.370625e-04 0.000000e+00 -1.370625e-04 -1.294004e-04 0.000000e+00 0.000000e+00 0.000000e+00 0.000000e+00 1.984710e-05 1.887159e-04 0.000000e+00 1.887159e-04 4.029711e-04 0.000000e+00 0.000000e+00 0.000000e+00 0.000000e+00 1.275742e-04 -2.739991e-04 0.000000e+00 -2.739991e-04 1.739343e-04 0.000000e+00 0.000000e+00 0.000000e+00 0.000000e+00 -8.498393e-05 -2.084172e-04 0.000000e+00 -2.084172e-04 2.456513e-04 0.000000e+00 0.000000e+00 0.000000e+00 0.000000e+00 2.532420e-05 1.857850e-04 0.000000e+00 1.857850e-04 5.781879e-05 0.000000e+00 0.000000e+00 0.000000e+00 0.000000e+00 6.340316e-05 1.627419e-04 0.000000e+00 1.627419e-04 1.495447e-05 0.000000e+00 0.000000e+00 0.000000e+00 0.000000e+00 3.462075e-04 -2.469411e-04 0.000000e+00 -2.469411e-04 5.440704e-04 0.000000e+00 0.000000e+00 0.000000e+00 0.000000e+00 1.300615e-04 1.606722e-04 0.000000e+00 1.606722e-04 -9.883872e-06 0.000000e+00 0.000000e+00 0.000000e+00 0.000000e+00 1.906381e-04 -1.440959e-04 0.000000e+00 -1.440959e-04 -9.785858e-05 0.000000e+00 0.000000e+00 0.000000e+00 0.000000e+00 1.321328e-04 -1.158408e-04 0.000000e+00 -1.158408e-04 -2.884063e-04 0.000000e+00 0.000000e+00 0.000000e+00 0.000000e+00 -3.007415e-05 6.458093e-05 0.000000e+00 6.458093e-05 6.824545e-04 0.000000e+00 0.000000e+00 0.000000e+00 0.000000e+00 2.488766e-04 -1.283658e-04 0.000000e+00 -1.283658e-04 -2.939844e-05 0.000000e+00 0.000000e+00 0.000000e+00 0.000000e+00 -5.352952e-05 1.517485e-04 0.000000e+00 1.517485e-04 3.953810e-05 0.000000e+00 0.000000e+00 0.000000e+00 0.000000e+00 3.153090e-04 -1.939973e-04 0.000000e+00 -1.939973e-04 8.736918e-05 0.000000e+00 0.000000e+00 0.000000e+00 0.000000e+00 3.145715e-04 -1.520245e-04 0.000000e+00 -1.520245e-04 4.688385e-05 0.000000e+00 0.000000e+00 0.000000e+00 0.000000e+00 -8.496292e-05 -1.561285e-04 0.000000e+00 -1.561285e-04 2.157839e-04 0.000000e+00 0.000000e+00 0.000000e+00 0.000000e+00 1.666113e-04 -1.492957e-04 0.000000e+00 -1.492957e-04 -1.983709e-04 0.000000e+00 0.000000e+00 0.000000e+00 0.000000e+00 5.465833e-05 1.885245e-04 0.000000e+00 1.885245e-04 5.645269e-05 0.000000e+00 0.000000e+00 0.000000e+00 0.000000e+00 8.561955e-05 1.890562e-04 0.000000e+00 1.890562e-04 3.947086e-05 0.000000e+00 0.000000e+00 0.000000e+00 0.000000e+00 -8.380614e-05 -2.327903e-04 0.000000e+00 -2.327903e-04 1.657155e-04 0.000000e+00 0.000000e+00 0.000000e+00 0.000000e+00 5.944755e-05 1.705991e-04 0.000000e+00 1.705991e-04 4.463163e-05 0.000000e+00 0.000000e+00 0.000000e+00 0.000000e+00 -7.850878e-05 1.113056e-04 0.000000e+00 1.113056e-04 2.695345e-04 0.000000e+00 0.000000e+00 0.000000e+00 0.000000e+00 2.105314e-04 -1.393620e-04 0.000000e+00 -1.393620e-04 -1.566878e-04 0.000000e+00 0.000000e+00 0.000000e+00 0.000000e+00 1.040202e-04 2.100125e-04 0.000000e+00 2.100125e-04 7.908615e-05 0.000000e+00 0.000000e+00 0.000000e+00 0.000000e+00 5.886075e-05 1.931903e-04 0.000000e+00 1.931903e-04 1.539579e-04 0.000000e+00 0.000000e+00 0.000000e+00 0.000000e+00 -3.501724e-05 -2.556502e-04 0.000000e+00 -2.556502e-04 8.561607e-05 0.000000e+00 0.000000e+00 0.000000e+00 0.000000e+00 2.466770e-04 -2.126200e-04 0.000000e+00 -2.126200e-04 1.465349e-04 0.000000e+00 0.000000e+00 0.000000e+00 0.000000e+00 8.758827e-05 2.255934e-04 0.000000e+00 2.255934e-04 1.571280e-04 0.000000e+00 0.000000e+00 0.000000e+00 0.000000e+00 2.162100e-04 -4.931194e-05 0.000000e+00 -4.931194e-05 -5.833221e-04 0.000000e+00 0.000000e+00 0.000000e+00 0.000000e+00 1.747323e-04 -1.057107e-04 0.000000e+00 -1.057107e-04 -3.015547e-04 0.000000e+00 0.000000e+00 0.000000e+00 0.000000e+00 1.758771e-04 -6.652917e-05 0.000000e+00 -6.652917e-05 -4.132657e-04 0.000000e+00 0.000000e+00 0.000000e+00 0.000000e+00 -2.283470e-05 1.353706e-04 0.000000e+00 1.353706e-04 1.600886e-04 0.000000e+00 0.000000e+00 0.000000e+00 0.000000e+00 2.672307e-04 -1.910505e-04 0.000000e+00 -1.910505e-04 1.420756e-05 0.000000e+00 0.000000e+00 0.000000e+00 0.000000e+00 2.388346e-04 -1.758931e-04 0.000000e+00 -1.758931e-04 3.205926e-05 0.000000e+00 0.000000e+00 0.000000e+00 0.000000e+00 -1.210380e-04 -4.302166e-06 0.000000e+00 -4.302166e-06 3.252131e-04 0.000000e+00 0.000000e+00 0.000000e+00 0.000000e+00 -8.016730e-05 6.355000e-05 0.000000e+00 6.355000e-05 2.208124e-04 0.000000e+00 0.000000e+00 0.000000e+00 0.000000e+00 -1.080049e-04 -5.507735e-05 0.000000e+00 -5.507735e-05 2.442039e-04 0.000000e+00 0.000000e+00 0.000000e+00 0.000000e+00 2.009201e-04 -2.964693e-05 0.000000e+00 -2.964693e-05 -6.014428e-04 0.000000e+00 0.000000e+00 0.000000e+00 0.000000e+00 1.904711e-04 -1.330362e-04 0.000000e+00 -1.330362e-04 -1.895427e-04 0.000000e+00 0.000000e+00 0.000000e+00 0.000000e+00 1.206416e-04 -2.208131e-04 0.000000e+00 -2.208131e-04 -1.177476e-04 0.000000e+00 0.000000e+00 0.000000e+00 0.000000e+00 2.583584e-04 -2.612526e-04 0.000000e+00 -2.612526e-04 7.137242e-04 0.000000e+00 0.000000e+00 0.000000e+00 0.000000e+00 -5.430361e-07 -9.506681e-05 0.000000e+00 -9.506681e-05 6.871529e-04 0.000000e+00 0.000000e+00 0.000000e+00 0.000000e+00 2.391279e-04 -2.624379e-04 0.000000e+00 -2.624379e-04 2.055020e-04 0.000000e+00 0.000000e+00 0.000000e+00 0.000000e+00 1.647324e-04 -2.274847e-04 0.000000e+00 -2.274847e-04 2.902142e-04 0.000000e+00 0.000000e+00 0.000000e+00 0.000000e+00 2.212863e-04 -1.589447e-04 0.000000e+00 -1.589447e-04 -3.886235e-05 0.000000e+00 0.000000e+00 0.000000e+00 0.000000e+00 2.119802e-04 -2.003001e-04 0.000000e+00 -2.003001e-04 -6.098176e-05 0.000000e+00 0.000000e+00 0.000000e+00 0.000000e+00 1.452553e-04 -1.332371e-04 0.000000e+00 -1.332371e-04 7.908137e-04 0.000000e+00 0.000000e+00 0.000000e+00 0.000000e+00 -3.721291e-05 -2.160909e-04 0.000000e+00 -2.160909e-04 1.608748e-04 0.000000e+00 0.000000e+00 0.000000e+00 0.000000e+00 2.601959e-04 -2.211312e-04 0.000000e+00 -2.211312e-04 1.120887e-04 0.000000e+00 0.000000e+00 0.000000e+00 0.000000e+00 1.345593e-04 -1.757256e-04 0.000000e+00 -1.757256e-04 -1.890327e-04 0.000000e+00 0.000000e+00 0.000000e+00 0.000000e+00 1.949135e-04 -2.337647e-04 0.000000e+00 -2.337647e-04 7.018149e-04 0.000000e+00 0.000000e+00 0.000000e+00 0.000000e+00 1.833563e-04 -1.176432e-04 0.000000e+00 -1.176432e-04 -2.312493e-04 0.000000e+00 0.000000e+00 0.000000e+00 0.000000e+00 1.607385e-04 -9.939716e-05 0.000000e+00 -9.939716e-05 -2.421258e-04 0.000000e+00 0.000000e+00 0.000000e+00 0.000000e+00 1.979343e-04 -1.053262e-04 0.000000e+00 -1.053262e-04 -2.237406e-04 0.000000e+00 0.000000e+00 0.000000e+00 0.000000e+00 2.134591e-05 -2.805526e-04 0.000000e+00 -2.805526e-04 4.415658e-05 0.000000e+00 0.000000e+00 0.000000e+00 0.000000e+00 2.779727e-04 -1.979076e-04 0.000000e+00 -1.979076e-04 8.753930e-05 0.000000e+00 0.000000e+00 0.000000e+00 0.000000e+00 2.751687e-04 -1.820342e-04 0.000000e+00 -1.820342e-04 5.724188e-05 0.000000e+00 0.000000e+00 0.000000e+00 0.000000e+00 2.125109e-04 -1.761566e-04 0.000000e+00 -1.761566e-04 -1.113516e-04 0.000000e+00 0.000000e+00 0.000000e+00 0.000000e+00 1.649135e-04 -1.627474e-04 0.000000e+00 -1.627474e-04 -1.144831e-04 0.000000e+00 0.000000e+00 0.000000e+00 0.000000e+00 8.223677e-05 2.392998e-04 0.000000e+00 2.392998e-04 2.448873e-04 0.000000e+00 0.000000e+00 0.000000e+00 0.000000e+00 2.277442e-04 -2.814381e-04 0.000000e+00 -2.814381e-04 5.482750e-04 0.000000e+00 0.000000e+00 0.000000e+00 0.000000e+00 2.285609e-04 -2.327772e-04 0.000000e+00 -2.327772e-04 1.109888e-04 0.000000e+00 0.000000e+00 0.000000e+00 0.000000e+00 1.693244e-04 -2.211100e-04 0.000000e+00 -2.211100e-04 4.861018e-04 0.000000e+00 0.000000e+00 0.000000e+00 0.000000e+00 1.660472e-04 -2.417570e-04 0.000000e+00 -2.417570e-04 4.359886e-04 0.000000e+00 0.000000e+00 0.000000e+00 0.000000e+00 1.785920e-04 -1.840574e-04 0.000000e+00 -1.840574e-04 5.742205e-04 0.000000e+00 0.000000e+00 0.000000e+00 0.000000e+00 -8.619571e-05 -1.628002e-04 0.000000e+00 -1.628002e-04 3.487911e-04 0.000000e+00 0.000000e+00 0.000000e+00 0.000000e+00 -3.070759e-05 8.896694e-05 0.000000e+00 8.896694e-05 5.400565e-04 0.000000e+00 0.000000e+00 0.000000e+00 0.000000e+00 4.774614e-05 -2.624598e-04 0.000000e+00 -2.624598e-04 -1.633461e-05 0.000000e+00 0.000000e+00 0.000000e+00 0.000000e+00 9.839895e-05 -2.324182e-04 0.000000e+00 -2.324182e-04 -1.010039e-04 0.000000e+00 0.000000e+00 0.000000e+00 0.000000e+00 9.588146e-05 -2.530816e-04 0.000000e+00 -2.530816e-04 -3.726899e-05 0.000000e+00 0.000000e+00 0.000000e+00 0.000000e+00 1.330574e-04 -2.086341e-04 0.000000e+00 -2.086341e-04 -1.158717e-04 0.000000e+00 0.000000e+00 0.000000e+00 0.000000e+00 -7.468681e-06 1.773890e-04 0.000000e+00 1.773890e-04 2.687071e-04 0.000000e+00 0.000000e+00 0.000000e+00 0.000000e+00 -2.537175e-05 1.395470e-04 0.000000e+00 1.395470e-04 2.502187e-04 0.000000e+00 0.000000e+00 0.000000e+00 0.000000e+00 -1.631994e-05 1.727928e-04 0.000000e+00 1.727928e-04 3.656590e-04 0.000000e+00 0.000000e+00 0.000000e+00 0.000000e+00 -7.851466e-05 8.183961e-05 0.000000e+00 8.183961e-05 3.602030e-04 0.000000e+00 0.000000e+00 0.000000e+00 0.000000e+00 2.431272e-04 -1.638146e-04 0.000000e+00 -1.638146e-04 -1.017165e-05 0.000000e+00 0.000000e+00 0.000000e+00 0.000000e+00 1.866822e-04 -2.380918e-04 0.000000e+00 -2.380918e-04 1.942125e-04 0.000000e+00 0.000000e+00 0.000000e+00 0.000000e+00 8.083726e-05 -2.155812e-04 0.000000e+00 -2.155812e-04 2.924022e-04 0.000000e+00 0.000000e+00 0.000000e+00 0.000000e+00 1.125980e-04 -2.280663e-04 0.000000e+00 -2.280663e-04 4.355777e-04 0.000000e+00 0.000000e+00 0.000000e+00 0.000000e+00 1.728713e-04 -1.754134e-04 0.000000e+00 -1.754134e-04 -7.474957e-05 0.000000e+00 0.000000e+00 0.000000e+00 0.000000e+00 1.694520e-04 -1.411455e-04 0.000000e+00 -1.411455e-04 -2.491265e-04 0.000000e+00 0.000000e+00 0.000000e+00 0.000000e+00 2.569404e-04 -1.830526e-04 0.000000e+00 -1.830526e-04 -2.406973e-05 0.000000e+00 0.000000e+00 0.000000e+00 0.000000e+00 8.221373e-05 -1.880738e-04 0.000000e+00 -1.880738e-04 7.223059e-04 0.000000e+00 0.000000e+00 0.000000e+00 0.000000e+00 -7.438804e-05 -1.101309e-04 0.000000e+00 -1.101309e-04 2.887634e-04 0.000000e+00 0.000000e+00 0.000000e+00 0.000000e+00 1.601832e-04 -1.711542e-04 0.000000e+00 -1.711542e-04 -1.882539e-04 0.000000e+00 0.000000e+00 0.000000e+00 0.000000e+00 2.150471e-04 -2.175742e-04 0.000000e+00 -2.175742e-04 -1.307593e-05 0.000000e+00 0.000000e+00 0.000000e+00 0.000000e+00 2.036058e-04 -9.632942e-05 0.000000e+00 -9.632942e-05 -2.234617e-04 0.000000e+00 0.000000e+00 0.000000e+00 0.000000e+00 1.795963e-04 -1.880752e-04 0.000000e+00 -1.880752e-04 -3.561891e-05 0.000000e+00 0.000000e+00 0.000000e+00 0.000000e+00 2.563635e-04 -2.566729e-05 0.000000e+00 -2.566729e-05 -7.324343e-04 0.000000e+00 0.000000e+00 0.000000e+00 0.000000e+00 -3.543669e-05 -2.417349e-04 0.000000e+00 -2.417349e-04 1.098345e-04 0.000000e+00 0.000000e+00 0.000000e+00 0.000000e+00 1.432873e-04 -1.126005e-04 0.000000e+00 -1.126005e-04 -2.592154e-04 0.000000e+00 0.000000e+00 0.000000e+00 0.000000e+00 -2.346637e-05 -2.137168e-04 0.000000e+00 -2.137168e-04 2.262236e-04 0.000000e+00 0.000000e+00 0.000000e+00 0.000000e+00 -3.972206e-05 -2.219354e-04 0.000000e+00 -2.219354e-04 2.369673e-04 0.000000e+00 0.000000e+00 0.000000e+00 0.000000e+00 2.065310e-04 -2.052411e-04 0.000000e+00 -2.052411e-04 7.847952e-05 0.000000e+00 0.000000e+00 0.000000e+00 0.000000e+00 5.710177e-05 -1.914623e-04 0.000000e+00 -1.914623e-04 5.878107e-04 0.000000e+00 0.000000e+00 0.000000e+00 0.000000e+00 4.721967e-05 1.734719e-04 0.000000e+00 1.734719e-04 9.051809e-05 0.000000e+00 0.000000e+00 0.000000e+00 0.000000e+00 -1.084800e-04 -5.215042e-05 0.000000e+00 -5.215042e-05 4.068585e-04 0.000000e+00 0.000000e+00 0.000000e+00 0.000000e+00 1.547101e-05 -2.566455e-04 0.000000e+00 -2.566455e-04 5.786847e-05 0.000000e+00 0.000000e+00 0.000000e+00 0.000000e+00 6.830922e-05 -2.695839e-04 0.000000e+00 -2.695839e-04 -1.421644e-05 0.000000e+00 0.000000e+00 0.000000e+00 0.000000e+00 -5.875413e-06 -6.561521e-05 0.000000e+00 -6.561521e-05 5.310847e-04 0.000000e+00 0.000000e+00 0.000000e+00 0.000000e+00 -4.797910e-05 -4.377968e-05 0.000000e+00 -4.377968e-05 6.006018e-04 0.000000e+00 0.000000e+00 0.000000e+00 0.000000e+00 6.164594e-05 -2.737212e-04 0.000000e+00 -2.737212e-04 4.266713e-05 0.000000e+00 0.000000e+00 0.000000e+00 0.000000e+00 1.145508e-04 -2.492180e-04 0.000000e+00 -2.492180e-04 -3.739580e-05 0.000000e+00 0.000000e+00 0.000000e+00 0.000000e+00 1.578977e-04 -1.503704e-04 0.000000e+00 -1.503704e-04 -2.541741e-04 0.000000e+00 0.000000e+00 0.000000e+00 0.000000e+00 1.934498e-04 -2.510347e-04 0.000000e+00 -2.510347e-04 1.586729e-04 0.000000e+00 0.000000e+00 0.000000e+00 0.000000e+00 -7.442361e-05 -1.124441e-04 0.000000e+00 -1.124441e-04 4.340683e-04 0.000000e+00 0.000000e+00 0.000000e+00 0.000000e+00 2.016308e-04 -1.947777e-04 0.000000e+00 -1.947777e-04 1.422047e-06 0.000000e+00 0.000000e+00 0.000000e+00 0.000000e+00 1.764856e-04 -1.346604e-04 0.000000e+00 -1.346604e-04 -2.497503e-04 0.000000e+00 0.000000e+00 0.000000e+00 0.000000e+00 1.902031e-04 -1.856900e-04 0.000000e+00 -1.856900e-04 -1.415211e-04 0.000000e+00 0.000000e+00 0.000000e+00 0.000000e+00 1.601713e-04 -2.676169e-04 0.000000e+00 -2.676169e-04 2.809480e-04 0.000000e+00 0.000000e+00 0.000000e+00 0.000000e+00 1.801315e-04 -2.515910e-04 0.000000e+00 -2.515910e-04 4.037789e-05 0.000000e+00 0.000000e+00 0.000000e+00 0.000000e+00 1.417263e-04 -1.825301e-04 0.000000e+00 -1.825301e-04 -9.406479e-05 0.000000e+00 0.000000e+00 0.000000e+00 0.000000e+00 1.388334e-04 -2.325807e-04 0.000000e+00 -2.325807e-04 -6.805929e-05 0.000000e+00 0.000000e+00 0.000000e+00 0.000000e+00 1.875146e-04 -2.133667e-04 0.000000e+00 -2.133667e-04 -7.645399e-05 0.000000e+00 0.000000e+00 0.000000e+00 0.000000e+00 1.923134e-04 -2.586313e-04 0.000000e+00 -2.586313e-04 9.824129e-05 0.000000e+00 0.000000e+00 0.000000e+00 0.000000e+00 1.511762e-04 -2.236838e-04 0.000000e+00 -2.236838e-04 1.424151e-04 0.000000e+00 0.000000e+00 0.000000e+00 0.000000e+00 5.574813e-05 -1.779743e-04 0.000000e+00 -1.779743e-04 4.623293e-04 0.000000e+00 0.000000e+00 0.000000e+00 0.000000e+00 -1.337666e-05 -1.455429e-04 0.000000e+00 -1.455429e-04 5.684771e-04 0.000000e+00 0.000000e+00 0.000000e+00 0.000000e+00 -3.273261e-05 6.156692e-05 0.000000e+00 6.156692e-05 4.649671e-04 0.000000e+00 0.000000e+00 0.000000e+00 0.000000e+00 -7.614769e-05 3.429779e-05 0.000000e+00 3.429779e-05 3.001626e-04 0.000000e+00 0.000000e+00 0.000000e+00 0.000000e+00 1.125617e-04 -2.422957e-04 0.000000e+00 -2.422957e-04 3.850325e-04 0.000000e+00 0.000000e+00 0.000000e+00 0.000000e+00 7.809248e-05 -2.178925e-04 0.000000e+00 -2.178925e-04 3.696678e-04 0.000000e+00 0.000000e+00 0.000000e+00 0.000000e+00 2.052757e-05 -1.895819e-04 0.000000e+00 -1.895819e-04 4.785903e-04 0.000000e+00 0.000000e+00 0.000000e+00 0.000000e+00 -2.104658e-05 -2.712148e-04 0.000000e+00 -2.712148e-04 1.543551e-04 0.000000e+00 0.000000e+00 0.000000e+00 0.000000e+00 1.877272e-04 -2.345189e-04 0.000000e+00 -2.345189e-04 -2.666639e-05 0.000000e+00 0.000000e+00 0.000000e+00 0.000000e+00 1.463315e-04 -2.092031e-04 0.000000e+00 -2.092031e-04 -3.999812e-05 0.000000e+00 0.000000e+00 0.000000e+00 0.000000e+00 1.431255e-04 -2.177722e-04 0.000000e+00 -2.177722e-04 1.118742e-05 0.000000e+00 0.000000e+00 0.000000e+00 0.000000e+00 -1.855135e-05 1.722935e-04 0.000000e+00 1.722935e-04 5.004650e-04 0.000000e+00 0.000000e+00 0.000000e+00 0.000000e+00 -7.014811e-05 3.149361e-05 0.000000e+00 3.149361e-05 5.266738e-04 0.000000e+00 0.000000e+00 0.000000e+00 0.000000e+00 -6.431766e-06 -2.421156e-04 0.000000e+00 -2.421156e-04 1.269349e-04 0.000000e+00 0.000000e+00 0.000000e+00 0.000000e+00 3.856854e-05 -2.853528e-04 0.000000e+00 -2.853528e-04 8.548338e-05 0.000000e+00 0.000000e+00 0.000000e+00 0.000000e+00 1.440533e-04 -2.663488e-04 0.000000e+00 -2.663488e-04 1.722747e-05 0.000000e+00 0.000000e+00 0.000000e+00 0.000000e+00 -6.173734e-05 -1.025500e-04 0.000000e+00 -1.025500e-04 4.057072e-04 0.000000e+00 0.000000e+00 0.000000e+00 0.000000e+00 -2.218352e-05 1.360497e-04 0.000000e+00 1.360497e-04 3.382468e-04 0.000000e+00 0.000000e+00 0.000000e+00 0.000000e+00 1.441143e-04 -1.786774e-04 0.000000e+00 -1.786774e-04 -1.422024e-04 0.000000e+00 0.000000e+00 0.000000e+00 0.000000e+00 1.050045e-05 1.951470e-04 0.000000e+00 1.951470e-04 1.668573e-04 0.000000e+00 0.000000e+00 0.000000e+00 0.000000e+00 1.291646e-04 -2.625421e-04 0.000000e+00 -2.625421e-04 2.397902e-04 0.000000e+00 0.000000e+00 0.000000e+00 0.000000e+00 1.206895e-04 -2.296664e-04 0.000000e+00 -2.296664e-04 2.444725e-04 0.000000e+00 0.000000e+00 0.000000e+00 0.000000e+00 2.328388e-05 -2.774575e-04 0.000000e+00 -2.774575e-04 1.649722e-04 0.000000e+00 0.000000e+00 0.000000e+00 0.000000e+00 -5.342336e-05 -1.525095e-05 0.000000e+00 -1.525095e-05 4.527755e-04 0.000000e+00 0.000000e+00 0.000000e+00 0.000000e+00 5.507716e-05 -2.490728e-04 0.000000e+00 -2.490728e-04 4.843866e-05 0.000000e+00 0.000000e+00 0.000000e+00 0.000000e+00 1.547885e-04 -2.227713e-04 0.000000e+00 -2.227713e-04 6.581273e-05 0.000000e+00 0.000000e+00 0.000000e+00 0.000000e+00 2.496957e-04 -2.230084e-04 0.000000e+00 -2.230084e-04 3.515820e-05 0.000000e+00 0.000000e+00 0.000000e+00 0.000000e+00 6.761854e-05 -1.370791e-04 0.000000e+00 -1.370791e-04 5.487763e-04 0.000000e+00 0.000000e+00 0.000000e+00 0.000000e+00 -6.234024e-05 -9.903454e-05 0.000000e+00 -9.903454e-05 5.142096e-04 0.000000e+00 0.000000e+00 0.000000e+00 0.000000e+00 6.387784e-07 -1.905002e-04 0.000000e+00 -1.905002e-04 2.914493e-04 0.000000e+00 0.000000e+00 0.000000e+00 0.000000e+00 1.613117e-04 -2.280117e-04 0.000000e+00 -2.280117e-04 -6.780997e-05 0.000000e+00 0.000000e+00 0.000000e+00 0.000000e+00 2.116769e-04 -2.142722e-04 0.000000e+00 -2.142722e-04 3.317936e-05 0.000000e+00 0.000000e+00 0.000000e+00 0.000000e+00 3.582805e-05 -2.367159e-04 0.000000e+00 -2.367159e-04 1.353136e-04 0.000000e+00 0.000000e+00 0.000000e+00 0.000000e+00 -2.503493e-05 -2.191360e-04 0.000000e+00 -2.191360e-04 3.255175e-04 0.000000e+00 0.000000e+00 0.000000e+00 0.000000e+00 7.861847e-05 -2.891328e-04 0.000000e+00 -2.891328e-04 1.093513e-04 0.000000e+00 0.000000e+00 0.000000e+00 0.000000e+00 -3.861355e-08 -1.922643e-04 0.000000e+00 -1.922643e-04 4.110464e-04 0.000000e+00 0.000000e+00 0.000000e+00 0.000000e+00 5.792969e-05 -2.778844e-04 0.000000e+00 -2.778844e-04 2.044551e-04 0.000000e+00 0.000000e+00 0.000000e+00 0.000000e+00 1.546764e-04 -1.281031e-04 0.000000e+00 -1.281031e-04 -2.137676e-04 0.000000e+00 0.000000e+00 0.000000e+00 0.000000e+00 1.041242e-04 -2.411880e-04 0.000000e+00 -2.411880e-04 3.671460e-06 0.000000e+00 0.000000e+00 0.000000e+00 0.000000e+00 -7.614100e-05 4.889401e-05 0.000000e+00 4.889401e-05 4.516330e-04 0.000000e+00 0.000000e+00 0.000000e+00 0.000000e+00   </DataArray>
  <DataArray type="Float64" Name="IST_PrincStressVector1" NumberOfComponents="3" format="ascii">9.983816e-01 -5.686924e-02 0.000000e+00 9.996477e-01 -2.654215e-02 0.000000e+00 9.997867e-01 -2.065471e-02 0.000000e+00 9.998007e-01 -1.996563e-02 0.000000e+00 9.997700e-01 -2.144411e-02 0.000000e+00 9.997174e-01 -2.377020e-02 0.000000e+00 9.997099e-01 -2.408457e-02 0.000000e+00 9.996441e-01 -2.667877e-02 0.000000e+00 9.995625e-01 -2.957646e-02 0.000000e+00 9.994552e-01 -3.300507e-02 0.000000e+00 9.993027e-01 -3.733678e-02 0.000000e+00 9.992348e-01 -3.911283e-02 0.000000e+00 9.990503e-01 -4.357133e-02 0.000000e+00 9.988706e-01 -4.751309e-02 0.000000e+00 9.987259e-01 -5.046359e-02 0.000000e+00 9.983131e-01 -5.805958e-02 0.000000e+00 9.977150e-01 -6.756353e-02 0.000000e+00 9.971408e-01 -7.556570e-02 0.000000e+00 9.968785e-01 -7.895157e-02 0.000000e+00 9.944634e-01 -1.050831e-01 0.000000e+00 9.909720e-01 -1.340693e-01 0.000000e+00 9.852330e-01 -1.712191e-01 0.000000e+00 9.654672e-01 -2.605246e-01 0.000000e+00 9.002880e-01 -4.352948e-01 0.000000e+00 6.911815e-01 -7.226812e-01 0.000000e+00 9.985825e-01 5.322665e-02 0.000000e+00 9.978205e-01 6.598702e-02 0.000000e+00 9.934847e-01 1.139659e-01 0.000000e+00 9.594375e-01 2.819215e-01 0.000000e+00 9.578633e-01 2.872243e-01 0.000000e+00 9.327660e-01 3.604824e-01 0.000000e+00 9.731838e-01 2.300290e-01 0.000000e+00 9.186342e-01 3.951090e-01 0.000000e+00 2.247741e-01 9.744109e-01 0.000000e+00 1.804105e-01 -9.835914e-01 0.000000e+00 7.177168e-01 -6.963351e-01 0.000000e+00 9.661163e-01 -2.581073e-01 0.000000e+00 9.910846e-01 1.332343e-01 0.000000e+00 6.347443e-01 7.727223e-01 0.000000e+00 9.813797e-02 9.951728e-01 0.000000e+00 2.435268e-01 -9.698942e-01 0.000000e+00 5.867605e-01 -8.097605e-01 0.000000e+00 6.345193e-01 -7.729071e-01 0.000000e+00 8.742268e-01 -4.855177e-01 0.000000e+00 9.825294e-01 -1.861074e-01 0.000000e+00 9.995927e-01 2.853931e-02 0.000000e+00 5.850730e-01 8.109807e-01 0.000000e+00 2.219338e-01 9.750617e-01 0.000000e+00 1.132571e-01 9.935657e-01 0.000000e+00 4.027245e-02 9.991887e-01 0.000000e+00 1.115358e-01 -9.937604e-01 0.000000e+00 3.247429e-01 -9.458023e-01 0.000000e+00 6.727030e-01 -7.399127e-01 0.000000e+00 4.134095e-01 -9.105452e-01 0.000000e+00 7.223933e-01 -6.914824e-01 0.000000e+00 9.304694e-01 -3.663696e-01 0.000000e+00 8.852763e-01 4.650655e-01 0.000000e+00 9.733048e-01 2.295163e-01 0.000000e+00 9.974414e-01 -7.148819e-02 0.000000e+00 9.178465e-01 -3.969356e-01 0.000000e+00 5.370639e-01 -8.435415e-01 0.000000e+00 1.843407e-01 9.828624e-01 0.000000e+00 4.585876e-01 8.886492e-01 0.000000e+00 5.959946e-01 8.029884e-01 0.000000e+00 6.657910e-01 7.461383e-01 0.000000e+00 7.438104e-01 6.683907e-01 0.000000e+00 7.804970e-01 6.251596e-01 0.000000e+00 7.991154e-01 6.011776e-01 0.000000e+00 7.994032e-01 6.007950e-01 0.000000e+00 7.775888e-01 6.287732e-01 0.000000e+00 7.370692e-01 6.758173e-01 0.000000e+00 6.913589e-01 7.225115e-01 0.000000e+00 6.823631e-01 7.310134e-01 0.000000e+00 7.064618e-01 7.077511e-01 0.000000e+00 7.506546e-01 6.606948e-01 0.000000e+00 7.993542e-01 6.008601e-01 0.000000e+00 8.463247e-01 5.326673e-01 0.000000e+00 9.023661e-01 4.309703e-01 0.000000e+00 9.542769e-01 2.989239e-01 0.000000e+00 9.912802e-01 1.317707e-01 0.000000e+00 9.861306e-01 1.659714e-01 0.000000e+00 7.856732e-01 6.186417e-01 0.000000e+00 7.447922e-01 6.672965e-01 0.000000e+00 8.026593e-01 5.964378e-01 0.000000e+00 8.336734e-01 -5.522577e-01 0.000000e+00 9.986091e-01 -5.272538e-02 0.000000e+00 9.993375e-01 -3.639375e-02 0.000000e+00 9.996913e-01 -2.484729e-02 0.000000e+00 9.999459e-01 -1.040420e-02 0.000000e+00 9.997522e-01 -2.226006e-02 0.000000e+00 9.999990e-01 -1.389600e-03 0.000000e+00 9.997924e-01 -2.037777e-02 0.000000e+00 9.997913e-01 -2.042894e-02 0.000000e+00 9.997241e-01 -2.349066e-02 0.000000e+00 1.000000e+00 1.844331e-04 0.000000e+00 9.999996e-01 -9.471603e-04 0.000000e+00 9.997182e-01 -2.373793e-02 0.000000e+00 9.996852e-01 -2.509079e-02 0.000000e+00 9.995989e-01 -2.832147e-02 0.000000e+00 9.994976e-01 -3.169377e-02 0.000000e+00 9.999662e-01 -8.220426e-03 0.000000e+00 9.999449e-01 -1.050124e-02 0.000000e+00 9.993793e-01 -3.522820e-02 0.000000e+00 9.992742e-01 -3.809421e-02 0.000000e+00 9.991584e-01 -4.101706e-02 0.000000e+00 9.998616e-01 -1.663707e-02 0.000000e+00 9.998374e-01 -1.803467e-02 0.000000e+00 9.989741e-01 -4.528592e-02 0.000000e+00 9.988199e-01 -4.856806e-02 0.000000e+00 9.985383e-01 -5.404928e-02 0.000000e+00 9.996878e-01 -2.498656e-02 0.000000e+00 9.996939e-01 -2.474263e-02 0.000000e+00 9.980310e-01 -6.272228e-02 0.000000e+00 9.995129e-01 -3.120874e-02 0.000000e+00 9.974253e-01 -7.171297e-02 0.000000e+00 9.969546e-01 -7.798429e-02 0.000000e+00 9.963720e-01 -8.510438e-02 0.000000e+00 9.991135e-01 -4.209695e-02 0.000000e+00 9.988307e-01 -4.834509e-02 0.000000e+00 9.929514e-01 -1.185222e-01 0.000000e+00 9.884712e-01 -1.514089e-01 0.000000e+00 9.792672e-01 -2.025728e-01 0.000000e+00 9.401396e-01 -3.407895e-01 0.000000e+00 9.675048e-01 -2.528526e-01 0.000000e+00 9.016522e-01 -4.324618e-01 0.000000e+00 8.300297e-01 -5.577192e-01 0.000000e+00 9.997198e-01 2.367257e-02 0.000000e+00 9.999767e-01 6.832655e-03 0.000000e+00 9.987870e-01 4.923978e-02 0.000000e+00 9.962111e-01 8.696857e-02 0.000000e+00 9.866974e-01 1.625677e-01 0.000000e+00 9.333632e-01 3.589335e-01 0.000000e+00 9.561004e-01 2.930393e-01 0.000000e+00 9.193778e-01 3.933758e-01 0.000000e+00 9.700392e-01 2.429485e-01 0.000000e+00 6.012711e-01 7.990451e-01 0.000000e+00 6.695043e-01 7.428082e-01 0.000000e+00 2.078853e-01 -9.781532e-01 0.000000e+00 4.197792e-03 9.999912e-01 0.000000e+00 3.904318e-01 -9.206319e-01 0.000000e+00 9.538703e-01 -3.002192e-01 0.000000e+00 9.988038e-01 -4.889779e-02 0.000000e+00 9.997917e-01 -2.041147e-02 0.000000e+00 9.377503e-01 3.473101e-01 0.000000e+00 2.687795e-01 9.632017e-01 0.000000e+00 3.951621e-02 -9.992189e-01 0.000000e+00 2.292888e-01 9.733584e-01 0.000000e+00 1.556670e-01 9.878096e-01 0.000000e+00 8.253947e-01 -5.645562e-01 0.000000e+00 5.843280e-01 8.115176e-01 0.000000e+00 9.346237e-01 3.556382e-01 0.000000e+00 4.114935e-01 9.114127e-01 0.000000e+00 3.394335e-01 9.406300e-01 0.000000e+00 1.714776e-01 9.851880e-01 0.000000e+00 7.574545e-02 9.971272e-01 0.000000e+00 1.631000e-01 -9.866095e-01 0.000000e+00 2.026266e-02 -9.997947e-01 0.000000e+00 2.414686e-01 -9.704086e-01 0.000000e+00 9.602629e-01 2.790972e-01 0.000000e+00 8.605792e-01 5.093167e-01 0.000000e+00 9.985058e-01 -5.464526e-02 0.000000e+00 9.137548e-01 -4.062661e-01 0.000000e+00 6.973594e-01 -7.167216e-01 0.000000e+00 2.181234e-01 -9.759212e-01 0.000000e+00 2.658528e-01 9.640136e-01 0.000000e+00 4.940288e-01 8.694455e-01 0.000000e+00 6.378663e-01 7.701471e-01 0.000000e+00 7.174271e-01 6.966336e-01 0.000000e+00 7.694500e-01 6.387071e-01 0.000000e+00 7.916180e-01 6.110163e-01 0.000000e+00 7.932359e-01 6.089145e-01 0.000000e+00 7.775146e-01 6.288649e-01 0.000000e+00 7.489954e-01 6.625752e-01 0.000000e+00 7.130907e-01 7.010718e-01 0.000000e+00 6.933233e-01 7.206267e-01 0.000000e+00 7.006547e-01 7.135005e-01 0.000000e+00 7.277959e-01 6.857938e-01 0.000000e+00 7.674546e-01 6.411033e-01 0.000000e+00 8.145375e-01 5.801110e-01 0.000000e+00 8.762406e-01 4.818739e-01 0.000000e+00 9.390950e-01 3.436577e-01 0.000000e+00 9.850953e-01 1.720095e-01 0.000000e+00 9.996196e-01 -2.757894e-02 0.000000e+00 9.996777e-01 2.538661e-02 0.000000e+00 7.721709e-01 6.354149e-01 0.000000e+00 7.675274e-01 6.410161e-01 0.000000e+00 7.319437e-02 9.973177e-01 0.000000e+00 9.999889e-01 -4.703463e-03 0.000000e+00 9.999997e-01 7.391900e-04 0.000000e+00 9.999995e-01 9.653784e-04 0.000000e+00 9.999939e-01 -3.484457e-03 0.000000e+00 9.999985e-01 -1.712272e-03 0.000000e+00 9.999908e-01 -4.287576e-03 0.000000e+00 9.999834e-01 -5.757344e-03 0.000000e+00 9.999330e-01 -1.157443e-02 0.000000e+00 9.999474e-01 -1.025686e-02 0.000000e+00 9.998941e-01 -1.454979e-02 0.000000e+00 9.998091e-01 -1.954002e-02 0.000000e+00 9.998153e-01 -1.921697e-02 0.000000e+00 9.997842e-01 -2.077520e-02 0.000000e+00 9.996458e-01 -2.661244e-02 0.000000e+00 9.993445e-01 -3.620206e-02 0.000000e+00 9.994149e-01 -3.420222e-02 0.000000e+00 9.977524e-01 -6.700917e-02 0.000000e+00 9.983162e-01 -5.800734e-02 0.000000e+00 9.969865e-01 -7.757493e-02 0.000000e+00 9.940193e-01 -1.092049e-01 0.000000e+00 3.706885e-01 -9.287573e-01 0.000000e+00 6.946444e-01 -7.193533e-01 0.000000e+00 9.985768e-01 5.333320e-02 0.000000e+00 9.969750e-01 7.772314e-02 0.000000e+00 9.918985e-01 1.270329e-01 0.000000e+00 9.711333e-01 2.385373e-01 0.000000e+00 9.352709e-01 3.539326e-01 0.000000e+00 5.099855e-02 -9.986987e-01 0.000000e+00 3.837965e-01 -9.234177e-01 0.000000e+00 9.643534e-01 2.646178e-01 0.000000e+00 7.071698e-01 7.070438e-01 0.000000e+00 3.378038e-03 -9.999943e-01 0.000000e+00 3.405956e-01 9.402099e-01 0.000000e+00 1.226689e-01 9.924477e-01 0.000000e+00 2.705977e-03 -9.999963e-01 0.000000e+00 9.657561e-01 -2.594517e-01 0.000000e+00 9.999741e-01 -7.195881e-03 0.000000e+00 9.865750e-01 -1.633091e-01 0.000000e+00 9.952241e-01 9.761640e-02 0.000000e+00 9.860286e-01 1.665763e-01 0.000000e+00 3.683043e-01 -9.297053e-01 0.000000e+00 1.000000e+00 2.461371e-04 0.000000e+00 9.999990e-01 1.448996e-03 0.000000e+00 9.999935e-01 -3.598225e-03 0.000000e+00 9.998723e-01 -1.598291e-02 0.000000e+00 9.997097e-01 -2.409587e-02 0.000000e+00 9.993999e-01 -3.463881e-02 0.000000e+00 9.993030e-01 -3.733034e-02 0.000000e+00 9.966249e-01 -8.208991e-02 0.000000e+00 9.978519e-01 6.550951e-02 0.000000e+00 9.648257e-01 2.628905e-01 0.000000e+00 3.356816e-01 9.419755e-01 0.000000e+00 8.563318e-01 5.164261e-01 0.000000e+00 2.815112e-01 9.595579e-01 0.000000e+00 7.066020e-02 9.975004e-01 0.000000e+00 9.992193e-01 -3.950759e-02 0.000000e+00 9.991766e-01 -4.057158e-02 0.000000e+00 9.983114e-01 -5.808933e-02 0.000000e+00 9.986401e-01 -5.213480e-02 0.000000e+00 9.991962e-01 -4.008610e-02 0.000000e+00 9.998732e-01 -1.592629e-02 0.000000e+00 9.985216e-01 -5.435644e-02 0.000000e+00 9.994905e-01 -3.191706e-02 0.000000e+00 9.994012e-01 -3.460259e-02 0.000000e+00 9.986636e-01 -5.168272e-02 0.000000e+00 9.995652e-01 -2.948745e-02 0.000000e+00 9.956447e-01 -9.322923e-02 0.000000e+00 9.961358e-01 -8.782631e-02 0.000000e+00 8.954135e-01 -4.452355e-01 0.000000e+00 9.958541e-01 -9.096512e-02 0.000000e+00 9.980090e-01 -6.307213e-02 0.000000e+00 9.976094e-01 -6.910525e-02 0.000000e+00 9.966270e-01 -8.206490e-02 0.000000e+00 9.981754e-01 -6.038023e-02 0.000000e+00 9.930549e-01 -1.176518e-01 0.000000e+00 9.925726e-01 -1.216537e-01 0.000000e+00 9.927902e-01 -1.198653e-01 0.000000e+00 9.956982e-01 -9.265620e-02 0.000000e+00 9.957632e-01 -9.195505e-02 0.000000e+00 9.937417e-01 -1.117026e-01 0.000000e+00 9.961827e-01 -8.729294e-02 0.000000e+00 9.884782e-01 -1.513630e-01 0.000000e+00 9.799308e-01 -1.993381e-01 0.000000e+00 9.846467e-01 -1.745590e-01 0.000000e+00 9.804071e-01 -1.969822e-01 0.000000e+00 9.880800e-01 -1.539415e-01 0.000000e+00 9.301272e-01 -3.672374e-01 0.000000e+00 9.527048e-01 -3.038973e-01 0.000000e+00 9.822104e-01 -1.877838e-01 0.000000e+00 9.887501e-01 -1.495768e-01 0.000000e+00 9.878845e-01 -1.551912e-01 0.000000e+00 9.408687e-01 -3.387715e-01 0.000000e+00 9.555913e-01 -2.946951e-01 0.000000e+00 9.471390e-01 -3.208236e-01 0.000000e+00 9.639265e-01 -2.661685e-01 0.000000e+00 9.650330e-01 -2.621284e-01 0.000000e+00 9.189724e-01 -3.943219e-01 0.000000e+00 9.428128e-01 -3.333228e-01 0.000000e+00 8.780573e-01 -4.785556e-01 0.000000e+00 9.814116e-01 1.919148e-01 0.000000e+00 4.443670e-01 -8.958448e-01 0.000000e+00 9.764037e-01 2.159534e-01 0.000000e+00 9.767447e-01 2.144058e-01 0.000000e+00 9.836234e-01 1.802360e-01 0.000000e+00 9.598707e-01 2.804431e-01 0.000000e+00 9.787594e-01 2.050122e-01 0.000000e+00 6.561771e-01 -7.546069e-01 0.000000e+00 2.532836e-01 -9.673921e-01 0.000000e+00 9.799569e-01 1.992098e-01 0.000000e+00 9.798261e-01 1.998519e-01 0.000000e+00 9.985943e-01 -5.300447e-02 0.000000e+00 8.606159e-01 5.092546e-01 0.000000e+00 9.606311e-01 2.778269e-01 0.000000e+00 8.910678e-01 4.538703e-01 0.000000e+00 8.902648e-01 4.554432e-01 0.000000e+00 3.830499e-01 -9.237276e-01 0.000000e+00 9.654766e-01 2.604896e-01 0.000000e+00 7.841473e-01 6.205748e-01 0.000000e+00 4.605095e-01 8.876548e-01 0.000000e+00 9.537748e-01 3.005223e-01 0.000000e+00 2.268474e-01 -9.739303e-01 0.000000e+00 5.386568e-01 -8.425253e-01 0.000000e+00 6.449103e-01 -7.642583e-01 0.000000e+00 9.989622e-01 -4.554768e-02 0.000000e+00 9.337092e-01 -3.580324e-01 0.000000e+00 9.997931e-01 -2.034159e-02 0.000000e+00 9.443171e-01 -3.290369e-01 0.000000e+00 9.732772e-01 2.296335e-01 0.000000e+00 4.808266e-01 8.768157e-01 0.000000e+00 5.707967e-03 -9.999837e-01 0.000000e+00 7.410002e-01 6.715048e-01 0.000000e+00 9.930105e-01 1.180261e-01 0.000000e+00 8.168260e-01 5.768841e-01 0.000000e+00 5.740502e-01 8.188201e-01 0.000000e+00 3.976196e-01 9.175504e-01 0.000000e+00 5.887020e-01 -8.083501e-01 0.000000e+00 9.605439e-01 -2.781284e-01 0.000000e+00 9.907108e-01 -1.359854e-01 0.000000e+00 2.301631e-01 9.731521e-01 0.000000e+00 1.944689e-01 -9.809087e-01 0.000000e+00 7.011648e-01 7.129992e-01 0.000000e+00 5.962622e-01 8.027897e-01 0.000000e+00 3.189979e-01 9.477554e-01 0.000000e+00 4.412392e-01 8.973895e-01 0.000000e+00 3.685637e-01 9.296025e-01 0.000000e+00 3.996328e-01 -9.166753e-01 0.000000e+00 8.805954e-01 -4.738690e-01 0.000000e+00 6.046851e-01 -7.964647e-01 0.000000e+00 9.036676e-01 -4.282347e-01 0.000000e+00 9.991801e-01 -4.048562e-02 0.000000e+00 9.997577e-01 -2.201066e-02 0.000000e+00 9.998751e-01 -1.580275e-02 0.000000e+00 9.866471e-01 -1.628724e-01 0.000000e+00 9.922132e-01 -1.245510e-01 0.000000e+00 9.904957e-01 -1.375440e-01 0.000000e+00 1.036770e-01 9.946110e-01 0.000000e+00 8.832140e-01 4.689702e-01 0.000000e+00 7.021189e-01 7.120597e-01 0.000000e+00 6.460383e-01 7.633050e-01 0.000000e+00 9.915380e-01 -1.298164e-01 0.000000e+00 9.220296e-01 3.871193e-01 0.000000e+00 9.978908e-01 -6.491502e-02 0.000000e+00 9.594873e-01 -2.817520e-01 0.000000e+00 7.999355e-01 -6.000860e-01 0.000000e+00 1.219725e-01 -9.925335e-01 0.000000e+00 4.590250e-01 8.884234e-01 0.000000e+00 7.000897e-01 7.140549e-01 0.000000e+00 7.483188e-01 6.633393e-01 0.000000e+00 7.835539e-01 6.213238e-01 0.000000e+00 8.141763e-01 5.806177e-01 0.000000e+00 7.548974e-01 6.558430e-01 0.000000e+00 6.653164e-01 7.465615e-01 0.000000e+00 6.658788e-01 7.460599e-01 0.000000e+00 6.951827e-01 7.188331e-01 0.000000e+00 7.349221e-01 6.781515e-01 0.000000e+00 8.375504e-01 5.463600e-01 0.000000e+00 8.977775e-01 4.404493e-01 0.000000e+00 9.498706e-01 3.126434e-01 0.000000e+00 8.517490e-01 5.239501e-01 0.000000e+00 7.255138e-01 6.882076e-01 0.000000e+00 9.599501e-01 2.801711e-01 0.000000e+00 9.151231e-01 4.031745e-01 0.000000e+00 9.572466e-01 2.892732e-01 0.000000e+00 7.853383e-01 -6.190668e-01 0.000000e+00 9.454123e-01 -3.258766e-01 0.000000e+00 7.737290e-01 6.335168e-01 0.000000e+00 9.966821e-01 -8.139304e-02 0.000000e+00 8.539170e-01 5.204093e-01 0.000000e+00 9.998740e-01 -1.587136e-02 0.000000e+00 9.989149e-01 -4.657234e-02 0.000000e+00 9.973505e-01 -7.274644e-02 0.000000e+00 9.950756e-01 -9.911874e-02 0.000000e+00 9.980580e-01 -6.229194e-02 0.000000e+00 7.949264e-01 -6.067059e-01 0.000000e+00 9.949552e-01 -1.003201e-01 0.000000e+00 9.916062e-01 -1.292948e-01 0.000000e+00 9.993727e-01 -3.541350e-02 0.000000e+00 9.875473e-01 -1.573224e-01 0.000000e+00 9.795747e-01 -2.010807e-01 0.000000e+00 3.086087e-01 9.511891e-01 0.000000e+00 9.829253e-01 1.840049e-01 0.000000e+00 1.352321e-02 9.999086e-01 0.000000e+00 9.753350e-01 2.207299e-01 0.000000e+00 9.700581e-01 2.428728e-01 0.000000e+00 8.996371e-01 4.366384e-01 0.000000e+00 7.975994e-01 -6.031875e-01 0.000000e+00 8.427137e-01 -5.383620e-01 0.000000e+00 9.705392e-01 2.409432e-01 0.000000e+00 9.224270e-01 3.861716e-01 0.000000e+00 2.817729e-01 9.594811e-01 0.000000e+00 1.219026e-01 9.925421e-01 0.000000e+00 9.587746e-01 2.841676e-01 0.000000e+00 9.430353e-01 3.326927e-01 0.000000e+00 7.730077e-01 6.343966e-01 0.000000e+00 5.483541e-01 8.362463e-01 0.000000e+00 1.759945e-01 9.843912e-01 0.000000e+00 2.877713e-02 -9.995859e-01 0.000000e+00 6.696092e-01 -7.427136e-01 0.000000e+00 9.736242e-01 -2.281576e-01 0.000000e+00 9.230409e-01 -3.847018e-01 0.000000e+00 5.107036e-01 8.597568e-01 0.000000e+00 9.990930e-01 -4.258202e-02 0.000000e+00 2.654420e-01 -9.641268e-01 0.000000e+00 7.616532e-01 6.479849e-01 0.000000e+00 9.998289e-01 -1.849804e-02 0.000000e+00 8.695124e-01 -4.939111e-01 0.000000e+00 9.997833e-01 -2.081734e-02 0.000000e+00 5.396894e-01 -8.418642e-01 0.000000e+00 7.411273e-01 -6.713645e-01 0.000000e+00 9.879273e-01 -1.549180e-01 0.000000e+00 8.316329e-01 5.553258e-01 0.000000e+00 9.990624e-01 -4.329440e-02 0.000000e+00 9.975799e-01 -6.952966e-02 0.000000e+00 6.952920e-01 7.187274e-01 0.000000e+00 7.533797e-01 6.575857e-01 0.000000e+00 7.293150e-01 6.841781e-01 0.000000e+00 9.913719e-01 1.310792e-01 0.000000e+00 9.733455e-01 2.293435e-01 0.000000e+00 9.436261e-01 3.310132e-01 0.000000e+00 8.776241e-01 4.793496e-01 0.000000e+00 7.446206e-01 6.674879e-01 0.000000e+00 7.800956e-01 6.256603e-01 0.000000e+00 7.035749e-01 7.106212e-01 0.000000e+00 6.691420e-01 7.431345e-01 0.000000e+00 6.807834e-01 7.324848e-01 0.000000e+00 6.724694e-01 7.401250e-01 0.000000e+00 7.215635e-01 6.923483e-01 0.000000e+00 7.012826e-01 7.128834e-01 0.000000e+00 7.925714e-01 6.097792e-01 0.000000e+00 7.953704e-01 6.061237e-01 0.000000e+00 8.097664e-01 5.867524e-01 0.000000e+00 8.084661e-01 5.885428e-01 0.000000e+00 7.848428e-01 6.196949e-01 0.000000e+00 7.230827e-01 6.907615e-01 0.000000e+00 4.481162e-01 8.939753e-01 0.000000e+00 6.290452e-01 7.773687e-01 0.000000e+00 5.987886e-01 8.009072e-01 0.000000e+00 2.277766e-02 -9.997406e-01 0.000000e+00 8.018325e-01 -5.975488e-01 0.000000e+00 6.922512e-01 -7.216567e-01 0.000000e+00 9.923261e-01 1.236483e-01 0.000000e+00 9.990535e-01 -4.349817e-02 0.000000e+00 6.373658e-01 7.705614e-01 0.000000e+00 8.103377e-01 5.859631e-01 0.000000e+00 7.615146e-01 6.481477e-01 0.000000e+00 6.872546e-01 7.264166e-01 0.000000e+00 8.033228e-01 5.955438e-01 0.000000e+00 9.990674e-01 -4.317795e-02 0.000000e+00 9.968204e-01 7.968063e-02 0.000000e+00 9.984183e-01 -5.622161e-02 0.000000e+00 9.991360e-01 -4.156032e-02 0.000000e+00 9.995854e-01 -2.879277e-02 0.000000e+00 9.987395e-01 -5.019351e-02 0.000000e+00 9.997242e-01 -2.348352e-02 0.000000e+00 9.996489e-01 -2.649562e-02 0.000000e+00 9.971515e-01 -7.542428e-02 0.000000e+00 9.986707e-01 -5.154406e-02 0.000000e+00 9.983825e-01 -5.685483e-02 0.000000e+00 9.943651e-01 -1.060093e-01 0.000000e+00 9.967749e-01 -8.024802e-02 0.000000e+00 9.964281e-01 -8.444544e-02 0.000000e+00 9.903323e-01 -1.387154e-01 0.000000e+00 9.940929e-01 -1.085327e-01 0.000000e+00 9.933391e-01 -1.152274e-01 0.000000e+00 9.749278e-01 -2.225216e-01 0.000000e+00 9.805669e-01 -1.961848e-01 0.000000e+00 9.734921e-01 -2.287207e-01 0.000000e+00 7.703012e-01 -6.376802e-01 0.000000e+00 6.675697e-01 -7.445473e-01 0.000000e+00 4.786639e-01 -8.779982e-01 0.000000e+00 6.032454e-01 7.975556e-01 0.000000e+00 6.479813e-01 7.616562e-01 0.000000e+00 3.749404e-02 -9.992969e-01 0.000000e+00 9.817262e-01 -1.902990e-01 0.000000e+00 9.997586e-01 -2.197224e-02 0.000000e+00 9.716236e-01 -2.365323e-01 0.000000e+00 3.122305e-01 9.500064e-01 0.000000e+00 1.618321e-01 9.868183e-01 0.000000e+00 7.806553e-01 6.249618e-01 0.000000e+00 8.167286e-01 -5.770220e-01 0.000000e+00 9.740240e-01 -2.264448e-01 0.000000e+00 9.492151e-01 -3.146278e-01 0.000000e+00 9.326902e-01 -3.606785e-01 0.000000e+00 9.483302e-01 -3.172850e-01 0.000000e+00 9.712859e-01 -2.379152e-01 0.000000e+00 9.854078e-01 -1.702103e-01 0.000000e+00 7.974804e-01 6.033448e-01 0.000000e+00 9.984177e-01 -5.623328e-02 0.000000e+00 9.902609e-01 -1.392238e-01 0.000000e+00 7.957797e-01 -6.055862e-01 0.000000e+00 9.083472e-01 -4.182169e-01 0.000000e+00 9.820738e-01 -1.884967e-01 0.000000e+00 1.235634e-01 9.923367e-01 0.000000e+00 9.439856e-01 -3.299866e-01 0.000000e+00 9.486676e-01 3.162749e-01 0.000000e+00 9.946689e-01 -1.031203e-01 0.000000e+00 9.383473e-01 3.456940e-01 0.000000e+00 9.456518e-01 3.251808e-01 0.000000e+00 8.894033e-01 4.571233e-01 0.000000e+00 9.538309e-01 3.003441e-01 0.000000e+00 1.451110e-01 9.894154e-01 0.000000e+00 9.548410e-01 2.971174e-01 0.000000e+00 9.504629e-01 3.108381e-01 0.000000e+00 9.500528e-01 3.120892e-01 0.000000e+00 9.150347e-01 4.033752e-01 0.000000e+00 9.331270e-01 3.595468e-01 0.000000e+00 2.958900e-01 -9.552220e-01 0.000000e+00 9.442169e-03 -9.999554e-01 0.000000e+00 9.519874e-01 3.061372e-01 0.000000e+00 9.509107e-01 3.094655e-01 0.000000e+00 7.998576e-01 6.001898e-01 0.000000e+00 5.882031e-01 8.087133e-01 0.000000e+00 2.115607e-01 -9.773649e-01 0.000000e+00 6.198236e-01 7.847412e-01 0.000000e+00 2.807414e-01 9.597834e-01 0.000000e+00 8.727994e-01 -4.880791e-01 0.000000e+00 2.807377e-01 9.597845e-01 0.000000e+00 9.976587e-01 -6.838886e-02 0.000000e+00 5.538548e-01 8.326133e-01 0.000000e+00 9.596606e-01 -2.811612e-01 0.000000e+00 9.965026e-01 -8.356235e-02 0.000000e+00 5.532434e-01 -8.330196e-01 0.000000e+00 9.971193e-01 7.584894e-02 0.000000e+00 4.102946e-01 -9.119531e-01 0.000000e+00 8.351403e-01 5.500370e-01 0.000000e+00 8.405776e-01 5.416911e-01 0.000000e+00 8.180800e-01 5.751044e-01 0.000000e+00 8.980470e-01 4.398995e-01 0.000000e+00 8.598180e-01 5.106006e-01 0.000000e+00 8.956562e-01 4.447471e-01 0.000000e+00 5.555698e-01 -8.314699e-01 0.000000e+00 7.555800e-01 6.550564e-01 0.000000e+00 6.595283e-01 7.516798e-01 0.000000e+00 7.789925e-01 6.270333e-01 0.000000e+00 6.361467e-01 -7.715682e-01 0.000000e+00 8.326486e-01 -5.538017e-01 0.000000e+00 9.256544e-01 -3.783702e-01 0.000000e+00 6.993272e-01 -7.148017e-01 0.000000e+00 6.551140e-01 -7.555301e-01 0.000000e+00 7.601667e-01 -6.497281e-01 0.000000e+00 8.339501e-01 5.518398e-01 0.000000e+00 8.186734e-01 5.742595e-01 0.000000e+00 7.169694e-01 6.971047e-01 0.000000e+00 7.338613e-01 6.792994e-01 0.000000e+00 6.876461e-01 7.260460e-01 0.000000e+00 6.290607e-01 7.773562e-01 0.000000e+00 6.375418e-01 7.704158e-01 0.000000e+00 6.376050e-01 7.703635e-01 0.000000e+00 6.365461e-01 7.712386e-01 0.000000e+00 7.057182e-01 7.084926e-01 0.000000e+00 8.249338e-01 5.652294e-01 0.000000e+00 8.883192e-01 4.592264e-01 0.000000e+00 6.068515e-01 -7.948152e-01 0.000000e+00 9.699264e-01 -2.433983e-01 0.000000e+00 7.070173e-01 7.071963e-01 0.000000e+00 9.404004e-01 -3.400692e-01 0.000000e+00 3.894892e-01 -9.210311e-01 0.000000e+00 3.881000e-01 -9.216173e-01 0.000000e+00 5.520717e-01 -8.337966e-01 0.000000e+00 9.995242e-01 -3.084473e-02 0.000000e+00 9.983111e-01 -5.809516e-02 0.000000e+00 9.709629e-01 -2.392301e-01 0.000000e+00 9.920185e-01 -1.260922e-01 0.000000e+00 9.937213e-01 -1.118836e-01 0.000000e+00 9.957577e-01 -9.201360e-02 0.000000e+00 9.971819e-01 -7.502148e-02 0.000000e+00 9.883382e-01 -1.522749e-01 0.000000e+00 9.506176e-01 -3.103645e-01 0.000000e+00 9.593903e-01 -2.820821e-01 0.000000e+00 9.334545e-01 -3.586957e-01 0.000000e+00 9.070228e-01 -4.210816e-01 0.000000e+00 3.576352e-01 9.338614e-01 0.000000e+00 5.328025e-01 -8.462396e-01 0.000000e+00 2.272197e-01 -9.738435e-01 0.000000e+00 9.281168e-01 3.722891e-01 0.000000e+00 8.482283e-01 -5.296307e-01 0.000000e+00 9.804858e-01 -1.965899e-01 0.000000e+00 9.583689e-01 -2.855328e-01 0.000000e+00 9.604504e-01 -2.784513e-01 0.000000e+00 8.788971e-01 4.770115e-01 0.000000e+00 9.893776e-01 -1.453681e-01 0.000000e+00 9.918907e-01 -1.270938e-01 0.000000e+00 8.579730e-01 -5.136947e-01 0.000000e+00 9.500359e-01 3.121407e-01 0.000000e+00 1.069773e-02 9.999428e-01 0.000000e+00 6.683662e-01 7.438324e-01 0.000000e+00 9.994363e-01 -3.357197e-02 0.000000e+00 9.981318e-01 -6.109735e-02 0.000000e+00 7.064647e-01 7.077483e-01 0.000000e+00 8.810388e-01 -4.730440e-01 0.000000e+00 8.783012e-01 -4.781078e-01 0.000000e+00 4.748360e-01 8.800743e-01 0.000000e+00 8.479943e-01 -5.300053e-01 0.000000e+00 5.885009e-01 8.084966e-01 0.000000e+00 9.988698e-01 -4.753060e-02 0.000000e+00 9.969732e-01 -7.774555e-02 0.000000e+00 9.643024e-01 -2.648033e-01 0.000000e+00 9.681250e-01 -2.504674e-01 0.000000e+00 9.814261e-01 1.918407e-01 0.000000e+00 8.210382e-01 5.708732e-01 0.000000e+00 9.483709e-01 -3.171634e-01 0.000000e+00 9.580808e-01 -2.864982e-01 0.000000e+00 9.594972e-01 -2.817183e-01 0.000000e+00 8.682827e-01 -4.960697e-01 0.000000e+00 8.483849e-01 5.293799e-01 0.000000e+00 8.558538e-01 5.172178e-01 0.000000e+00 8.342726e-01 5.513522e-01 0.000000e+00 6.949166e-01 7.190904e-01 0.000000e+00 3.934316e-01 9.193539e-01 0.000000e+00 9.842045e-01 -1.770352e-01 0.000000e+00 9.870072e-01 -1.606762e-01 0.000000e+00 9.680337e-01 -2.508201e-01 0.000000e+00 9.756626e-01 -2.192772e-01 0.000000e+00 9.739054e-01 -2.269541e-01 0.000000e+00 6.547872e-01 7.558133e-01 0.000000e+00 6.041202e-01 7.968932e-01 0.000000e+00 9.981960e-01 -6.003967e-02 0.000000e+00 9.965624e-01 -8.284554e-02 0.000000e+00 9.986551e-01 -5.184528e-02 0.000000e+00 9.942130e-01 -1.074272e-01 0.000000e+00 9.965000e-01 -8.359249e-02 0.000000e+00 9.981912e-01 -6.011927e-02 0.000000e+00 9.983345e-01 -5.769139e-02 0.000000e+00 7.210780e-01 6.928539e-01 0.000000e+00 6.638579e-01 7.478587e-01 0.000000e+00 7.808672e-01 6.246970e-01 0.000000e+00 9.296668e-01 3.684014e-01 0.000000e+00 7.822645e-01 6.229464e-01 0.000000e+00 7.225918e-02 -9.973859e-01 0.000000e+00 1.347979e-01 9.908731e-01 0.000000e+00 1.564625e-01 -9.876839e-01 0.000000e+00 9.991930e-01 -4.016662e-02 0.000000e+00 9.860553e-01 -1.664181e-01 0.000000e+00 9.797457e-01 -2.002456e-01 0.000000e+00 6.875451e-01 -7.261416e-01 0.000000e+00 7.671609e-01 -6.414547e-01 0.000000e+00 7.524278e-01 6.586747e-01 0.000000e+00 7.636967e-01 6.455753e-01 0.000000e+00 9.996471e-01 -2.656514e-02 0.000000e+00 9.993650e-01 -3.563078e-02 0.000000e+00 9.976505e-01 -6.850942e-02 0.000000e+00 6.991807e-01 7.149450e-01 0.000000e+00 6.972265e-01 7.168509e-01 0.000000e+00 9.945608e-01 -1.041579e-01 0.000000e+00 5.945770e-01 8.040387e-01 0.000000e+00 7.644531e-01 -6.446793e-01 0.000000e+00 9.985965e-01 -5.296276e-02 0.000000e+00 9.995978e-01 -2.836057e-02 0.000000e+00 8.837979e-01 4.678689e-01 0.000000e+00 9.616416e-01 2.743090e-01 0.000000e+00 9.809644e-01 -1.941876e-01 0.000000e+00 9.981601e-01 -6.063282e-02 0.000000e+00 9.993131e-01 -3.705715e-02 0.000000e+00 9.993480e-01 -3.610560e-02 0.000000e+00 9.966195e-01 -8.215556e-02 0.000000e+00 9.864879e-01 -1.638341e-01 0.000000e+00 9.804230e-01 -1.969027e-01 0.000000e+00 9.933524e-01 -1.151133e-01 0.000000e+00 9.891792e-01 -1.467121e-01 0.000000e+00 9.966563e-01 -8.170831e-02 0.000000e+00 6.658091e-01 7.461222e-01 0.000000e+00 5.727153e-01 8.197543e-01 0.000000e+00 5.768141e-01 8.168754e-01 0.000000e+00 4.844833e-01 8.748005e-01 0.000000e+00 9.899624e-01 -1.413312e-01 0.000000e+00 2.947126e-01 9.555859e-01 0.000000e+00 9.281045e-01 -3.723198e-01 0.000000e+00 9.560571e-01 -2.931807e-01 0.000000e+00 9.936689e-01 -1.123482e-01 0.000000e+00 9.078840e-01 4.192215e-01 0.000000e+00 9.882954e-01 -1.525522e-01 0.000000e+00 9.965305e-01 -8.322820e-02 0.000000e+00 9.911593e-01 -1.326772e-01 0.000000e+00 9.981913e-01 6.011792e-02 0.000000e+00 9.982587e-01 -5.898712e-02 0.000000e+00 9.967326e-01 -8.077160e-02 0.000000e+00 9.977574e-01 -6.693390e-02 0.000000e+00 9.939544e-01 -1.097935e-01 0.000000e+00 9.988906e-01 -4.709200e-02 0.000000e+00 9.999591e-01 -9.041463e-03 0.000000e+00 9.982129e-01 -5.975761e-02 0.000000e+00 9.998779e-01 1.562564e-02 0.000000e+00 9.864231e-01 -1.642237e-01 0.000000e+00 9.822342e-01 -1.876590e-01 0.000000e+00 9.905777e-01 -1.369517e-01 0.000000e+00 9.996884e-01 -2.496111e-02 0.000000e+00 9.991893e-01 -4.025775e-02 0.000000e+00 9.933944e-01 -1.147496e-01 0.000000e+00 9.962486e-01 -8.653784e-02 0.000000e+00 9.944022e-01 -1.056607e-01 0.000000e+00 9.864161e-01 -1.642661e-01 0.000000e+00 9.899293e-01 -1.415624e-01 0.000000e+00 9.882924e-01 -1.525714e-01 0.000000e+00 8.543918e-01 -5.196293e-01 0.000000e+00 3.073933e-01 9.515826e-01 0.000000e+00 9.902078e-01 -1.396013e-01 0.000000e+00 8.902945e-01 -4.553852e-01 0.000000e+00 9.759533e-01 -2.179796e-01 0.000000e+00 9.796601e-01 -2.006641e-01 0.000000e+00 9.771497e-01 -2.125523e-01 0.000000e+00 8.396694e-01 -5.430979e-01 0.000000e+00 6.738557e-01 -7.388629e-01 0.000000e+00 5.602420e-01 -8.283290e-01 0.000000e+00 4.109139e-01 -9.116742e-01 0.000000e+00 9.094358e-01 4.158444e-01 0.000000e+00 8.943073e-01 4.474532e-01 0.000000e+00 8.754940e-01 -4.832289e-01 0.000000e+00 5.679003e-01 -8.230974e-01 0.000000e+00 9.850880e-01 -1.720511e-01 0.000000e+00 9.994131e-01 -3.425641e-02 0.000000e+00 9.101416e-01 4.142973e-01 0.000000e+00 6.216406e-01 7.833026e-01 0.000000e+00 8.001154e-02 9.967939e-01 0.000000e+00 5.278948e-01 8.493098e-01 0.000000e+00 4.482243e-01 8.939211e-01 0.000000e+00 8.470798e-01 -5.314658e-01 0.000000e+00 8.066612e-01 -5.910142e-01 0.000000e+00 7.348259e-01 -6.782557e-01 0.000000e+00 3.984154e-01 9.172051e-01 0.000000e+00 8.394624e-01 5.434178e-01 0.000000e+00 9.974178e-01 -7.181765e-02 0.000000e+00 6.332832e-01 7.739202e-01 0.000000e+00 9.936332e-01 -1.126638e-01 0.000000e+00 9.999908e-01 -4.286833e-03 0.000000e+00 9.994504e-01 -3.315046e-02 0.000000e+00 8.257270e-01 5.640699e-01 0.000000e+00 4.800375e-01 8.772480e-01 0.000000e+00 8.009864e-01 5.986826e-01 0.000000e+00 9.969060e-01 -7.860270e-02 0.000000e+00 9.458046e-01 3.247363e-01 0.000000e+00 9.958338e-01 -9.118650e-02 0.000000e+00 9.915439e-01 -1.297720e-01 0.000000e+00 6.535247e-01 -7.569052e-01 0.000000e+00 7.315441e-01 -6.817942e-01 0.000000e+00 9.990527e-01 -4.351757e-02 0.000000e+00 7.165764e-01 6.975086e-01 0.000000e+00 9.974698e-01 -7.109202e-02 0.000000e+00 4.101108e-01 9.120357e-01 0.000000e+00 1.707043e-01 9.853223e-01 0.000000e+00 7.947201e-01 6.069761e-01 0.000000e+00 8.025285e-01 5.966138e-01 0.000000e+00 9.911442e-01 -1.327902e-01 0.000000e+00 8.914195e-01 4.531791e-01 0.000000e+00 8.889195e-01 4.580635e-01 0.000000e+00 9.932964e-01 -1.155951e-01 0.000000e+00 6.088572e-01 7.932799e-01 0.000000e+00 9.775679e-01 -2.106204e-01 0.000000e+00 9.993926e-01 -3.484958e-02 0.000000e+00 9.978177e-01 -6.602923e-02 0.000000e+00 5.451352e-01 8.383482e-01 0.000000e+00 5.309183e-01 8.474230e-01 0.000000e+00 9.921067e-01 -1.253965e-01 0.000000e+00 9.882211e-01 -1.530330e-01 0.000000e+00 3.675151e-01 9.300176e-01 0.000000e+00 8.709069e-01 -4.914480e-01 0.000000e+00 8.159711e-01 -5.780927e-01 0.000000e+00 3.501574e-01 9.366909e-01 0.000000e+00 2.676164e-01 9.635255e-01 0.000000e+00 4.283534e-01 9.036113e-01 0.000000e+00 9.173132e-01 -3.981664e-01 0.000000e+00 9.400448e-01 -3.410511e-01 0.000000e+00 2.248676e-01 -9.743893e-01 0.000000e+00 5.137298e-02 -9.986795e-01 0.000000e+00 9.785776e-01 -2.058783e-01 0.000000e+00 9.251981e-01 -3.794846e-01 0.000000e+00 8.425410e-01 5.386322e-01 0.000000e+00 8.650206e-01 5.017364e-01 0.000000e+00 8.592029e-01 5.116350e-01 0.000000e+00 8.068388e-01 5.907716e-01 0.000000e+00 9.817393e-01 -1.902313e-01 0.000000e+00 9.822437e-01 -1.876097e-01 0.000000e+00 4.905921e-01 8.713893e-01 0.000000e+00 7.374361e-01 6.754169e-01 0.000000e+00 7.307293e-01 6.826673e-01 0.000000e+00 9.297460e-01 3.682015e-01 0.000000e+00 7.359581e-01 -6.770271e-01 0.000000e+00 6.473880e-01 -7.621606e-01 0.000000e+00 7.077913e-01 -7.064216e-01 0.000000e+00 5.202441e-01 8.540176e-01 0.000000e+00 9.231029e-01 3.845531e-01 0.000000e+00 8.705694e-01 4.920457e-01 0.000000e+00 5.377995e-01 8.430728e-01 0.000000e+00 9.974083e-01 -7.194932e-02 0.000000e+00 5.865913e-01 8.098831e-01 0.000000e+00 7.831267e-01 -6.218622e-01 0.000000e+00 6.977486e-01 -7.163427e-01 0.000000e+00 8.089523e-01 -5.878743e-01 0.000000e+00 9.973063e-01 -7.335013e-02 0.000000e+00 9.986880e-01 -5.120854e-02 0.000000e+00 9.612015e-01 -2.758473e-01 0.000000e+00 8.651626e-01 5.014914e-01 0.000000e+00 9.319206e-01 -3.626623e-01 0.000000e+00 9.214519e-01 -3.884925e-01 0.000000e+00 9.988378e-01 -4.819839e-02 0.000000e+00 9.829144e-01 -1.840634e-01 0.000000e+00 9.846264e-01 -1.746737e-01 0.000000e+00 9.971042e-01 -7.604786e-02 0.000000e+00 9.932263e-01 -1.161958e-01 0.000000e+00 9.668482e-01 -2.553517e-01 0.000000e+00 9.925226e-01 -1.220609e-01 0.000000e+00 6.860606e-01 -7.275444e-01 0.000000e+00 9.124286e-01 4.092360e-01 0.000000e+00 9.841877e-01 -1.771288e-01 0.000000e+00 9.882055e-01 -1.531333e-01 0.000000e+00 9.168716e-01 3.991822e-01 0.000000e+00 9.945851e-01 -1.039253e-01 0.000000e+00 9.953502e-01 -9.632212e-02 0.000000e+00 9.949581e-01 -1.002917e-01 0.000000e+00 9.082297e-01 4.184720e-01 0.000000e+00 1.264401e-01 -9.919743e-01 0.000000e+00 9.622946e-01 -2.720094e-01 0.000000e+00 9.701304e-01 -2.425840e-01 0.000000e+00 9.699370e-01 -2.433560e-01 0.000000e+00 9.979577e-01 -6.387766e-02 0.000000e+00 9.327465e-01 3.605329e-01 0.000000e+00 7.372740e-01 6.755939e-01 0.000000e+00 9.994306e-01 -3.374066e-02 0.000000e+00 9.911160e-01 -1.330003e-01 0.000000e+00 8.738649e-01 4.861688e-01 0.000000e+00 9.951177e-01 -9.869482e-02 0.000000e+00 8.178839e-01 -5.753833e-01 0.000000e+00 8.308846e-01 -5.564448e-01 0.000000e+00 9.666064e-02 9.953174e-01 0.000000e+00 9.978563e-01 -6.544378e-02 0.000000e+00 9.926721e-01 -1.208393e-01 0.000000e+00 9.949254e-01 -1.006152e-01 0.000000e+00 9.685106e-01 -2.489725e-01 0.000000e+00 9.605632e-01 -2.780619e-01 0.000000e+00 8.164923e-01 5.773564e-01 0.000000e+00 2.563877e-01 -9.665740e-01 0.000000e+00 7.454280e-01 6.665862e-01 0.000000e+00 7.197012e-01 -6.942839e-01 0.000000e+00 9.729712e-01 -2.309263e-01 0.000000e+00 9.606550e-01 -2.777446e-01 0.000000e+00 9.993850e-01 3.506471e-02 0.000000e+00 3.377963e-01 -9.412193e-01 0.000000e+00 9.751851e-01 -2.213912e-01 0.000000e+00 9.728424e-01 -2.314686e-01 0.000000e+00 1.994991e-01 -9.798980e-01 0.000000e+00 9.143932e-01 4.048271e-01 0.000000e+00 9.915476e-01 -1.297433e-01 0.000000e+00 9.934717e-01 -1.140792e-01 0.000000e+00 9.897622e-01 -1.427264e-01 0.000000e+00 6.376467e-01 -7.703289e-01 0.000000e+00 9.472282e-01 -3.205601e-01 0.000000e+00 9.510109e-01 -3.091574e-01 0.000000e+00 9.157564e-01 -4.017340e-01 0.000000e+00 8.472644e-01 -5.311714e-01 0.000000e+00 8.721936e-01 4.891608e-01 0.000000e+00 8.663248e-01 -4.994810e-01 0.000000e+00 9.797111e-01 -2.004148e-01 0.000000e+00 4.842466e-02 9.988268e-01 0.000000e+00 9.856939e-01 -1.685452e-01 0.000000e+00 7.915348e-01 -6.111241e-01 0.000000e+00 9.931202e-01 -1.170991e-01 0.000000e+00 9.964264e-01 -8.446591e-02 0.000000e+00 9.955504e-01 -9.423031e-02 0.000000e+00 8.475821e-01 5.306642e-01 0.000000e+00 7.455915e-01 6.664032e-01 0.000000e+00 9.161570e-01 -4.008195e-01 0.000000e+00 9.720461e-01 -2.347900e-01 0.000000e+00 9.799139e-01 -1.994212e-01 0.000000e+00 9.356082e-01 -3.530401e-01 0.000000e+00 9.457966e-01 -3.247596e-01 0.000000e+00 9.438265e-01 -3.304416e-01 0.000000e+00 4.319711e-01 -9.018875e-01 0.000000e+00 8.906753e-01 4.546400e-01 0.000000e+00 7.954706e-01 6.059922e-01 0.000000e+00 7.674046e-01 6.411631e-01 0.000000e+00 7.974089e-01 6.034394e-01 0.000000e+00 9.843673e-01 -1.761280e-01 0.000000e+00 6.432960e-01 7.656176e-01 0.000000e+00 8.987748e-01 4.384106e-01 0.000000e+00 9.126019e-01 -4.088493e-01 0.000000e+00 9.522096e-01 -3.054455e-01 0.000000e+00 9.673480e-01 -2.534517e-01 0.000000e+00 9.137008e-01 -4.063876e-01 0.000000e+00 6.664911e-01 7.455129e-01 0.000000e+00 8.649699e-01 5.018238e-01 0.000000e+00 9.898934e-01 -1.418132e-01 0.000000e+00 5.711219e-01 -8.208653e-01 0.000000e+00 9.860692e-01 -1.663356e-01 0.000000e+00 7.492729e-01 6.622614e-01 0.000000e+00 8.970978e-01 -4.418320e-01 0.000000e+00 3.087176e-01 9.511537e-01 0.000000e+00 9.993151e-01 -3.700477e-02 0.000000e+00 8.926142e-01 -4.508213e-01 0.000000e+00 6.921364e-01 7.217667e-01 0.000000e+00 4.960372e-01 8.683013e-01 0.000000e+00 5.698856e-01 8.217240e-01 0.000000e+00 9.138065e-01 -4.061499e-01 0.000000e+00 9.984640e-01 -5.540418e-02 0.000000e+00 6.827011e-01 7.306978e-01 0.000000e+00 8.447036e-01 -5.352344e-01 0.000000e+00 9.053160e-01 -4.247386e-01 0.000000e+00 6.754261e-01 -7.374277e-01 0.000000e+00 3.875704e-01 -9.218401e-01 0.000000e+00 5.795813e-02 9.983190e-01 0.000000e+00 3.163029e-01 9.486583e-01 0.000000e+00 4.327403e-02 -9.990632e-01 0.000000e+00 9.443468e-01 -3.289516e-01 0.000000e+00 9.964474e-01 -8.421692e-02 0.000000e+00 3.140213e-01 -9.494159e-01 0.000000e+00 9.125827e-01 -4.088923e-01 0.000000e+00 8.987464e-01 -4.384688e-01 0.000000e+00 9.862372e-01 -1.653368e-01 0.000000e+00 5.534813e-01 8.328616e-01 0.000000e+00 5.490073e-01 8.358175e-01 0.000000e+00 6.886652e-01 7.250794e-01 0.000000e+00 2.184158e-02 9.997614e-01 0.000000e+00 9.609608e-01 -2.766846e-01 0.000000e+00 8.762497e-01 -4.818573e-01 0.000000e+00 9.838285e-01 -1.791130e-01 0.000000e+00 4.514812e-01 -8.922806e-01 0.000000e+00 2.473035e-01 -9.689381e-01 0.000000e+00 9.528499e-01 -3.034419e-01 0.000000e+00 5.915217e-01 -8.062891e-01 0.000000e+00 3.691171e-01 -9.293829e-01 0.000000e+00 8.207946e-01 5.712235e-01 0.000000e+00 7.548703e-01 6.558741e-01 0.000000e+00 9.558020e-02 9.954217e-01 0.000000e+00 9.039911e-01 -4.275512e-01 0.000000e+00 2.384825e-01 9.711468e-01 0.000000e+00 7.148539e-01 -6.992738e-01 0.000000e+00 5.098752e-01 -8.602484e-01 0.000000e+00 7.805479e-01 -6.250960e-01 0.000000e+00 9.817717e-01 -1.900642e-01 0.000000e+00 6.668844e-01 -7.451612e-01 0.000000e+00 7.123113e-01 -7.018637e-01 0.000000e+00 8.505716e-01 -5.258592e-01 0.000000e+00 9.358461e-01 -3.524089e-01 0.000000e+00 7.443886e-01 6.677466e-01 0.000000e+00 8.793441e-01 4.761868e-01 0.000000e+00 6.549058e-01 7.557105e-01 0.000000e+00 8.360058e-01 5.487206e-01 0.000000e+00 9.673735e-01 -2.533547e-01 0.000000e+00 9.289753e-01 -3.701418e-01 0.000000e+00 9.194556e-01 -3.931938e-01 0.000000e+00 3.835329e-01 -9.235272e-01 0.000000e+00 7.609424e-01 -6.488194e-01 0.000000e+00 9.817717e-01 -1.900642e-01 0.000000e+00 7.505804e-01 -6.607791e-01 0.000000e+00 5.256870e-01 -8.506780e-01 0.000000e+00 6.321393e-01 -7.748548e-01 0.000000e+00 9.402929e-01 -3.403664e-01 0.000000e+00 9.475411e-01 -3.196340e-01 0.000000e+00 8.146419e-01 -5.799643e-01 0.000000e+00 9.909707e-01 -1.340783e-01 0.000000e+00 9.915756e-01 -1.295296e-01 0.000000e+00 6.184665e-01 -7.858112e-01 0.000000e+00 7.446627e-01 -6.674410e-01 0.000000e+00 9.793108e-01 -2.023618e-01 0.000000e+00 9.768862e-01 -2.137602e-01 0.000000e+00 8.586481e-01 -5.125656e-01 0.000000e+00 9.887160e-01 -1.498020e-01 0.000000e+00 9.613088e-01 -2.754730e-01 0.000000e+00 9.472070e-01 -3.206227e-01 0.000000e+00 2.975158e-01 9.547169e-01 0.000000e+00 3.472362e-01 9.377777e-01 0.000000e+00 5.345480e-01 -8.451381e-01 0.000000e+00 5.764901e-01 -8.171041e-01 0.000000e+00 7.264086e-01 -6.872630e-01 0.000000e+00 9.423284e-01 -3.346897e-01 0.000000e+00 9.720458e-01 -2.347914e-01 0.000000e+00 5.108222e-01 -8.596864e-01 0.000000e+00 9.893681e-01 -1.454328e-01 0.000000e+00 9.677880e-01 -2.517665e-01 0.000000e+00 9.620034e-01 -2.730375e-01 0.000000e+00 9.527876e-01 -3.036375e-01 0.000000e+00 9.697309e-01 -2.441760e-01 0.000000e+00 4.922079e-01 -8.704777e-01 0.000000e+00 9.384129e-01 -3.455159e-01 0.000000e+00 1.718762e-01 9.851186e-01 0.000000e+00 9.230218e-01 -3.847475e-01 0.000000e+00 7.769916e-01 -6.295110e-01 0.000000e+00 6.643130e-01 7.474545e-01 0.000000e+00 8.863622e-01 -4.629926e-01 0.000000e+00 9.420932e-01 -3.353511e-01 0.000000e+00 8.391584e-01 -5.438871e-01 0.000000e+00 9.825609e-01 -1.859413e-01 0.000000e+00 2.112141e-01 -9.774398e-01 0.000000e+00 7.002598e-01 -7.138881e-01 0.000000e+00 6.147176e-01 -7.887473e-01 0.000000e+00 6.862591e-01 -7.273572e-01 0.000000e+00 9.896683e-01 -1.433757e-01 0.000000e+00 9.115043e-01 -4.112906e-01 0.000000e+00 8.947366e-01 -4.465942e-01 0.000000e+00 8.578389e-01 -5.139187e-01 0.000000e+00 5.748563e-01 8.182544e-01 0.000000e+00 8.655948e-01 5.007451e-01 0.000000e+00 6.218686e-01 7.831216e-01 0.000000e+00 7.766812e-01 -6.298938e-01 0.000000e+00 9.691815e-01 -2.463478e-01 0.000000e+00 8.068729e-01 -5.907251e-01 0.000000e+00 1.930687e-02 -9.998136e-01 0.000000e+00 7.267682e-01 -6.868829e-01 0.000000e+00 8.266733e-01 5.626822e-01 0.000000e+00 8.113398e-01 -5.845749e-01 0.000000e+00 2.522412e-01 -9.676644e-01 0.000000e+00 9.853023e-01 -1.708197e-01 0.000000e+00 6.183630e-01 -7.858926e-01 0.000000e+00 9.663146e-01 -2.573638e-01 0.000000e+00 9.861951e-01 -1.655874e-01 0.000000e+00 7.628530e-01 -6.465720e-01 0.000000e+00 5.365001e-01 8.439003e-01 0.000000e+00 1.650623e-01 -9.862832e-01 0.000000e+00 1.029254e-01 -9.946891e-01 0.000000e+00 6.564415e-01 -7.543769e-01 0.000000e+00 8.314846e-01 -5.555478e-01 0.000000e+00 9.353153e-01 -3.538152e-01 0.000000e+00 9.899019e-01 -1.417541e-01 0.000000e+00 9.756041e-01 -2.195372e-01 0.000000e+00 8.615991e-01 -5.075894e-01 0.000000e+00 8.950440e-01 -4.459778e-01 0.000000e+00 9.713488e-01 -2.376584e-01 0.000000e+00 4.176122e-02 9.991276e-01 0.000000e+00 7.427185e-01 -6.696038e-01 0.000000e+00 5.492100e-01 -8.356844e-01 0.000000e+00 6.022880e-01 -7.982788e-01 0.000000e+00 6.407789e-01 -7.677255e-01 0.000000e+00 9.124596e-01 -4.091668e-01 0.000000e+00 9.036456e-01 -4.282810e-01 0.000000e+00 9.850284e-01 -1.723922e-01 0.000000e+00 9.383047e-01 -3.458097e-01 0.000000e+00 9.474706e-01 -3.198428e-01 0.000000e+00 3.792235e-01 9.253051e-01 0.000000e+00 6.766469e-01 -7.363076e-01 0.000000e+00 4.350611e-01 -9.004009e-01 0.000000e+00 6.756036e-01 7.372651e-01 0.000000e+00 7.573735e-01 6.529819e-01 0.000000e+00 5.604048e-01 -8.282189e-01 0.000000e+00 8.364445e-01 5.480516e-01 0.000000e+00 9.239807e-01 -3.824392e-01 0.000000e+00 9.684722e-01 -2.491215e-01 0.000000e+00 8.954253e-02 9.959830e-01 0.000000e+00 9.313927e-01 -3.640160e-01 0.000000e+00 5.944846e-01 8.041070e-01 0.000000e+00 8.679106e-01 -4.967205e-01 0.000000e+00 9.112632e-01 -4.118245e-01 0.000000e+00 3.913392e-01 -9.202465e-01 0.000000e+00 9.418038e-01 -3.361630e-01 0.000000e+00 7.054222e-01 7.087873e-01 0.000000e+00 7.487160e-01 6.628909e-01 0.000000e+00 5.136275e-01 -8.580133e-01 0.000000e+00 7.222819e-01 6.915988e-01 0.000000e+00 2.806943e-01 9.597972e-01 0.000000e+00 9.477713e-01 -3.189506e-01 0.000000e+00 7.277564e-01 6.858357e-01 0.000000e+00 6.168505e-01 7.870803e-01 0.000000e+00 6.206329e-01 -7.841013e-01 0.000000e+00 7.839723e-01 -6.207959e-01 0.000000e+00 6.510271e-01 7.590545e-01 0.000000e+00 9.981177e-01 -6.132750e-02 0.000000e+00 9.782632e-01 -2.073670e-01 0.000000e+00 9.938389e-01 -1.108338e-01 0.000000e+00 4.691287e-01 8.831298e-01 0.000000e+00 8.809407e-01 -4.732267e-01 0.000000e+00 8.679669e-01 -4.966221e-01 0.000000e+00 9.639343e-03 -9.999535e-01 0.000000e+00 1.984591e-01 9.801092e-01 0.000000e+00 1.509786e-01 -9.885370e-01 0.000000e+00 9.993199e-01 -3.687413e-02 0.000000e+00 9.537212e-01 -3.006923e-01 0.000000e+00 8.587816e-01 -5.123419e-01 0.000000e+00 4.141190e-01 -9.102228e-01 0.000000e+00 1.344619e-01 -9.909188e-01 0.000000e+00 7.293605e-01 -6.841296e-01 0.000000e+00 6.058564e-01 -7.955740e-01 0.000000e+00 9.036928e-01 -4.281814e-01 0.000000e+00 8.840506e-01 -4.673911e-01 0.000000e+00 1.944903e-01 -9.809044e-01 0.000000e+00 5.400637e-01 -8.416241e-01 0.000000e+00 8.116502e-01 -5.841438e-01 0.000000e+00 9.157914e-01 -4.016542e-01 0.000000e+00 3.639521e-01 -9.314177e-01 0.000000e+00 9.668798e-01 -2.552321e-01 0.000000e+00 9.738490e-01 -2.271964e-01 0.000000e+00 9.732893e-01 -2.295820e-01 0.000000e+00 6.925967e-01 -7.213250e-01 0.000000e+00 8.466253e-01 -5.321894e-01 0.000000e+00 8.699438e-01 -4.931509e-01 0.000000e+00 9.156298e-01 -4.020224e-01 0.000000e+00 9.086611e-01 -4.175344e-01 0.000000e+00 5.823346e-01 8.129492e-01 0.000000e+00 5.025717e-01 -8.645355e-01 0.000000e+00 7.889407e-01 -6.144694e-01 0.000000e+00 4.569790e-01 -8.894775e-01 0.000000e+00 5.062278e-01 -8.623998e-01 0.000000e+00 3.659882e-01 -9.306195e-01 0.000000e+00 3.157810e-01 -9.488321e-01 0.000000e+00 1.505250e-01 9.886062e-01 0.000000e+00 7.487248e-01 -6.628810e-01 0.000000e+00 8.349347e-01 -5.503490e-01 0.000000e+00 7.919606e-01 -6.105722e-01 0.000000e+00 8.695767e-01 -4.937979e-01 0.000000e+00 4.391643e-01 8.984068e-01 0.000000e+00 3.855994e-01 9.226663e-01 0.000000e+00 3.594790e-01 9.331532e-01 0.000000e+00 1.775985e-01 9.841030e-01 0.000000e+00 8.976763e-01 -4.406556e-01 0.000000e+00 7.014942e-01 -7.126752e-01 0.000000e+00 5.289087e-01 -8.486787e-01 0.000000e+00 4.594120e-01 -8.882233e-01 0.000000e+00 8.878766e-01 -4.600817e-01 0.000000e+00 9.563152e-01 -2.923374e-01 0.000000e+00 8.969061e-01 -4.422211e-01 0.000000e+00 2.625298e-01 -9.649239e-01 0.000000e+00 2.692394e-01 -9.630733e-01 0.000000e+00 9.255681e-01 -3.785813e-01 0.000000e+00 8.556598e-01 -5.175386e-01 0.000000e+00 9.776346e-01 -2.103106e-01 0.000000e+00 8.650469e-01 -5.016911e-01 0.000000e+00 9.996637e-01 -2.593188e-02 0.000000e+00 5.967553e-01 -8.024233e-01 0.000000e+00 9.676496e-01 -2.522981e-01 0.000000e+00 4.977931e-01 -8.672958e-01 0.000000e+00 4.852860e-01 -8.743555e-01 0.000000e+00 8.055433e-01 -5.925370e-01 0.000000e+00 3.074541e-01 -9.515629e-01 0.000000e+00 6.618766e-01 7.496128e-01 0.000000e+00 9.968185e-02 -9.950194e-01 0.000000e+00 6.773777e-01 -7.356354e-01 0.000000e+00 7.587157e-01 -6.514218e-01 0.000000e+00 1.195616e-01 -9.928268e-01 0.000000e+00 6.704475e-02 -9.977500e-01 0.000000e+00 7.192522e-01 -6.947491e-01 0.000000e+00 8.036163e-01 -5.951477e-01 0.000000e+00 9.507244e-01 -3.100372e-01 0.000000e+00 7.311298e-01 -6.822384e-01 0.000000e+00 2.067006e-01 -9.784042e-01 0.000000e+00 8.535532e-01 -5.210058e-01 0.000000e+00 9.605681e-01 -2.780447e-01 0.000000e+00 9.127339e-01 -4.085545e-01 0.000000e+00 6.244527e-01 -7.810626e-01 0.000000e+00 7.961187e-01 -6.051405e-01 0.000000e+00 8.782263e-01 -4.782452e-01 0.000000e+00 8.385677e-01 -5.447974e-01 0.000000e+00 8.735178e-01 -4.867921e-01 0.000000e+00 7.677664e-01 -6.407299e-01 0.000000e+00 7.139958e-01 -7.001500e-01 0.000000e+00 3.518506e-01 -9.360562e-01 0.000000e+00 2.298592e-01 -9.732239e-01 0.000000e+00 1.209708e-01 9.926561e-01 0.000000e+00 9.003042e-02 9.959390e-01 0.000000e+00 5.049216e-01 -8.631652e-01 0.000000e+00 4.711219e-01 -8.820681e-01 0.000000e+00 3.388729e-01 -9.408322e-01 0.000000e+00 5.883549e-01 -8.086028e-01 0.000000e+00 8.413447e-01 -5.404990e-01 0.000000e+00 8.386940e-01 -5.446029e-01 0.000000e+00 8.030930e-01 -5.958537e-01 0.000000e+00 2.888739e-01 9.573671e-01 0.000000e+00 5.255002e-02 9.986183e-01 0.000000e+00 6.059982e-01 -7.954660e-01 0.000000e+00 6.775217e-01 -7.355028e-01 0.000000e+00 7.847319e-01 -6.198353e-01 0.000000e+00 2.052679e-01 -9.787058e-01 0.000000e+00 3.177203e-01 9.481845e-01 0.000000e+00 9.014631e-01 -4.328560e-01 0.000000e+00 5.604100e-01 8.282153e-01 0.000000e+00 6.300174e-01 -7.765810e-01 0.000000e+00 6.081933e-01 -7.937890e-01 0.000000e+00 6.134345e-01 -7.897456e-01 0.000000e+00 3.008744e-02 -9.995473e-01 0.000000e+00 7.118024e-01 -7.023798e-01 0.000000e+00 7.732513e-01 -6.340997e-01 0.000000e+00 8.466017e-01 -5.322270e-01 0.000000e+00 2.560700e-01 -9.666582e-01 0.000000e+00 1.647011e-01 -9.863435e-01 0.000000e+00 4.434324e-01 -8.963078e-01 0.000000e+00 8.511618e-01 -5.249035e-01 0.000000e+00 8.320157e-01 -5.547520e-01 0.000000e+00 6.302199e-01 -7.764167e-01 0.000000e+00 4.332296e-01 -9.012836e-01 0.000000e+00 6.880873e-01 -7.256279e-01 0.000000e+00 3.672177e-01 -9.301350e-01 0.000000e+00 6.103551e-01 -7.921279e-01 0.000000e+00 9.542045e-01 -2.991550e-01 0.000000e+00 7.758453e-01 -6.309231e-01 0.000000e+00 9.147507e-02 9.958074e-01 0.000000e+00   </DataArray>
</PointData>
</Piece>
</UnstructuredGrid>
</VTKFile>
