<!-- TimeStep 4 Computed 2021-08-30 at 9:26:11 -->
<VTKFile type="UnstructuredGrid" version="0.1" byte_order="LittleEndian">
<UnstructuredGrid>
<Piece NumberOfPoints="78" NumberOfCells="126">
<Points>
 <DataArray type="Float64" NumberOfComponents="3" format="ascii"> 3.225000e-02 1.380000e-02 0.000000e+00 2.600000e-02 1.380000e-02 0.000000e+00 3.209060e-02 1.520260e-02 0.000000e+00 3.166140e-02 1.644790e-02 0.000000e+00 3.086510e-02 1.772340e-02 0.000000e+00 2.972250e-02 1.882050e-02 0.000000e+00 2.860520e-02 1.948120e-02 0.000000e+00 2.719700e-02 1.993430e-02 0.000000e+00 2.590380e-02 2.004930e-02 0.000000e+00 2.457020e-02 1.988430e-02 0.000000e+00 2.332460e-02 1.944840e-02 0.000000e+00 2.208010e-02 1.866800e-02 0.000000e+00 2.105550e-02 1.762290e-02 0.000000e+00 2.030070e-02 1.636520e-02 0.000000e+00 1.988720e-02 1.510250e-02 0.000000e+00 1.975010e-02 1.376650e-02 0.000000e+00 1.990830e-02 1.240220e-02 0.000000e+00 2.036540e-02 1.109550e-02 0.000000e+00 2.111820e-02 9.897330e-03 0.000000e+00 2.206020e-02 8.948140e-03 0.000000e+00 2.327140e-02 8.177090e-03 0.000000e+00 2.473380e-02 7.679600e-03 0.000000e+00 2.609570e-02 7.550730e-03 0.000000e+00 2.739940e-02 7.708680e-03 0.000000e+00 2.878200e-02 8.203300e-03 0.000000e+00 2.990320e-02 8.918690e-03 0.000000e+00 3.088920e-02 9.906670e-03 0.000000e+00 3.160900e-02 1.104290e-02 0.000000e+00 3.210220e-02 1.244870e-02 0.000000e+00 2.689410e-02 1.574970e-02 0.000000e+00 3.106790e-02 1.432440e-02 0.000000e+00 3.021000e-02 1.633720e-02 0.000000e+00 2.868670e-02 1.830730e-02 0.000000e+00 2.656540e-02 1.903210e-02 0.000000e+00 2.429600e-02 1.840150e-02 0.000000e+00 2.232580e-02 1.734910e-02 0.000000e+00 2.134550e-02 1.546840e-02 0.000000e+00 2.081790e-02 1.316830e-02 0.000000e+00 2.195310e-02 1.090900e-02 0.000000e+00 2.270470e-02 9.754310e-03 0.000000e+00 2.419530e-02 9.293850e-03 0.000000e+00 2.596150e-02 8.901100e-03 0.000000e+00 2.746210e-02 9.203070e-03 0.000000e+00 2.953140e-02 1.029530e-02 0.000000e+00 3.074800e-02 1.222540e-02 0.000000e+00 3.125210e-02 1.326260e-02 0.000000e+00 2.444140e-02 1.534830e-02 0.000000e+00 2.824200e-02 1.402670e-02 0.000000e+00 3.096270e-02 1.549140e-02 0.000000e+00 2.939720e-02 1.737550e-02 0.000000e+00 2.763300e-02 1.864220e-02 0.000000e+00 2.545180e-02 1.869780e-02 0.000000e+00 2.312740e-02 1.819900e-02 0.000000e+00 2.154420e-02 1.657830e-02 0.000000e+00 2.110020e-02 1.424480e-02 0.000000e+00 2.133320e-02 1.208860e-02 0.000000e+00 2.874870e-02 9.422340e-03 0.000000e+00 3.038980e-02 1.108190e-02 0.000000e+00 2.729730e-02 1.228700e-02 0.000000e+00 2.872080e-02 1.592370e-02 0.000000e+00 2.397910e-02 1.338880e-02 0.000000e+00 2.523880e-02 1.708240e-02 0.000000e+00 2.551550e-02 1.212080e-02 0.000000e+00 2.798220e-02 1.720250e-02 0.000000e+00 2.657570e-02 1.763870e-02 0.000000e+00 2.373000e-02 1.698530e-02 0.000000e+00 2.265470e-02 1.460460e-02 0.000000e+00 2.213900e-02 1.328690e-02 0.000000e+00 2.808660e-02 1.066920e-02 0.000000e+00 2.649870e-02 1.061530e-02 0.000000e+00 2.345290e-02 1.070040e-02 0.000000e+00 2.981740e-02 1.494790e-02 0.000000e+00 2.996380e-02 1.344750e-02 0.000000e+00 2.269780e-02 1.602380e-02 0.000000e+00 2.278200e-02 1.202440e-02 0.000000e+00 2.912730e-02 1.205350e-02 0.000000e+00 2.495000e-02 1.058630e-02 0.000000e+00 2.416560e-02 1.177860e-02 0.000000e+00 </DataArray>
</Points>
<Cells>
 <DataArray type="Int32" Name="connectivity" format="ascii"> 0 2 30  3 4 31  5 6 32  7 8 33  9 10 34  11 12 35  13 14 36  15 16 37  17 18 38  18 19 39  38 18 39  19 20 39  20 21 40  21 22 41  40 21 41  22 23 41  23 24 42  25 26 43  27 28 44  28 0 45  44 28 45  0 30 45  1 29 46  29 1 47  2 3 48  4 5 49  6 7 50  8 9 51  10 11 52  12 13 53  14 15 54  16 17 55  41 23 42  20 40 39  24 25 56  26 27 57  47 1 58  29 47 59  2 48 30  1 46 60  31 4 49  32 6 50  33 8 51  34 10 52  35 12 53  36 14 54  37 16 55  42 24 56  46 29 61  48 3 31  49 5 32  50 7 33  51 9 34  52 11 35  53 13 36  54 15 37  55 17 38  58 1 62  1 60 62  57 27 44  56 25 43  26 57 43  49 32 63  32 50 63  50 33 64  63 50 64  33 51 64  51 34 61  34 52 65  61 34 65  52 35 65  66 73 36  36 54 66  54 37 67  66 54 67  37 55 67  42 56 68  41 42 69  42 68 69  38 39 70  69 76 41  39 40 70  56 43 68  29 59 63  60 46 66  31 49 59  63 64 29  46 61 65  48 31 71  30 48 71  31 59 71  59 47 71  59 49 63  51 61 64  30 71 72  71 47 72  35 53 73  67 55 74  55 38 74  38 70 74  43 57 75  47 58 75  60 66 67  35 73 65  57 44 75  75 58 68  43 75 68  60 67 74  68 58 69  69 58 62  30 72 45  75 44 72  72 47 75  53 36 73  46 65 73  70 40 76  45 72 44  60 74 77  66 46 73  77 74 70  60 77 62  61 29 64  77 70 76  40 41 76  62 77 76  76 69 62  </DataArray>
 <DataArray type="Int32" Name="offsets" format="ascii"> 3 6 9 12 15 18 21 24 27 30 33 36 39 42 45 48 51 54 57 60 63 66 69 72 75 78 81 84 87 90 93 96 99 102 105 108 111 114 117 120 123 126 129 132 135 138 141 144 147 150 153 156 159 162 165 168 171 174 177 180 183 186 189 192 195 198 201 204 207 210 213 216 219 222 225 228 231 234 237 240 243 246 249 252 255 258 261 264 267 270 273 276 279 282 285 288 291 294 297 300 303 306 309 312 315 318 321 324 327 330 333 336 339 342 345 348 351 354 357 360 363 366 369 372 375 378 </DataArray>
 <DataArray type="UInt8" Name="types" format="ascii"> 5 5 5 5 5 5 5 5 5 5 5 5 5 5 5 5 5 5 5 5 5 5 5 5 5 5 5 5 5 5 5 5 5 5 5 5 5 5 5 5 5 5 5 5 5 5 5 5 5 5 5 5 5 5 5 5 5 5 5 5 5 5 5 5 5 5 5 5 5 5 5 5 5 5 5 5 5 5 5 5 5 5 5 5 5 5 5 5 5 5 5 5 5 5 5 5 5 5 5 5 5 5 5 5 5 5 5 5 5 5 5 5 5 5 5 5 5 5 5 5 5 5 5 5 5 5 </DataArray>
</Cells>
<PointData Scalars="" Vectors="DisplacementVector " Tensors="IST_StressTensor IST_StrainTensor " >
 <DataArray type="Float64" Name="DisplacementVector" NumberOfComponents="3" format="ascii"> -3.460269e-06 2.688378e-05 0.000000e+00 -3.506070e-06 2.333333e-05 0.000000e+00 -4.365956e-06 2.677029e-05 0.000000e+00 -5.174499e-06 2.647839e-05 0.000000e+00 -6.011232e-06 2.593787e-05 0.000000e+00 -6.744229e-06 2.515526e-05 0.000000e+00 -7.200414e-06 2.437356e-05 0.000000e+00 -7.525798e-06 2.336575e-05 0.000000e+00 -7.623459e-06 2.241744e-05 0.000000e+00 -7.532353e-06 2.141780e-05 0.000000e+00 -7.259408e-06 2.047203e-05 0.000000e+00 -6.758837e-06 1.951087e-05 0.000000e+00 -6.081425e-06 1.870602e-05 0.000000e+00 -5.261684e-06 1.810600e-05 0.000000e+00 -4.432052e-06 1.777668e-05 0.000000e+00 -3.548478e-06 1.767325e-05 0.000000e+00 -2.639226e-06 1.781088e-05 0.000000e+00 -1.758089e-06 1.819115e-05 0.000000e+00 -9.382337e-07 1.880782e-05 0.000000e+00 -2.789421e-07 1.956857e-05 0.000000e+00 2.603125e-07 2.052849e-05 0.000000e+00 5.998723e-07 2.165241e-05 0.000000e+00 6.837092e-07 2.267297e-05 0.000000e+00 5.681825e-07 2.361603e-05 0.000000e+00 2.200969e-07 2.459003e-05 0.000000e+00 -2.682974e-07 2.535448e-05 0.000000e+00 -9.274345e-07 2.601021e-05 0.000000e+00 -1.674111e-06 2.647961e-05 0.000000e+00 -2.587674e-06 2.679489e-05 0.000000e+00 -4.707292e-06 2.351012e-05 0.000000e+00 -3.800758e-06 2.609901e-05 0.000000e+00 -5.095481e-06 2.552044e-05 0.000000e+00 -6.402842e-06 2.447516e-05 0.000000e+00 -6.936752e-06 2.295633e-05 0.000000e+00 -6.572296e-06 2.126930e-05 0.000000e+00 -5.913350e-06 1.973375e-05 0.000000e+00 -4.676704e-06 1.895245e-05 0.000000e+00 -3.131102e-06 1.853952e-05 0.000000e+00 -1.588759e-06 1.948463e-05 0.000000e+00 -8.029478e-07 2.009477e-05 0.000000e+00 -4.771175e-07 2.129023e-05 0.000000e+00 -2.341633e-07 2.262002e-05 0.000000e+00 -4.617699e-07 2.370829e-05 0.000000e+00 -1.205080e-06 2.511730e-05 0.000000e+00 -2.459969e-06 2.590420e-05 0.000000e+00 -3.120231e-06 2.622769e-05 0.000000e+00 -4.637449e-06 2.161297e-05 0.000000e+00 -3.618233e-06 2.430846e-05 0.000000e+00 -4.550177e-06 2.602298e-05 0.000000e+00 -5.775913e-06 2.497080e-05 0.000000e+00 -6.650739e-06 2.373274e-05 0.000000e+00 -6.742588e-06 2.214257e-05 0.000000e+00 -6.458172e-06 2.036051e-05 0.000000e+00 -5.411903e-06 1.910990e-05 0.000000e+00 -3.853609e-06 1.875930e-05 0.000000e+00 -2.393857e-06 1.896895e-05 0.000000e+00 -6.188549e-07 2.459414e-05 0.000000e+00 -1.718150e-06 2.567956e-05 0.000000e+00 -2.576014e-06 2.378869e-05 0.000000e+00 -4.820611e-06 2.456794e-05 0.000000e+00 -3.209809e-06 2.120441e-05 0.000000e+00 -5.693108e-06 2.208010e-05 0.000000e+00 -2.350299e-06 2.258580e-05 0.000000e+00 -5.660374e-06 2.406254e-05 0.000000e+00 -6.012744e-06 2.306236e-05 0.000000e+00 -5.677308e-06 2.090334e-05 0.000000e+00 -4.090572e-06 2.004219e-05 0.000000e+00 -3.184486e-06 1.962270e-05 0.000000e+00 -1.472888e-06 2.419686e-05 0.000000e+00 -1.406903e-06 2.311134e-05 0.000000e+00 -1.417730e-06 2.072058e-05 0.000000e+00 -4.197764e-06 2.528160e-05 0.000000e+00 -3.248172e-06 2.538700e-05 0.000000e+00 -5.062637e-06 2.006745e-05 0.000000e+00 -2.311780e-06 2.017238e-05 0.000000e+00 -2.381986e-06 2.486346e-05 0.000000e+00 -1.335459e-06 2.195533e-05 0.000000e+00 -2.121135e-06 2.134418e-05 0.000000e+00 </DataArray>
 <DataArray type="Float64" Name="IST_StressTensor" NumberOfComponents="9" format="ascii"> 5.341900e-01 1.357015e+00 0.000000e+00 1.357015e+00 -1.145796e+00 0.000000e+00 0.000000e+00 0.000000e+00 0.000000e+00 1.154943e+00 5.967502e+00 0.000000e+00 5.967502e+00 -3.674732e+00 0.000000e+00 0.000000e+00 0.000000e+00 0.000000e+00 -5.753035e-01 1.220656e+00 0.000000e+00 1.220656e+00 -1.424865e+00 0.000000e+00 0.000000e+00 0.000000e+00 0.000000e+00 -1.542233e+00 5.833041e-01 0.000000e+00 5.833041e-01 -2.247820e+00 0.000000e+00 0.000000e+00 0.000000e+00 0.000000e+00 -1.797434e+00 -2.811203e-02 0.000000e+00 -2.811203e-02 -3.688565e+00 0.000000e+00 0.000000e+00 0.000000e+00 0.000000e+00 -1.411138e+00 -3.320002e-01 0.000000e+00 -3.320002e-01 -6.079998e+00 0.000000e+00 0.000000e+00 0.000000e+00 0.000000e+00 2.410858e-01 1.172813e+00 0.000000e+00 1.172813e+00 -8.850313e+00 0.000000e+00 0.000000e+00 0.000000e+00 0.000000e+00 7.158683e-01 3.478759e+00 0.000000e+00 3.478759e+00 -1.011164e+01 0.000000e+00 0.000000e+00 0.000000e+00 0.000000e+00 5.180709e-01 6.842329e+00 0.000000e+00 6.842329e+00 -1.036539e+01 0.000000e+00 0.000000e+00 0.000000e+00 0.000000e+00 -1.335101e-02 9.155069e+00 0.000000e+00 9.155069e+00 -9.391294e+00 0.000000e+00 0.000000e+00 0.000000e+00 0.000000e+00 -9.585950e-01 1.120675e+01 0.000000e+00 1.120675e+01 -8.320294e+00 0.000000e+00 0.000000e+00 0.000000e+00 0.000000e+00 -2.253136e+00 1.287699e+01 0.000000e+00 1.287699e+01 -5.883716e+00 0.000000e+00 0.000000e+00 0.000000e+00 0.000000e+00 -2.618944e+00 1.316157e+01 0.000000e+00 1.316157e+01 -3.433937e+00 0.000000e+00 0.000000e+00 0.000000e+00 0.000000e+00 -1.876520e+00 1.240480e+01 0.000000e+00 1.240480e+01 -1.569566e+00 0.000000e+00 0.000000e+00 0.000000e+00 0.000000e+00 2.179017e-01 1.156556e+01 0.000000e+00 1.156556e+01 -8.334821e-01 0.000000e+00 0.000000e+00 0.000000e+00 0.000000e+00 2.551924e+00 1.132859e+01 0.000000e+00 1.132859e+01 -6.141035e-01 0.000000e+00 0.000000e+00 0.000000e+00 0.000000e+00 4.776723e+00 1.154054e+01 0.000000e+00 1.154054e+01 -3.362598e-01 0.000000e+00 0.000000e+00 0.000000e+00 0.000000e+00 5.879326e+00 1.183626e+01 0.000000e+00 1.183626e+01 3.701068e-01 0.000000e+00 0.000000e+00 0.000000e+00 0.000000e+00 6.067810e+00 1.178214e+01 0.000000e+00 1.178214e+01 1.790708e+00 0.000000e+00 0.000000e+00 0.000000e+00 0.000000e+00 5.843701e+00 1.111923e+01 0.000000e+00 1.111923e+01 3.528630e+00 0.000000e+00 0.000000e+00 0.000000e+00 0.000000e+00 4.280740e+00 1.035115e+01 0.000000e+00 1.035115e+01 5.933253e+00 0.000000e+00 0.000000e+00 0.000000e+00 0.000000e+00 1.462101e+00 7.486355e+00 0.000000e+00 7.486355e+00 7.386895e+00 0.000000e+00 0.000000e+00 0.000000e+00 0.000000e+00 1.320270e+00 4.532659e+00 0.000000e+00 4.532659e+00 7.528703e+00 0.000000e+00 0.000000e+00 0.000000e+00 0.000000e+00 2.823170e-01 1.933446e+00 0.000000e+00 1.933446e+00 6.837951e+00 0.000000e+00 0.000000e+00 0.000000e+00 0.000000e+00 1.196541e+00 -4.177978e-01 0.000000e+00 -4.177978e-01 5.873848e+00 0.000000e+00 0.000000e+00 0.000000e+00 0.000000e+00 2.471687e+00 -1.494690e+00 0.000000e+00 -1.494690e+00 3.013141e+00 0.000000e+00 0.000000e+00 0.000000e+00 0.000000e+00 3.002280e+00 -1.076728e+00 0.000000e+00 -1.076728e+00 1.053810e+00 0.000000e+00 0.000000e+00 0.000000e+00 0.000000e+00 2.911641e+00 -6.494033e-02 0.000000e+00 -6.494033e-02 -4.289824e-01 0.000000e+00 0.000000e+00 0.000000e+00 0.000000e+00 2.089742e+00 8.847503e-01 0.000000e+00 8.847503e-01 -8.934424e-01 0.000000e+00 0.000000e+00 0.000000e+00 0.000000e+00 5.214085e-01 1.544965e+00 0.000000e+00 1.544965e+00 -2.545079e+01 0.000000e+00 0.000000e+00 0.000000e+00 0.000000e+00 -3.434060e-02 1.244021e+00 0.000000e+00 1.244021e+00 -1.386571e+00 0.000000e+00 0.000000e+00 0.000000e+00 0.000000e+00 -1.759004e+00 7.937332e-02 0.000000e+00 7.937332e-02 -3.217337e+00 0.000000e+00 0.000000e+00 0.000000e+00 0.000000e+00 -6.645594e-01 -3.126144e-01 0.000000e+00 -3.126144e-01 -8.765143e+00 0.000000e+00 0.000000e+00 0.000000e+00 0.000000e+00 1.268007e+00 5.193490e+00 0.000000e+00 5.193490e+00 -1.187924e+01 0.000000e+00 0.000000e+00 0.000000e+00 0.000000e+00 7.633118e-01 1.060670e+01 0.000000e+00 1.060670e+01 -1.017100e+01 0.000000e+00 0.000000e+00 0.000000e+00 0.000000e+00 -2.049272e+00 1.392738e+01 0.000000e+00 1.392738e+01 -5.150627e+00 0.000000e+00 0.000000e+00 0.000000e+00 0.000000e+00 -1.204173e+00 1.201718e+01 0.000000e+00 1.201718e+01 -1.501816e+00 0.000000e+00 0.000000e+00 0.000000e+00 0.000000e+00 3.877583e+00 1.142176e+01 0.000000e+00 1.142176e+01 -6.394134e-01 0.000000e+00 0.000000e+00 0.000000e+00 0.000000e+00 5.830091e+00 1.240679e+01 0.000000e+00 1.240679e+01 1.683046e+00 0.000000e+00 0.000000e+00 0.000000e+00 0.000000e+00 5.167376e+00 1.164171e+01 0.000000e+00 1.164171e+01 3.789955e+00 0.000000e+00 0.000000e+00 0.000000e+00 0.000000e+00 2.683328e+00 9.958474e+00 0.000000e+00 9.958474e+00 8.076906e+00 0.000000e+00 0.000000e+00 0.000000e+00 0.000000e+00 -5.462825e-02 5.279695e+00 0.000000e+00 5.279695e+00 9.543417e+00 0.000000e+00 0.000000e+00 0.000000e+00 0.000000e+00 2.809379e-01 9.103612e-01 0.000000e+00 9.103612e-01 8.584982e+00 0.000000e+00 0.000000e+00 0.000000e+00 0.000000e+00 3.063544e+00 -1.767461e+00 0.000000e+00 -1.767461e+00 2.258849e+00 0.000000e+00 0.000000e+00 0.000000e+00 0.000000e+00 3.002325e+00 4.012122e-01 0.000000e+00 4.012122e-01 -6.759043e-01 0.000000e+00 0.000000e+00 0.000000e+00 0.000000e+00 1.292416e+00 1.203057e+00 0.000000e+00 1.203057e+00 -1.060638e+00 0.000000e+00 0.000000e+00 0.000000e+00 0.000000e+00 7.391265e-02 1.600076e+01 0.000000e+00 1.600076e+01 -2.013053e+01 0.000000e+00 0.000000e+00 0.000000e+00 0.000000e+00 8.998549e-01 -6.052605e+00 0.000000e+00 -6.052605e+00 -3.540317e+00 0.000000e+00 0.000000e+00 0.000000e+00 0.000000e+00 -1.139594e+00 9.007835e-01 0.000000e+00 9.007835e-01 -1.938823e+00 0.000000e+00 0.000000e+00 0.000000e+00 0.000000e+00 -1.877710e+00 -7.178226e-01 0.000000e+00 -7.178226e-01 -5.394830e+00 0.000000e+00 0.000000e+00 0.000000e+00 0.000000e+00 1.821011e+00 1.818115e+00 0.000000e+00 1.818115e+00 -1.103779e+01 0.000000e+00 0.000000e+00 0.000000e+00 0.000000e+00 1.340047e+00 8.349869e+00 0.000000e+00 8.349869e+00 -1.130802e+01 0.000000e+00 0.000000e+00 0.000000e+00 0.000000e+00 -1.264357e+00 1.269989e+01 0.000000e+00 1.269989e+01 -8.305607e+00 0.000000e+00 0.000000e+00 0.000000e+00 0.000000e+00 -2.775477e+00 1.318140e+01 0.000000e+00 1.318140e+01 -2.838306e+00 0.000000e+00 0.000000e+00 0.000000e+00 0.000000e+00 1.469331e+00 1.139944e+01 0.000000e+00 1.139944e+01 -9.540789e-01 0.000000e+00 0.000000e+00 0.000000e+00 0.000000e+00 5.344948e+00 1.204388e+01 0.000000e+00 1.204388e+01 -5.566241e-02 0.000000e+00 0.000000e+00 0.000000e+00 0.000000e+00 2.087474e+00 -1.328334e+00 0.000000e+00 -1.328334e+00 5.677508e+00 0.000000e+00 0.000000e+00 0.000000e+00 0.000000e+00 3.465086e+00 -7.991128e-01 0.000000e+00 -7.991128e-01 5.379583e-01 0.000000e+00 0.000000e+00 0.000000e+00 0.000000e+00 2.784433e+00 -4.686736e+00 0.000000e+00 -4.686736e+00 1.794118e+01 0.000000e+00 0.000000e+00 0.000000e+00 0.000000e+00 -1.879562e+00 -2.384706e+00 0.000000e+00 -2.384706e+00 -5.597516e+00 0.000000e+00 0.000000e+00 0.000000e+00 0.000000e+00 2.864198e+00 1.900414e+01 0.000000e+00 1.900414e+01 4.714244e+00 0.000000e+00 0.000000e+00 0.000000e+00 0.000000e+00 4.524672e+00 1.050166e+01 0.000000e+00 1.050166e+01 -1.588359e+01 0.000000e+00 0.000000e+00 0.000000e+00 0.000000e+00 1.847892e+00 1.164757e+01 0.000000e+00 1.164757e+01 2.763145e+01 0.000000e+00 0.000000e+00 0.000000e+00 0.000000e+00 -6.080989e-01 -1.673928e+00 0.000000e+00 -1.673928e+00 -1.383559e+01 0.000000e+00 0.000000e+00 0.000000e+00 0.000000e+00 2.318771e+00 4.420575e+00 0.000000e+00 4.420575e+00 -1.745903e+01 0.000000e+00 0.000000e+00 0.000000e+00 0.000000e+00 -7.913222e-01 1.420723e+01 0.000000e+00 1.420723e+01 -1.208960e+01 0.000000e+00 0.000000e+00 0.000000e+00 0.000000e+00 -3.747361e-01 1.284253e+01 0.000000e+00 1.284253e+01 -1.661763e+00 0.000000e+00 0.000000e+00 0.000000e+00 0.000000e+00 4.228866e+00 1.261658e+01 0.000000e+00 1.261658e+01 -4.958036e-01 0.000000e+00 0.000000e+00 0.000000e+00 0.000000e+00 2.774058e+00 -2.320807e+00 0.000000e+00 -2.320807e+00 9.058768e+00 0.000000e+00 0.000000e+00 0.000000e+00 0.000000e+00 -1.930453e+00 2.472784e+00 0.000000e+00 2.472784e+00 1.560000e+01 0.000000e+00 0.000000e+00 0.000000e+00 0.000000e+00 4.578455e+00 1.321591e+01 0.000000e+00 1.321591e+01 5.437501e+00 0.000000e+00 0.000000e+00 0.000000e+00 0.000000e+00 -8.131702e-01 1.060157e-01 0.000000e+00 1.060157e-01 -2.757213e+00 0.000000e+00 0.000000e+00 0.000000e+00 0.000000e+00 1.166067e+00 4.564194e-01 0.000000e+00 4.564194e-01 -9.840342e-01 0.000000e+00 0.000000e+00 0.000000e+00 0.000000e+00 -3.427205e+00 1.509120e+01 0.000000e+00 1.509120e+01 -5.620814e+00 0.000000e+00 0.000000e+00 0.000000e+00 0.000000e+00 5.482619e+00 1.371311e+01 0.000000e+00 1.371311e+01 2.403911e+00 0.000000e+00 0.000000e+00 0.000000e+00 0.000000e+00 4.078013e+00 -1.948087e+00 0.000000e+00 -1.948087e+00 1.469527e+00 0.000000e+00 0.000000e+00 0.000000e+00 0.000000e+00 1.589169e+00 1.078526e+01 0.000000e+00 1.078526e+01 1.482524e+01 0.000000e+00 0.000000e+00 0.000000e+00 0.000000e+00 4.040223e+00 1.642211e+01 0.000000e+00 1.642211e+01 7.695288e+00 0.000000e+00 0.000000e+00 0.000000e+00 0.000000e+00 </DataArray>
 <DataArray type="Float64" Name="IST_StrainTensor" NumberOfComponents="9" format="ascii"> 4.180613e-06 8.400570e-06 0.000000e+00 8.400570e-06 -6.219299e-06 0.000000e+00 0.000000e+00 0.000000e+00 0.000000e+00 1.074935e-05 3.694168e-05 0.000000e+00 3.694168e-05 -1.914864e-05 0.000000e+00 0.000000e+00 0.000000e+00 0.000000e+00 -7.040186e-07 7.556440e-06 0.000000e+00 7.556440e-06 -5.963210e-06 0.000000e+00 0.000000e+00 0.000000e+00 0.000000e+00 -4.132797e-06 3.610930e-06 0.000000e+00 3.610930e-06 -8.500714e-06 0.000000e+00 0.000000e+00 0.000000e+00 0.000000e+00 -3.289833e-06 -1.740269e-07 0.000000e+00 -1.740269e-07 -1.499683e-05 0.000000e+00 0.000000e+00 0.000000e+00 0.000000e+00 1.966005e-06 -2.055239e-06 0.000000e+00 -2.055239e-06 -2.693646e-05 0.000000e+00 0.000000e+00 0.000000e+00 0.000000e+00 1.379133e-05 7.260269e-06 0.000000e+00 7.260269e-06 -4.248875e-05 0.000000e+00 0.000000e+00 0.000000e+00 0.000000e+00 1.785410e-05 2.153518e-05 0.000000e+00 2.153518e-05 -4.917335e-05 0.000000e+00 0.000000e+00 0.000000e+00 0.000000e+00 1.727470e-05 4.235728e-05 0.000000e+00 4.235728e-05 -5.009910e-05 0.000000e+00 0.000000e+00 0.000000e+00 0.000000e+00 1.335256e-05 5.667424e-05 0.000000e+00 5.667424e-05 -4.470138e-05 0.000000e+00 0.000000e+00 0.000000e+00 0.000000e+00 7.321396e-06 6.937511e-05 0.000000e+00 6.937511e-05 -3.825103e-05 0.000000e+00 0.000000e+00 0.000000e+00 0.000000e+00 -2.323909e-06 7.971471e-05 0.000000e+00 7.971471e-05 -2.479893e-05 0.000000e+00 0.000000e+00 0.000000e+00 0.000000e+00 -7.565537e-06 8.147640e-05 0.000000e+00 8.147640e-05 -1.261073e-05 0.000000e+00 0.000000e+00 0.000000e+00 0.000000e+00 -6.693571e-06 7.679162e-05 0.000000e+00 7.679162e-05 -4.793383e-06 0.000000e+00 0.000000e+00 0.000000e+00 0.000000e+00 2.228316e-06 7.159633e-05 0.000000e+00 7.159633e-05 -4.280250e-06 0.000000e+00 0.000000e+00 0.000000e+00 0.000000e+00 1.302931e-05 7.012936e-05 0.000000e+00 7.012936e-05 -6.569908e-06 0.000000e+00 0.000000e+00 0.000000e+00 0.000000e+00 2.322667e-05 7.144145e-05 0.000000e+00 7.144145e-05 -8.425127e-06 0.000000e+00 0.000000e+00 0.000000e+00 0.000000e+00 2.746807e-05 7.327206e-05 0.000000e+00 7.327206e-05 -6.636624e-06 0.000000e+00 0.000000e+00 0.000000e+00 0.000000e+00 2.633618e-05 7.293704e-05 0.000000e+00 7.293704e-05 -1.411174e-07 0.000000e+00 0.000000e+00 0.000000e+00 0.000000e+00 2.278625e-05 6.883332e-05 0.000000e+00 6.883332e-05 8.454858e-06 0.000000e+00 0.000000e+00 0.000000e+00 0.000000e+00 1.190840e-05 6.407857e-05 0.000000e+00 6.407857e-05 2.213824e-05 0.000000e+00 0.000000e+00 0.000000e+00 0.000000e+00 -3.590320e-06 4.634410e-05 0.000000e+00 4.634410e-05 3.308697e-05 0.000000e+00 0.000000e+00 0.000000e+00 0.000000e+00 -4.468291e-06 2.805932e-05 0.000000e+00 2.805932e-05 3.396487e-05 0.000000e+00 0.000000e+00 0.000000e+00 0.000000e+00 -8.424134e-06 1.196895e-05 0.000000e+00 1.196895e-05 3.215836e-05 0.000000e+00 0.000000e+00 0.000000e+00 0.000000e+00 -2.693397e-06 -2.586367e-06 0.000000e+00 -2.586367e-06 2.626136e-05 0.000000e+00 0.000000e+00 0.000000e+00 0.000000e+00 7.465452e-06 -9.252841e-06 0.000000e+00 -9.252841e-06 1.081731e-05 0.000000e+00 0.000000e+00 0.000000e+00 0.000000e+00 1.279113e-05 -6.665462e-06 0.000000e+00 -6.665462e-06 7.291728e-07 0.000000e+00 0.000000e+00 0.000000e+00 0.000000e+00 1.447779e-05 -4.020116e-07 0.000000e+00 -4.020116e-07 -6.202261e-06 0.000000e+00 0.000000e+00 0.000000e+00 0.000000e+00 1.122750e-05 5.477026e-06 0.000000e+00 5.477026e-06 -7.239834e-06 0.000000e+00 0.000000e+00 0.000000e+00 0.000000e+00 3.884117e-05 9.564067e-06 0.000000e+00 9.564067e-06 -1.219391e-04 0.000000e+00 0.000000e+00 0.000000e+00 0.000000e+00 1.817289e-06 7.701084e-06 0.000000e+00 7.701084e-06 -6.553660e-06 0.000000e+00 0.000000e+00 0.000000e+00 0.000000e+00 -3.780017e-06 4.913586e-07 0.000000e+00 4.913586e-07 -1.280779e-05 0.000000e+00 0.000000e+00 0.000000e+00 0.000000e+00 9.357064e-06 -1.935232e-06 0.000000e+00 -1.935232e-06 -4.078940e-05 0.000000e+00 0.000000e+00 0.000000e+00 0.000000e+00 2.300847e-05 3.215018e-05 0.000000e+00 3.215018e-05 -5.837925e-05 0.000000e+00 0.000000e+00 0.000000e+00 0.000000e+00 1.816482e-05 6.566052e-05 0.000000e+00 6.566052e-05 -4.952378e-05 0.000000e+00 0.000000e+00 0.000000e+00 0.000000e+00 -2.400399e-06 8.621714e-05 0.000000e+00 8.621714e-05 -2.159926e-05 0.000000e+00 0.000000e+00 0.000000e+00 0.000000e+00 -3.588706e-06 7.439204e-05 0.000000e+00 7.439204e-05 -5.431257e-06 0.000000e+00 0.000000e+00 0.000000e+00 0.000000e+00 1.937813e-05 7.070612e-05 0.000000e+00 7.070612e-05 -8.584230e-06 0.000000e+00 0.000000e+00 0.000000e+00 0.000000e+00 2.535799e-05 7.680392e-05 0.000000e+00 7.680392e-05 -3.141973e-07 0.000000e+00 0.000000e+00 0.000000e+00 0.000000e+00 1.919233e-05 7.206774e-05 0.000000e+00 7.206774e-05 1.066544e-05 0.000000e+00 0.000000e+00 0.000000e+00 0.000000e+00 1.239313e-06 6.164770e-05 0.000000e+00 6.164770e-05 3.462813e-05 0.000000e+00 0.000000e+00 0.000000e+00 0.000000e+00 -1.389359e-05 3.268383e-05 0.000000e+00 3.268383e-05 4.552288e-05 0.000000e+00 0.000000e+00 0.000000e+00 0.000000e+00 -1.092646e-05 5.635570e-06 0.000000e+00 5.635570e-06 4.047953e-05 0.000000e+00 0.000000e+00 0.000000e+00 0.000000e+00 1.136138e-05 -1.094143e-05 0.000000e+00 -1.094143e-05 6.379935e-06 0.000000e+00 0.000000e+00 0.000000e+00 0.000000e+00 1.526237e-05 2.483695e-06 0.000000e+00 2.483695e-06 -7.507628e-06 0.000000e+00 0.000000e+00 0.000000e+00 0.000000e+00 7.669561e-06 7.447497e-06 0.000000e+00 7.447497e-06 -6.896965e-06 0.000000e+00 0.000000e+00 0.000000e+00 0.000000e+00 2.910986e-05 9.905231e-05 0.000000e+00 9.905231e-05 -9.596524e-05 0.000000e+00 0.000000e+00 0.000000e+00 0.000000e+00 9.342618e-06 -3.746851e-05 0.000000e+00 -3.746851e-05 -1.814416e-05 0.000000e+00 0.000000e+00 0.000000e+00 0.000000e+00 -2.656892e-06 5.576279e-06 0.000000e+00 5.576279e-06 -7.604501e-06 0.000000e+00 0.000000e+00 0.000000e+00 0.000000e+00 -1.234579e-06 -4.443664e-06 0.000000e+00 -4.443664e-06 -2.300722e-05 0.000000e+00 0.000000e+00 0.000000e+00 0.000000e+00 2.443976e-05 1.125500e-05 0.000000e+00 1.125500e-05 -5.516237e-05 0.000000e+00 0.000000e+00 0.000000e+00 0.000000e+00 2.253549e-05 5.168966e-05 0.000000e+00 5.168966e-05 -5.576207e-05 0.000000e+00 0.000000e+00 0.000000e+00 0.000000e+00 5.844407e-06 7.861839e-05 0.000000e+00 7.861839e-05 -3.774428e-05 0.000000e+00 0.000000e+00 0.000000e+00 0.000000e+00 -9.161832e-06 8.159916e-05 0.000000e+00 8.159916e-05 -9.550778e-06 0.000000e+00 0.000000e+00 0.000000e+00 0.000000e+00 8.359785e-06 7.056794e-05 0.000000e+00 7.056794e-05 -6.642278e-06 0.000000e+00 0.000000e+00 0.000000e+00 0.000000e+00 2.553165e-05 7.455735e-05 0.000000e+00 7.455735e-05 -7.900699e-06 0.000000e+00 0.000000e+00 0.000000e+00 0.000000e+00 1.829629e-06 -8.223020e-06 0.000000e+00 -8.223020e-06 2.405364e-05 0.000000e+00 0.000000e+00 0.000000e+00 0.000000e+00 1.573190e-05 -4.946889e-06 0.000000e+00 -4.946889e-06 -2.388417e-06 0.000000e+00 0.000000e+00 0.000000e+00 0.000000e+00 -1.237104e-05 -2.901313e-05 0.000000e+00 -2.901313e-05 8.145641e-05 0.000000e+00 0.000000e+00 0.000000e+00 0.000000e+00 -9.538430e-07 -1.476247e-05 0.000000e+00 -1.476247e-05 -2.396975e-05 0.000000e+00 0.000000e+00 0.000000e+00 0.000000e+00 6.904406e-06 1.176447e-04 0.000000e+00 1.176447e-04 1.835707e-05 0.000000e+00 0.000000e+00 0.000000e+00 0.000000e+00 4.423690e-05 6.501027e-05 0.000000e+00 6.501027e-05 -8.209997e-05 0.000000e+00 0.000000e+00 0.000000e+00 0.000000e+00 -3.067401e-05 7.210401e-05 0.000000e+00 7.210401e-05 1.289385e-04 0.000000e+00 0.000000e+00 0.000000e+00 0.000000e+00 1.686941e-05 -1.036241e-05 0.000000e+00 -1.036241e-05 -6.501503e-05 0.000000e+00 0.000000e+00 0.000000e+00 0.000000e+00 3.598323e-05 2.736546e-05 0.000000e+00 2.736546e-05 -8.645075e-05 0.000000e+00 0.000000e+00 0.000000e+00 0.000000e+00 1.350265e-05 8.794950e-05 0.000000e+00 8.794950e-05 -5.643905e-05 0.000000e+00 0.000000e+00 0.000000e+00 0.000000e+00 5.894888e-07 7.950135e-05 0.000000e+00 7.950135e-05 -7.377818e-06 0.000000e+00 0.000000e+00 0.000000e+00 0.000000e+00 2.084575e-05 7.810261e-05 0.000000e+00 7.810261e-05 -8.402207e-06 0.000000e+00 0.000000e+00 0.000000e+00 0.000000e+00 2.687021e-07 -1.436690e-05 0.000000e+00 -1.436690e-05 3.917405e-05 0.000000e+00 0.000000e+00 0.000000e+00 0.000000e+00 -3.147835e-05 1.530771e-05 0.000000e+00 1.530771e-05 7.704352e-05 0.000000e+00 0.000000e+00 0.000000e+00 0.000000e+00 1.403431e-05 8.181278e-05 0.000000e+00 8.181278e-05 1.935221e-05 0.000000e+00 0.000000e+00 0.000000e+00 0.000000e+00 6.663709e-08 6.562880e-07 0.000000e+00 6.562880e-07 -1.196792e-05 0.000000e+00 0.000000e+00 0.000000e+00 0.000000e+00 6.958463e-06 2.825453e-06 0.000000e+00 2.825453e-06 -6.351687e-06 0.000000e+00 0.000000e+00 0.000000e+00 0.000000e+00 -8.290291e-06 9.342168e-05 0.000000e+00 9.342168e-05 -2.186977e-05 0.000000e+00 0.000000e+00 0.000000e+00 0.000000e+00 2.267355e-05 8.489069e-05 0.000000e+00 8.489069e-05 3.614883e-06 0.000000e+00 0.000000e+00 0.000000e+00 0.000000e+00 1.731979e-05 -1.205958e-05 0.000000e+00 -1.205958e-05 1.172014e-06 0.000000e+00 0.000000e+00 0.000000e+00 0.000000e+00 -1.361145e-05 6.676590e-05 0.000000e+00 6.676590e-05 6.832615e-05 0.000000e+00 0.000000e+00 0.000000e+00 0.000000e+00 8.245887e-06 1.016607e-04 0.000000e+00 1.016607e-04 3.087248e-05 0.000000e+00 0.000000e+00 0.000000e+00 0.000000e+00 </DataArray>
</PointData>
<CellData Scalars="" Vectors="" Tensors="" >
</CellData>
</Piece>
</UnstructuredGrid>
</VTKFile>