<!-- TimeStep 6 Computed 2021-08-30 at 9:26:11 -->
<VTKFile type="UnstructuredGrid" version="0.1" byte_order="LittleEndian">
<UnstructuredGrid>
<Piece NumberOfPoints="78" NumberOfCells="126">
<Points>
 <DataArray type="Float64" NumberOfComponents="3" format="ascii"> 3.225000e-02 1.380000e-02 0.000000e+00 2.600000e-02 1.380000e-02 0.000000e+00 3.209060e-02 1.520260e-02 0.000000e+00 3.166140e-02 1.644790e-02 0.000000e+00 3.086510e-02 1.772340e-02 0.000000e+00 2.972250e-02 1.882050e-02 0.000000e+00 2.860520e-02 1.948120e-02 0.000000e+00 2.719700e-02 1.993430e-02 0.000000e+00 2.590380e-02 2.004930e-02 0.000000e+00 2.457020e-02 1.988430e-02 0.000000e+00 2.332460e-02 1.944840e-02 0.000000e+00 2.208010e-02 1.866800e-02 0.000000e+00 2.105550e-02 1.762290e-02 0.000000e+00 2.030070e-02 1.636520e-02 0.000000e+00 1.988720e-02 1.510250e-02 0.000000e+00 1.975010e-02 1.376650e-02 0.000000e+00 1.990830e-02 1.240220e-02 0.000000e+00 2.036540e-02 1.109550e-02 0.000000e+00 2.111820e-02 9.897330e-03 0.000000e+00 2.206020e-02 8.948140e-03 0.000000e+00 2.327140e-02 8.177090e-03 0.000000e+00 2.473380e-02 7.679600e-03 0.000000e+00 2.609570e-02 7.550730e-03 0.000000e+00 2.739940e-02 7.708680e-03 0.000000e+00 2.878200e-02 8.203300e-03 0.000000e+00 2.990320e-02 8.918690e-03 0.000000e+00 3.088920e-02 9.906670e-03 0.000000e+00 3.160900e-02 1.104290e-02 0.000000e+00 3.210220e-02 1.244870e-02 0.000000e+00 2.689410e-02 1.574970e-02 0.000000e+00 3.106790e-02 1.432440e-02 0.000000e+00 3.021000e-02 1.633720e-02 0.000000e+00 2.868670e-02 1.830730e-02 0.000000e+00 2.656540e-02 1.903210e-02 0.000000e+00 2.429600e-02 1.840150e-02 0.000000e+00 2.232580e-02 1.734910e-02 0.000000e+00 2.134550e-02 1.546840e-02 0.000000e+00 2.081790e-02 1.316830e-02 0.000000e+00 2.195310e-02 1.090900e-02 0.000000e+00 2.270470e-02 9.754310e-03 0.000000e+00 2.419530e-02 9.293850e-03 0.000000e+00 2.596150e-02 8.901100e-03 0.000000e+00 2.746210e-02 9.203070e-03 0.000000e+00 2.953140e-02 1.029530e-02 0.000000e+00 3.074800e-02 1.222540e-02 0.000000e+00 3.125210e-02 1.326260e-02 0.000000e+00 2.444140e-02 1.534830e-02 0.000000e+00 2.824200e-02 1.402670e-02 0.000000e+00 3.096270e-02 1.549140e-02 0.000000e+00 2.939720e-02 1.737550e-02 0.000000e+00 2.763300e-02 1.864220e-02 0.000000e+00 2.545180e-02 1.869780e-02 0.000000e+00 2.312740e-02 1.819900e-02 0.000000e+00 2.154420e-02 1.657830e-02 0.000000e+00 2.110020e-02 1.424480e-02 0.000000e+00 2.133320e-02 1.208860e-02 0.000000e+00 2.874870e-02 9.422340e-03 0.000000e+00 3.038980e-02 1.108190e-02 0.000000e+00 2.729730e-02 1.228700e-02 0.000000e+00 2.872080e-02 1.592370e-02 0.000000e+00 2.397910e-02 1.338880e-02 0.000000e+00 2.523880e-02 1.708240e-02 0.000000e+00 2.551550e-02 1.212080e-02 0.000000e+00 2.798220e-02 1.720250e-02 0.000000e+00 2.657570e-02 1.763870e-02 0.000000e+00 2.373000e-02 1.698530e-02 0.000000e+00 2.265470e-02 1.460460e-02 0.000000e+00 2.213900e-02 1.328690e-02 0.000000e+00 2.808660e-02 1.066920e-02 0.000000e+00 2.649870e-02 1.061530e-02 0.000000e+00 2.345290e-02 1.070040e-02 0.000000e+00 2.981740e-02 1.494790e-02 0.000000e+00 2.996380e-02 1.344750e-02 0.000000e+00 2.269780e-02 1.602380e-02 0.000000e+00 2.278200e-02 1.202440e-02 0.000000e+00 2.912730e-02 1.205350e-02 0.000000e+00 2.495000e-02 1.058630e-02 0.000000e+00 2.416560e-02 1.177860e-02 0.000000e+00 </DataArray>
</Points>
<Cells>
 <DataArray type="Int32" Name="connectivity" format="ascii"> 0 2 30  3 4 31  5 6 32  7 8 33  9 10 34  11 12 35  13 14 36  15 16 37  17 18 38  18 19 39  38 18 39  19 20 39  20 21 40  21 22 41  40 21 41  22 23 41  23 24 42  25 26 43  27 28 44  28 0 45  44 28 45  0 30 45  1 29 46  29 1 47  2 3 48  4 5 49  6 7 50  8 9 51  10 11 52  12 13 53  14 15 54  16 17 55  41 23 42  20 40 39  24 25 56  26 27 57  47 1 58  29 47 59  2 48 30  1 46 60  31 4 49  32 6 50  33 8 51  34 10 52  35 12 53  36 14 54  37 16 55  42 24 56  46 29 61  48 3 31  49 5 32  50 7 33  51 9 34  52 11 35  53 13 36  54 15 37  55 17 38  58 1 62  1 60 62  57 27 44  56 25 43  26 57 43  49 32 63  32 50 63  50 33 64  63 50 64  33 51 64  51 34 61  34 52 65  61 34 65  52 35 65  66 73 36  36 54 66  54 37 67  66 54 67  37 55 67  42 56 68  41 42 69  42 68 69  38 39 70  69 76 41  39 40 70  56 43 68  29 59 63  60 46 66  31 49 59  63 64 29  46 61 65  48 31 71  30 48 71  31 59 71  59 47 71  59 49 63  51 61 64  30 71 72  71 47 72  35 53 73  67 55 74  55 38 74  38 70 74  43 57 75  47 58 75  60 66 67  35 73 65  57 44 75  75 58 68  43 75 68  60 67 74  68 58 69  69 58 62  30 72 45  75 44 72  72 47 75  53 36 73  46 65 73  70 40 76  45 72 44  60 74 77  66 46 73  77 74 70  60 77 62  61 29 64  77 70 76  40 41 76  62 77 76  76 69 62  </DataArray>
 <DataArray type="Int32" Name="offsets" format="ascii"> 3 6 9 12 15 18 21 24 27 30 33 36 39 42 45 48 51 54 57 60 63 66 69 72 75 78 81 84 87 90 93 96 99 102 105 108 111 114 117 120 123 126 129 132 135 138 141 144 147 150 153 156 159 162 165 168 171 174 177 180 183 186 189 192 195 198 201 204 207 210 213 216 219 222 225 228 231 234 237 240 243 246 249 252 255 258 261 264 267 270 273 276 279 282 285 288 291 294 297 300 303 306 309 312 315 318 321 324 327 330 333 336 339 342 345 348 351 354 357 360 363 366 369 372 375 378 </DataArray>
 <DataArray type="UInt8" Name="types" format="ascii"> 5 5 5 5 5 5 5 5 5 5 5 5 5 5 5 5 5 5 5 5 5 5 5 5 5 5 5 5 5 5 5 5 5 5 5 5 5 5 5 5 5 5 5 5 5 5 5 5 5 5 5 5 5 5 5 5 5 5 5 5 5 5 5 5 5 5 5 5 5 5 5 5 5 5 5 5 5 5 5 5 5 5 5 5 5 5 5 5 5 5 5 5 5 5 5 5 5 5 5 5 5 5 5 5 5 5 5 5 5 5 5 5 5 5 5 5 5 5 5 5 5 5 5 5 5 5 </DataArray>
</Cells>
<PointData Scalars="" Vectors="DisplacementVector " Tensors="IST_StressTensor IST_StrainTensor " >
 <DataArray type="Float64" Name="DisplacementVector" NumberOfComponents="3" format="ascii"> -5.767115e-06 4.480631e-05 0.000000e+00 -5.843451e-06 3.888889e-05 0.000000e+00 -7.276593e-06 4.461715e-05 0.000000e+00 -8.624165e-06 4.413065e-05 0.000000e+00 -1.001872e-05 4.322978e-05 0.000000e+00 -1.124038e-05 4.192544e-05 0.000000e+00 -1.200069e-05 4.062260e-05 0.000000e+00 -1.254300e-05 3.894292e-05 0.000000e+00 -1.270576e-05 3.736240e-05 0.000000e+00 -1.255392e-05 3.569634e-05 0.000000e+00 -1.209901e-05 3.412005e-05 0.000000e+00 -1.126473e-05 3.251811e-05 0.000000e+00 -1.013571e-05 3.117670e-05 0.000000e+00 -8.769474e-06 3.017667e-05 0.000000e+00 -7.386754e-06 2.962780e-05 0.000000e+00 -5.914130e-06 2.945541e-05 0.000000e+00 -4.398711e-06 2.968480e-05 0.000000e+00 -2.930148e-06 3.031858e-05 0.000000e+00 -1.563723e-06 3.134637e-05 0.000000e+00 -4.649036e-07 3.261428e-05 0.000000e+00 4.338541e-07 3.421415e-05 0.000000e+00 9.997872e-07 3.608735e-05 0.000000e+00 1.139515e-06 3.778828e-05 0.000000e+00 9.469708e-07 3.936005e-05 0.000000e+00 3.668282e-07 4.098338e-05 0.000000e+00 -4.471623e-07 4.225747e-05 0.000000e+00 -1.545724e-06 4.335035e-05 0.000000e+00 -2.790185e-06 4.413269e-05 0.000000e+00 -4.312789e-06 4.465814e-05 0.000000e+00 -7.845487e-06 3.918353e-05 0.000000e+00 -6.334597e-06 4.349834e-05 0.000000e+00 -8.492469e-06 4.253406e-05 0.000000e+00 -1.067140e-05 4.079194e-05 0.000000e+00 -1.156125e-05 3.826055e-05 0.000000e+00 -1.095383e-05 3.544883e-05 0.000000e+00 -9.855584e-06 3.288958e-05 0.000000e+00 -7.794506e-06 3.158742e-05 0.000000e+00 -5.218504e-06 3.089919e-05 0.000000e+00 -2.647932e-06 3.247439e-05 0.000000e+00 -1.338246e-06 3.349129e-05 0.000000e+00 -7.951958e-07 3.548372e-05 0.000000e+00 -3.902722e-07 3.770004e-05 0.000000e+00 -7.696165e-07 3.951382e-05 0.000000e+00 -2.008467e-06 4.186217e-05 0.000000e+00 -4.099948e-06 4.317367e-05 0.000000e+00 -5.200385e-06 4.371282e-05 0.000000e+00 -7.729082e-06 3.602161e-05 0.000000e+00 -6.030388e-06 4.051410e-05 0.000000e+00 -7.583628e-06 4.337163e-05 0.000000e+00 -9.626521e-06 4.161800e-05 0.000000e+00 -1.108457e-05 3.955457e-05 0.000000e+00 -1.123765e-05 3.690428e-05 0.000000e+00 -1.076362e-05 3.393418e-05 0.000000e+00 -9.019839e-06 3.184983e-05 0.000000e+00 -6.422681e-06 3.126550e-05 0.000000e+00 -3.989762e-06 3.161492e-05 0.000000e+00 -1.031425e-06 4.099023e-05 0.000000e+00 -2.863583e-06 4.279926e-05 0.000000e+00 -4.293356e-06 3.964782e-05 0.000000e+00 -8.034352e-06 4.094656e-05 0.000000e+00 -5.349682e-06 3.534068e-05 0.000000e+00 -9.488514e-06 3.680016e-05 0.000000e+00 -3.917165e-06 3.764300e-05 0.000000e+00 -9.433957e-06 4.010423e-05 0.000000e+00 -1.002124e-05 3.843727e-05 0.000000e+00 -9.462180e-06 3.483890e-05 0.000000e+00 -6.817619e-06 3.340366e-05 0.000000e+00 -5.307476e-06 3.270450e-05 0.000000e+00 -2.454813e-06 4.032810e-05 0.000000e+00 -2.344839e-06 3.851891e-05 0.000000e+00 -2.362883e-06 3.453430e-05 0.000000e+00 -6.996274e-06 4.213600e-05 0.000000e+00 -5.413621e-06 4.231166e-05 0.000000e+00 -8.437729e-06 3.344575e-05 0.000000e+00 -3.852967e-06 3.362063e-05 0.000000e+00 -3.969977e-06 4.143909e-05 0.000000e+00 -2.225764e-06 3.659222e-05 0.000000e+00 -3.535226e-06 3.557363e-05 0.000000e+00 </DataArray>
 <DataArray type="Float64" Name="IST_StressTensor" NumberOfComponents="9" format="ascii"> 8.903167e-01 2.261692e+00 0.000000e+00 2.261692e+00 -1.909660e+00 0.000000e+00 0.000000e+00 0.000000e+00 0.000000e+00 1.924905e+00 9.945837e+00 0.000000e+00 9.945837e+00 -6.124553e+00 0.000000e+00 0.000000e+00 0.000000e+00 0.000000e+00 -9.588391e-01 2.034426e+00 0.000000e+00 2.034426e+00 -2.374775e+00 0.000000e+00 0.000000e+00 0.000000e+00 0.000000e+00 -2.570389e+00 9.721734e-01 0.000000e+00 9.721734e-01 -3.746367e+00 0.000000e+00 0.000000e+00 0.000000e+00 0.000000e+00 -2.995724e+00 -4.685339e-02 0.000000e+00 -4.685339e-02 -6.147608e+00 0.000000e+00 0.000000e+00 0.000000e+00 0.000000e+00 -2.351897e+00 -5.533337e-01 0.000000e+00 -5.533337e-01 -1.013333e+01 0.000000e+00 0.000000e+00 0.000000e+00 0.000000e+00 4.018097e-01 1.954688e+00 0.000000e+00 1.954688e+00 -1.475052e+01 0.000000e+00 0.000000e+00 0.000000e+00 0.000000e+00 1.193114e+00 5.797932e+00 0.000000e+00 5.797932e+00 -1.685274e+01 0.000000e+00 0.000000e+00 0.000000e+00 0.000000e+00 8.634516e-01 1.140388e+01 0.000000e+00 1.140388e+01 -1.727565e+01 0.000000e+00 0.000000e+00 0.000000e+00 0.000000e+00 -2.225168e-02 1.525845e+01 0.000000e+00 1.525845e+01 -1.565216e+01 0.000000e+00 0.000000e+00 0.000000e+00 0.000000e+00 -1.597658e+00 1.867791e+01 0.000000e+00 1.867791e+01 -1.386716e+01 0.000000e+00 0.000000e+00 0.000000e+00 0.000000e+00 -3.755226e+00 2.146165e+01 0.000000e+00 2.146165e+01 -9.806193e+00 0.000000e+00 0.000000e+00 0.000000e+00 0.000000e+00 -4.364906e+00 2.193595e+01 0.000000e+00 2.193595e+01 -5.723229e+00 0.000000e+00 0.000000e+00 0.000000e+00 0.000000e+00 -3.127533e+00 2.067467e+01 0.000000e+00 2.067467e+01 -2.615944e+00 0.000000e+00 0.000000e+00 0.000000e+00 0.000000e+00 3.631696e-01 1.927594e+01 0.000000e+00 1.927594e+01 -1.389137e+00 0.000000e+00 0.000000e+00 0.000000e+00 0.000000e+00 4.253206e+00 1.888098e+01 0.000000e+00 1.888098e+01 -1.023506e+00 0.000000e+00 0.000000e+00 0.000000e+00 0.000000e+00 7.961205e+00 1.923424e+01 0.000000e+00 1.923424e+01 -5.604329e-01 0.000000e+00 0.000000e+00 0.000000e+00 0.000000e+00 9.798877e+00 1.972709e+01 0.000000e+00 1.972709e+01 6.168447e-01 0.000000e+00 0.000000e+00 0.000000e+00 0.000000e+00 1.011302e+01 1.963690e+01 0.000000e+00 1.963690e+01 2.984514e+00 0.000000e+00 0.000000e+00 0.000000e+00 0.000000e+00 9.739502e+00 1.853205e+01 0.000000e+00 1.853205e+01 5.881051e+00 0.000000e+00 0.000000e+00 0.000000e+00 0.000000e+00 7.134567e+00 1.725192e+01 0.000000e+00 1.725192e+01 9.888756e+00 0.000000e+00 0.000000e+00 0.000000e+00 0.000000e+00 2.436835e+00 1.247726e+01 0.000000e+00 1.247726e+01 1.231149e+01 0.000000e+00 0.000000e+00 0.000000e+00 0.000000e+00 2.200450e+00 7.554432e+00 0.000000e+00 7.554432e+00 1.254784e+01 0.000000e+00 0.000000e+00 0.000000e+00 0.000000e+00 4.705283e-01 3.222410e+00 0.000000e+00 3.222410e+00 1.139658e+01 0.000000e+00 0.000000e+00 0.000000e+00 0.000000e+00 1.994235e+00 -6.963296e-01 0.000000e+00 -6.963296e-01 9.789747e+00 0.000000e+00 0.000000e+00 0.000000e+00 0.000000e+00 4.119479e+00 -2.491149e+00 0.000000e+00 -2.491149e+00 5.021901e+00 0.000000e+00 0.000000e+00 0.000000e+00 0.000000e+00 5.003801e+00 -1.794547e+00 0.000000e+00 -1.794547e+00 1.756351e+00 0.000000e+00 0.000000e+00 0.000000e+00 0.000000e+00 4.852735e+00 -1.082339e-01 0.000000e+00 -1.082339e-01 -7.149706e-01 0.000000e+00 0.000000e+00 0.000000e+00 0.000000e+00 3.482903e+00 1.474584e+00 0.000000e+00 1.474584e+00 -1.489071e+00 0.000000e+00 0.000000e+00 0.000000e+00 0.000000e+00 8.690142e-01 2.574941e+00 0.000000e+00 2.574941e+00 -4.241798e+01 0.000000e+00 0.000000e+00 0.000000e+00 0.000000e+00 -5.723434e-02 2.073369e+00 0.000000e+00 2.073369e+00 -2.310951e+00 0.000000e+00 0.000000e+00 0.000000e+00 0.000000e+00 -2.931674e+00 1.322889e-01 0.000000e+00 1.322889e-01 -5.362228e+00 0.000000e+00 0.000000e+00 0.000000e+00 0.000000e+00 -1.107599e+00 -5.210240e-01 0.000000e+00 -5.210240e-01 -1.460857e+01 0.000000e+00 0.000000e+00 0.000000e+00 0.000000e+00 2.113344e+00 8.655817e+00 0.000000e+00 8.655817e+00 -1.979873e+01 0.000000e+00 0.000000e+00 0.000000e+00 0.000000e+00 1.272186e+00 1.767783e+01 0.000000e+00 1.767783e+01 -1.695167e+01 0.000000e+00 0.000000e+00 0.000000e+00 0.000000e+00 -3.415453e+00 2.321231e+01 0.000000e+00 2.321231e+01 -8.584378e+00 0.000000e+00 0.000000e+00 0.000000e+00 0.000000e+00 -2.006955e+00 2.002863e+01 0.000000e+00 2.002863e+01 -2.503027e+00 0.000000e+00 0.000000e+00 0.000000e+00 0.000000e+00 6.462639e+00 1.903626e+01 0.000000e+00 1.903626e+01 -1.065689e+00 0.000000e+00 0.000000e+00 0.000000e+00 0.000000e+00 9.716818e+00 2.067798e+01 0.000000e+00 2.067798e+01 2.805076e+00 0.000000e+00 0.000000e+00 0.000000e+00 0.000000e+00 8.612293e+00 1.940285e+01 0.000000e+00 1.940285e+01 6.316592e+00 0.000000e+00 0.000000e+00 0.000000e+00 0.000000e+00 4.472213e+00 1.659746e+01 0.000000e+00 1.659746e+01 1.346151e+01 0.000000e+00 0.000000e+00 0.000000e+00 0.000000e+00 -9.104708e-02 8.799492e+00 0.000000e+00 8.799492e+00 1.590570e+01 0.000000e+00 0.000000e+00 0.000000e+00 0.000000e+00 4.682298e-01 1.517269e+00 0.000000e+00 1.517269e+00 1.430830e+01 0.000000e+00 0.000000e+00 0.000000e+00 0.000000e+00 5.105906e+00 -2.945769e+00 0.000000e+00 -2.945769e+00 3.764749e+00 0.000000e+00 0.000000e+00 0.000000e+00 0.000000e+00 5.003876e+00 6.686871e-01 0.000000e+00 6.686871e-01 -1.126507e+00 0.000000e+00 0.000000e+00 0.000000e+00 0.000000e+00 2.154027e+00 2.005095e+00 0.000000e+00 2.005095e+00 -1.767729e+00 0.000000e+00 0.000000e+00 0.000000e+00 0.000000e+00 1.231878e-01 2.666793e+01 0.000000e+00 2.666793e+01 -3.355088e+01 0.000000e+00 0.000000e+00 0.000000e+00 0.000000e+00 1.499758e+00 -1.008767e+01 0.000000e+00 -1.008767e+01 -5.900528e+00 0.000000e+00 0.000000e+00 0.000000e+00 0.000000e+00 -1.899324e+00 1.501306e+00 0.000000e+00 1.501306e+00 -3.231372e+00 0.000000e+00 0.000000e+00 0.000000e+00 0.000000e+00 -3.129517e+00 -1.196371e+00 0.000000e+00 -1.196371e+00 -8.991383e+00 0.000000e+00 0.000000e+00 0.000000e+00 0.000000e+00 3.035019e+00 3.030191e+00 0.000000e+00 3.030191e+00 -1.839632e+01 0.000000e+00 0.000000e+00 0.000000e+00 0.000000e+00 2.233411e+00 1.391645e+01 0.000000e+00 1.391645e+01 -1.884670e+01 0.000000e+00 0.000000e+00 0.000000e+00 0.000000e+00 -2.107261e+00 2.116649e+01 0.000000e+00 2.116649e+01 -1.384268e+01 0.000000e+00 0.000000e+00 0.000000e+00 0.000000e+00 -4.625794e+00 2.196900e+01 0.000000e+00 2.196900e+01 -4.730510e+00 0.000000e+00 0.000000e+00 0.000000e+00 0.000000e+00 2.448885e+00 1.899906e+01 0.000000e+00 1.899906e+01 -1.590132e+00 0.000000e+00 0.000000e+00 0.000000e+00 0.000000e+00 8.908247e+00 2.007313e+01 0.000000e+00 2.007313e+01 -9.277069e-02 0.000000e+00 0.000000e+00 0.000000e+00 0.000000e+00 3.479124e+00 -2.213890e+00 0.000000e+00 -2.213890e+00 9.462513e+00 0.000000e+00 0.000000e+00 0.000000e+00 0.000000e+00 5.775144e+00 -1.331855e+00 0.000000e+00 -1.331855e+00 8.965971e-01 0.000000e+00 0.000000e+00 0.000000e+00 0.000000e+00 4.640722e+00 -7.811226e+00 0.000000e+00 -7.811226e+00 2.990196e+01 0.000000e+00 0.000000e+00 0.000000e+00 0.000000e+00 -3.132603e+00 -3.974511e+00 0.000000e+00 -3.974511e+00 -9.329193e+00 0.000000e+00 0.000000e+00 0.000000e+00 0.000000e+00 4.773664e+00 3.167357e+01 0.000000e+00 3.167357e+01 7.857073e+00 0.000000e+00 0.000000e+00 0.000000e+00 0.000000e+00 7.541121e+00 1.750276e+01 0.000000e+00 1.750276e+01 -2.647265e+01 0.000000e+00 0.000000e+00 0.000000e+00 0.000000e+00 3.079820e+00 1.941262e+01 0.000000e+00 1.941262e+01 4.605242e+01 0.000000e+00 0.000000e+00 0.000000e+00 0.000000e+00 -1.013498e+00 -2.789880e+00 0.000000e+00 -2.789880e+00 -2.305931e+01 0.000000e+00 0.000000e+00 0.000000e+00 0.000000e+00 3.864618e+00 7.367624e+00 0.000000e+00 7.367624e+00 -2.909838e+01 0.000000e+00 0.000000e+00 0.000000e+00 0.000000e+00 -1.318870e+00 2.367871e+01 0.000000e+00 2.367871e+01 -2.014933e+01 0.000000e+00 0.000000e+00 0.000000e+00 0.000000e+00 -6.245602e-01 2.140421e+01 0.000000e+00 2.140421e+01 -2.769604e+00 0.000000e+00 0.000000e+00 0.000000e+00 0.000000e+00 7.048110e+00 2.102763e+01 0.000000e+00 2.102763e+01 -8.263394e-01 0.000000e+00 0.000000e+00 0.000000e+00 0.000000e+00 4.623430e+00 -3.868012e+00 0.000000e+00 -3.868012e+00 1.509795e+01 0.000000e+00 0.000000e+00 0.000000e+00 0.000000e+00 -3.217422e+00 4.121306e+00 0.000000e+00 4.121306e+00 2.600001e+01 0.000000e+00 0.000000e+00 0.000000e+00 0.000000e+00 7.630758e+00 2.202652e+01 0.000000e+00 2.202652e+01 9.062502e+00 0.000000e+00 0.000000e+00 0.000000e+00 0.000000e+00 -1.355284e+00 1.766929e-01 0.000000e+00 1.766929e-01 -4.595355e+00 0.000000e+00 0.000000e+00 0.000000e+00 0.000000e+00 1.943445e+00 7.606989e-01 0.000000e+00 7.606989e-01 -1.640057e+00 0.000000e+00 0.000000e+00 0.000000e+00 0.000000e+00 -5.712009e+00 2.515199e+01 0.000000e+00 2.515199e+01 -9.368024e+00 0.000000e+00 0.000000e+00 0.000000e+00 0.000000e+00 9.137698e+00 2.285519e+01 0.000000e+00 2.285519e+01 4.006519e+00 0.000000e+00 0.000000e+00 0.000000e+00 0.000000e+00 6.796689e+00 -3.246811e+00 0.000000e+00 -3.246811e+00 2.449211e+00 0.000000e+00 0.000000e+00 0.000000e+00 0.000000e+00 2.648615e+00 1.797543e+01 0.000000e+00 1.797543e+01 2.470874e+01 0.000000e+00 0.000000e+00 0.000000e+00 0.000000e+00 6.733704e+00 2.737019e+01 0.000000e+00 2.737019e+01 1.282548e+01 0.000000e+00 0.000000e+00 0.000000e+00 0.000000e+00 </DataArray>
 <DataArray type="Float64" Name="IST_StrainTensor" NumberOfComponents="9" format="ascii"> 6.967689e-06 1.400095e-05 0.000000e+00 1.400095e-05 -1.036550e-05 0.000000e+00 0.000000e+00 0.000000e+00 0.000000e+00 1.791558e-05 6.156947e-05 0.000000e+00 6.156947e-05 -3.191441e-05 0.000000e+00 0.000000e+00 0.000000e+00 0.000000e+00 -1.173364e-06 1.259407e-05 0.000000e+00 1.259407e-05 -9.938684e-06 0.000000e+00 0.000000e+00 0.000000e+00 0.000000e+00 -6.887995e-06 6.018216e-06 0.000000e+00 6.018216e-06 -1.416786e-05 0.000000e+00 0.000000e+00 0.000000e+00 0.000000e+00 -5.483055e-06 -2.900448e-07 0.000000e+00 -2.900448e-07 -2.499472e-05 0.000000e+00 0.000000e+00 0.000000e+00 0.000000e+00 3.276675e-06 -3.425399e-06 0.000000e+00 -3.425399e-06 -4.489410e-05 0.000000e+00 0.000000e+00 0.000000e+00 0.000000e+00 2.298555e-05 1.210045e-05 0.000000e+00 1.210045e-05 -7.081459e-05 0.000000e+00 0.000000e+00 0.000000e+00 0.000000e+00 2.975683e-05 3.589196e-05 0.000000e+00 3.589196e-05 -8.195558e-05 0.000000e+00 0.000000e+00 0.000000e+00 0.000000e+00 2.879117e-05 7.059546e-05 0.000000e+00 7.059546e-05 -8.349849e-05 0.000000e+00 0.000000e+00 0.000000e+00 0.000000e+00 2.225426e-05 9.445706e-05 0.000000e+00 9.445706e-05 -7.450229e-05 0.000000e+00 0.000000e+00 0.000000e+00 0.000000e+00 1.220233e-05 1.156252e-04 0.000000e+00 1.156252e-04 -6.375171e-05 0.000000e+00 0.000000e+00 0.000000e+00 0.000000e+00 -3.873181e-06 1.328579e-04 0.000000e+00 1.328579e-04 -4.133155e-05 0.000000e+00 0.000000e+00 0.000000e+00 0.000000e+00 -1.260923e-05 1.357940e-04 0.000000e+00 1.357940e-04 -2.101789e-05 0.000000e+00 0.000000e+00 0.000000e+00 0.000000e+00 -1.115595e-05 1.279860e-04 0.000000e+00 1.279860e-04 -7.988972e-06 0.000000e+00 0.000000e+00 0.000000e+00 0.000000e+00 3.713860e-06 1.193272e-04 0.000000e+00 1.193272e-04 -7.133751e-06 0.000000e+00 0.000000e+00 0.000000e+00 0.000000e+00 2.171551e-05 1.168823e-04 0.000000e+00 1.168823e-04 -1.094985e-05 0.000000e+00 0.000000e+00 0.000000e+00 0.000000e+00 3.871112e-05 1.190691e-04 0.000000e+00 1.190691e-04 -1.404188e-05 0.000000e+00 0.000000e+00 0.000000e+00 0.000000e+00 4.578011e-05 1.221201e-04 0.000000e+00 1.221201e-04 -1.106104e-05 0.000000e+00 0.000000e+00 0.000000e+00 0.000000e+00 4.389363e-05 1.215617e-04 0.000000e+00 1.215617e-04 -2.351957e-07 0.000000e+00 0.000000e+00 0.000000e+00 0.000000e+00 3.797708e-05 1.147222e-04 0.000000e+00 1.147222e-04 1.409143e-05 0.000000e+00 0.000000e+00 0.000000e+00 0.000000e+00 1.984733e-05 1.067976e-04 0.000000e+00 1.067976e-04 3.689707e-05 0.000000e+00 0.000000e+00 0.000000e+00 0.000000e+00 -5.983866e-06 7.724017e-05 0.000000e+00 7.724017e-05 5.514495e-05 0.000000e+00 0.000000e+00 0.000000e+00 0.000000e+00 -7.447152e-06 4.676553e-05 0.000000e+00 4.676553e-05 5.660811e-05 0.000000e+00 0.000000e+00 0.000000e+00 0.000000e+00 -1.404022e-05 1.994825e-05 0.000000e+00 1.994825e-05 5.359727e-05 0.000000e+00 0.000000e+00 0.000000e+00 0.000000e+00 -4.488995e-06 -4.310612e-06 0.000000e+00 -4.310612e-06 4.376894e-05 0.000000e+00 0.000000e+00 0.000000e+00 0.000000e+00 1.244242e-05 -1.542140e-05 0.000000e+00 -1.542140e-05 1.802885e-05 0.000000e+00 0.000000e+00 0.000000e+00 0.000000e+00 2.131855e-05 -1.110910e-05 0.000000e+00 -1.110910e-05 1.215288e-06 0.000000e+00 0.000000e+00 0.000000e+00 0.000000e+00 2.412965e-05 -6.700193e-07 0.000000e+00 -6.700193e-07 -1.033710e-05 0.000000e+00 0.000000e+00 0.000000e+00 0.000000e+00 1.871250e-05 9.128376e-06 0.000000e+00 9.128376e-06 -1.206639e-05 0.000000e+00 0.000000e+00 0.000000e+00 0.000000e+00 6.473528e-05 1.594011e-05 0.000000e+00 1.594011e-05 -2.032318e-04 0.000000e+00 0.000000e+00 0.000000e+00 0.000000e+00 3.028815e-06 1.283514e-05 0.000000e+00 1.283514e-05 -1.092277e-05 0.000000e+00 0.000000e+00 0.000000e+00 0.000000e+00 -6.300028e-06 8.189311e-07 0.000000e+00 8.189311e-07 -2.134631e-05 0.000000e+00 0.000000e+00 0.000000e+00 0.000000e+00 1.559511e-05 -3.225387e-06 0.000000e+00 -3.225387e-06 -6.798234e-05 0.000000e+00 0.000000e+00 0.000000e+00 0.000000e+00 3.834745e-05 5.358363e-05 0.000000e+00 5.358363e-05 -9.729875e-05 0.000000e+00 0.000000e+00 0.000000e+00 0.000000e+00 3.027470e-05 1.094342e-04 0.000000e+00 1.094342e-04 -8.253963e-05 0.000000e+00 0.000000e+00 0.000000e+00 0.000000e+00 -4.000665e-06 1.436952e-04 0.000000e+00 1.436952e-04 -3.599877e-05 0.000000e+00 0.000000e+00 0.000000e+00 0.000000e+00 -5.981177e-06 1.239867e-04 0.000000e+00 1.239867e-04 -9.052095e-06 0.000000e+00 0.000000e+00 0.000000e+00 0.000000e+00 3.229688e-05 1.178435e-04 0.000000e+00 1.178435e-04 -1.430705e-05 0.000000e+00 0.000000e+00 0.000000e+00 0.000000e+00 4.226331e-05 1.280065e-04 0.000000e+00 1.280065e-04 -5.236621e-07 0.000000e+00 0.000000e+00 0.000000e+00 0.000000e+00 3.198722e-05 1.201129e-04 0.000000e+00 1.201129e-04 1.777574e-05 0.000000e+00 0.000000e+00 0.000000e+00 0.000000e+00 2.065521e-06 1.027462e-04 0.000000e+00 1.027462e-04 5.771356e-05 0.000000e+00 0.000000e+00 0.000000e+00 0.000000e+00 -2.315598e-05 5.447305e-05 0.000000e+00 5.447305e-05 7.587147e-05 0.000000e+00 0.000000e+00 0.000000e+00 0.000000e+00 -1.821077e-05 9.392616e-06 0.000000e+00 9.392616e-06 6.746588e-05 0.000000e+00 0.000000e+00 0.000000e+00 0.000000e+00 1.893563e-05 -1.823571e-05 0.000000e+00 -1.823571e-05 1.063322e-05 0.000000e+00 0.000000e+00 0.000000e+00 0.000000e+00 2.543728e-05 4.139491e-06 0.000000e+00 4.139491e-06 -1.251271e-05 0.000000e+00 0.000000e+00 0.000000e+00 0.000000e+00 1.278260e-05 1.241249e-05 0.000000e+00 1.241249e-05 -1.149494e-05 0.000000e+00 0.000000e+00 0.000000e+00 0.000000e+00 4.851643e-05 1.650872e-04 0.000000e+00 1.650872e-04 -1.599421e-04 0.000000e+00 0.000000e+00 0.000000e+00 0.000000e+00 1.557103e-05 -6.244751e-05 0.000000e+00 -6.244751e-05 -3.024026e-05 0.000000e+00 0.000000e+00 0.000000e+00 0.000000e+00 -4.428153e-06 9.293798e-06 0.000000e+00 9.293798e-06 -1.267417e-05 0.000000e+00 0.000000e+00 0.000000e+00 0.000000e+00 -2.057631e-06 -7.406106e-06 0.000000e+00 -7.406106e-06 -3.834537e-05 0.000000e+00 0.000000e+00 0.000000e+00 0.000000e+00 4.073293e-05 1.875833e-05 0.000000e+00 1.875833e-05 -9.193729e-05 0.000000e+00 0.000000e+00 0.000000e+00 0.000000e+00 3.755915e-05 8.614944e-05 0.000000e+00 8.614944e-05 -9.293679e-05 0.000000e+00 0.000000e+00 0.000000e+00 0.000000e+00 9.740678e-06 1.310307e-04 0.000000e+00 1.310307e-04 -6.290714e-05 0.000000e+00 0.000000e+00 0.000000e+00 0.000000e+00 -1.526972e-05 1.359986e-04 0.000000e+00 1.359986e-04 -1.591796e-05 0.000000e+00 0.000000e+00 0.000000e+00 0.000000e+00 1.393298e-05 1.176132e-04 0.000000e+00 1.176132e-04 -1.107046e-05 0.000000e+00 0.000000e+00 0.000000e+00 0.000000e+00 4.255275e-05 1.242622e-04 0.000000e+00 1.242622e-04 -1.316783e-05 0.000000e+00 0.000000e+00 0.000000e+00 0.000000e+00 3.049382e-06 -1.370503e-05 0.000000e+00 -1.370503e-05 4.008941e-05 0.000000e+00 0.000000e+00 0.000000e+00 0.000000e+00 2.621983e-05 -8.244814e-06 0.000000e+00 -8.244814e-06 -3.980696e-06 0.000000e+00 0.000000e+00 0.000000e+00 0.000000e+00 -2.061841e-05 -4.835521e-05 0.000000e+00 -4.835521e-05 1.357607e-04 0.000000e+00 0.000000e+00 0.000000e+00 0.000000e+00 -1.589738e-06 -2.460411e-05 0.000000e+00 -2.460411e-05 -3.994958e-05 0.000000e+00 0.000000e+00 0.000000e+00 0.000000e+00 1.150734e-05 1.960745e-04 0.000000e+00 1.960745e-04 3.059511e-05 0.000000e+00 0.000000e+00 0.000000e+00 0.000000e+00 7.372817e-05 1.083504e-04 0.000000e+00 1.083504e-04 -1.368333e-04 0.000000e+00 0.000000e+00 0.000000e+00 0.000000e+00 -5.112336e-05 1.201733e-04 0.000000e+00 1.201733e-04 2.148975e-04 0.000000e+00 0.000000e+00 0.000000e+00 0.000000e+00 2.811569e-05 -1.727068e-05 0.000000e+00 -1.727068e-05 -1.083584e-04 0.000000e+00 0.000000e+00 0.000000e+00 0.000000e+00 5.997205e-05 4.560910e-05 0.000000e+00 4.560910e-05 -1.440846e-04 0.000000e+00 0.000000e+00 0.000000e+00 0.000000e+00 2.250442e-05 1.465825e-04 0.000000e+00 1.465825e-04 -9.406509e-05 0.000000e+00 0.000000e+00 0.000000e+00 0.000000e+00 9.824814e-07 1.325023e-04 0.000000e+00 1.325023e-04 -1.229636e-05 0.000000e+00 0.000000e+00 0.000000e+00 0.000000e+00 3.474291e-05 1.301710e-04 0.000000e+00 1.301710e-04 -1.400368e-05 0.000000e+00 0.000000e+00 0.000000e+00 0.000000e+00 4.478369e-07 -2.394484e-05 0.000000e+00 -2.394484e-05 6.529009e-05 0.000000e+00 0.000000e+00 0.000000e+00 0.000000e+00 -5.246392e-05 2.551285e-05 0.000000e+00 2.551285e-05 1.284059e-04 0.000000e+00 0.000000e+00 0.000000e+00 0.000000e+00 2.339051e-05 1.363546e-04 0.000000e+00 1.363546e-04 3.225369e-05 0.000000e+00 0.000000e+00 0.000000e+00 0.000000e+00 1.110618e-07 1.093813e-06 0.000000e+00 1.093813e-06 -1.994653e-05 0.000000e+00 0.000000e+00 0.000000e+00 0.000000e+00 1.159744e-05 4.709089e-06 0.000000e+00 4.709089e-06 -1.058615e-05 0.000000e+00 0.000000e+00 0.000000e+00 0.000000e+00 -1.381715e-05 1.557028e-04 0.000000e+00 1.557028e-04 -3.644962e-05 0.000000e+00 0.000000e+00 0.000000e+00 0.000000e+00 3.778925e-05 1.414845e-04 0.000000e+00 1.414845e-04 6.024805e-06 0.000000e+00 0.000000e+00 0.000000e+00 0.000000e+00 2.886631e-05 -2.009931e-05 0.000000e+00 -2.009931e-05 1.953356e-06 0.000000e+00 0.000000e+00 0.000000e+00 0.000000e+00 -2.268574e-05 1.112765e-04 0.000000e+00 1.112765e-04 1.138769e-04 0.000000e+00 0.000000e+00 0.000000e+00 0.000000e+00 1.374314e-05 1.694345e-04 0.000000e+00 1.694345e-04 5.145414e-05 0.000000e+00 0.000000e+00 0.000000e+00 0.000000e+00 </DataArray>
</PointData>
<CellData Scalars="" Vectors="" Tensors="" >
</CellData>
</Piece>
</UnstructuredGrid>
</VTKFile>