<!-- TimeStep 8 Computed 2021-08-30 at 9:26:11 -->
<VTKFile type="UnstructuredGrid" version="0.1" byte_order="LittleEndian">
<UnstructuredGrid>
<Piece NumberOfPoints="78" NumberOfCells="126">
<Points>
 <DataArray type="Float64" NumberOfComponents="3" format="ascii"> 3.225000e-02 1.380000e-02 0.000000e+00 2.600000e-02 1.380000e-02 0.000000e+00 3.209060e-02 1.520260e-02 0.000000e+00 3.166140e-02 1.644790e-02 0.000000e+00 3.086510e-02 1.772340e-02 0.000000e+00 2.972250e-02 1.882050e-02 0.000000e+00 2.860520e-02 1.948120e-02 0.000000e+00 2.719700e-02 1.993430e-02 0.000000e+00 2.590380e-02 2.004930e-02 0.000000e+00 2.457020e-02 1.988430e-02 0.000000e+00 2.332460e-02 1.944840e-02 0.000000e+00 2.208010e-02 1.866800e-02 0.000000e+00 2.105550e-02 1.762290e-02 0.000000e+00 2.030070e-02 1.636520e-02 0.000000e+00 1.988720e-02 1.510250e-02 0.000000e+00 1.975010e-02 1.376650e-02 0.000000e+00 1.990830e-02 1.240220e-02 0.000000e+00 2.036540e-02 1.109550e-02 0.000000e+00 2.111820e-02 9.897330e-03 0.000000e+00 2.206020e-02 8.948140e-03 0.000000e+00 2.327140e-02 8.177090e-03 0.000000e+00 2.473380e-02 7.679600e-03 0.000000e+00 2.609570e-02 7.550730e-03 0.000000e+00 2.739940e-02 7.708680e-03 0.000000e+00 2.878200e-02 8.203300e-03 0.000000e+00 2.990320e-02 8.918690e-03 0.000000e+00 3.088920e-02 9.906670e-03 0.000000e+00 3.160900e-02 1.104290e-02 0.000000e+00 3.210220e-02 1.244870e-02 0.000000e+00 2.689410e-02 1.574970e-02 0.000000e+00 3.106790e-02 1.432440e-02 0.000000e+00 3.021000e-02 1.633720e-02 0.000000e+00 2.868670e-02 1.830730e-02 0.000000e+00 2.656540e-02 1.903210e-02 0.000000e+00 2.429600e-02 1.840150e-02 0.000000e+00 2.232580e-02 1.734910e-02 0.000000e+00 2.134550e-02 1.546840e-02 0.000000e+00 2.081790e-02 1.316830e-02 0.000000e+00 2.195310e-02 1.090900e-02 0.000000e+00 2.270470e-02 9.754310e-03 0.000000e+00 2.419530e-02 9.293850e-03 0.000000e+00 2.596150e-02 8.901100e-03 0.000000e+00 2.746210e-02 9.203070e-03 0.000000e+00 2.953140e-02 1.029530e-02 0.000000e+00 3.074800e-02 1.222540e-02 0.000000e+00 3.125210e-02 1.326260e-02 0.000000e+00 2.444140e-02 1.534830e-02 0.000000e+00 2.824200e-02 1.402670e-02 0.000000e+00 3.096270e-02 1.549140e-02 0.000000e+00 2.939720e-02 1.737550e-02 0.000000e+00 2.763300e-02 1.864220e-02 0.000000e+00 2.545180e-02 1.869780e-02 0.000000e+00 2.312740e-02 1.819900e-02 0.000000e+00 2.154420e-02 1.657830e-02 0.000000e+00 2.110020e-02 1.424480e-02 0.000000e+00 2.133320e-02 1.208860e-02 0.000000e+00 2.874870e-02 9.422340e-03 0.000000e+00 3.038980e-02 1.108190e-02 0.000000e+00 2.729730e-02 1.228700e-02 0.000000e+00 2.872080e-02 1.592370e-02 0.000000e+00 2.397910e-02 1.338880e-02 0.000000e+00 2.523880e-02 1.708240e-02 0.000000e+00 2.551550e-02 1.212080e-02 0.000000e+00 2.798220e-02 1.720250e-02 0.000000e+00 2.657570e-02 1.763870e-02 0.000000e+00 2.373000e-02 1.698530e-02 0.000000e+00 2.265470e-02 1.460460e-02 0.000000e+00 2.213900e-02 1.328690e-02 0.000000e+00 2.808660e-02 1.066920e-02 0.000000e+00 2.649870e-02 1.061530e-02 0.000000e+00 2.345290e-02 1.070040e-02 0.000000e+00 2.981740e-02 1.494790e-02 0.000000e+00 2.996380e-02 1.344750e-02 0.000000e+00 2.269780e-02 1.602380e-02 0.000000e+00 2.278200e-02 1.202440e-02 0.000000e+00 2.912730e-02 1.205350e-02 0.000000e+00 2.495000e-02 1.058630e-02 0.000000e+00 2.416560e-02 1.177860e-02 0.000000e+00 </DataArray>
</Points>
<Cells>
 <DataArray type="Int32" Name="connectivity" format="ascii"> 0 2 30  3 4 31  5 6 32  7 8 33  9 10 34  11 12 35  13 14 36  15 16 37  17 18 38  18 19 39  38 18 39  19 20 39  20 21 40  21 22 41  40 21 41  22 23 41  23 24 42  25 26 43  27 28 44  28 0 45  44 28 45  0 30 45  1 29 46  29 1 47  2 3 48  4 5 49  6 7 50  8 9 51  10 11 52  12 13 53  14 15 54  16 17 55  41 23 42  20 40 39  24 25 56  26 27 57  47 1 58  29 47 59  2 48 30  1 46 60  31 4 49  32 6 50  33 8 51  34 10 52  35 12 53  36 14 54  37 16 55  42 24 56  46 29 61  48 3 31  49 5 32  50 7 33  51 9 34  52 11 35  53 13 36  54 15 37  55 17 38  58 1 62  1 60 62  57 27 44  56 25 43  26 57 43  49 32 63  32 50 63  50 33 64  63 50 64  33 51 64  51 34 61  34 52 65  61 34 65  52 35 65  66 73 36  36 54 66  54 37 67  66 54 67  37 55 67  42 56 68  41 42 69  42 68 69  38 39 70  69 76 41  39 40 70  56 43 68  29 59 63  60 46 66  31 49 59  63 64 29  46 61 65  48 31 71  30 48 71  31 59 71  59 47 71  59 49 63  51 61 64  30 71 72  71 47 72  35 53 73  67 55 74  55 38 74  38 70 74  43 57 75  47 58 75  60 66 67  35 73 65  57 44 75  75 58 68  43 75 68  60 67 74  68 58 69  69 58 62  30 72 45  75 44 72  72 47 75  53 36 73  46 65 73  70 40 76  45 72 44  60 74 77  66 46 73  77 74 70  60 77 62  61 29 64  77 70 76  40 41 76  62 77 76  76 69 62  </DataArray>
 <DataArray type="Int32" Name="offsets" format="ascii"> 3 6 9 12 15 18 21 24 27 30 33 36 39 42 45 48 51 54 57 60 63 66 69 72 75 78 81 84 87 90 93 96 99 102 105 108 111 114 117 120 123 126 129 132 135 138 141 144 147 150 153 156 159 162 165 168 171 174 177 180 183 186 189 192 195 198 201 204 207 210 213 216 219 222 225 228 231 234 237 240 243 246 249 252 255 258 261 264 267 270 273 276 279 282 285 288 291 294 297 300 303 306 309 312 315 318 321 324 327 330 333 336 339 342 345 348 351 354 357 360 363 366 369 372 375 378 </DataArray>
 <DataArray type="UInt8" Name="types" format="ascii"> 5 5 5 5 5 5 5 5 5 5 5 5 5 5 5 5 5 5 5 5 5 5 5 5 5 5 5 5 5 5 5 5 5 5 5 5 5 5 5 5 5 5 5 5 5 5 5 5 5 5 5 5 5 5 5 5 5 5 5 5 5 5 5 5 5 5 5 5 5 5 5 5 5 5 5 5 5 5 5 5 5 5 5 5 5 5 5 5 5 5 5 5 5 5 5 5 5 5 5 5 5 5 5 5 5 5 5 5 5 5 5 5 5 5 5 5 5 5 5 5 5 5 5 5 5 5 </DataArray>
</Cells>
<PointData Scalars="" Vectors="DisplacementVector " Tensors="IST_StressTensor IST_StrainTensor " >
 <DataArray type="Float64" Name="DisplacementVector" NumberOfComponents="3" format="ascii"> -8.073961e-06 6.272883e-05 0.000000e+00 -8.180831e-06 5.444444e-05 0.000000e+00 -1.018723e-05 6.246401e-05 0.000000e+00 -1.207383e-05 6.178291e-05 0.000000e+00 -1.402621e-05 6.052169e-05 0.000000e+00 -1.573653e-05 5.869561e-05 0.000000e+00 -1.680097e-05 5.687164e-05 0.000000e+00 -1.756020e-05 5.452008e-05 0.000000e+00 -1.778807e-05 5.230736e-05 0.000000e+00 -1.757549e-05 4.997487e-05 0.000000e+00 -1.693862e-05 4.776808e-05 0.000000e+00 -1.577062e-05 4.552536e-05 0.000000e+00 -1.418999e-05 4.364738e-05 0.000000e+00 -1.227726e-05 4.224734e-05 0.000000e+00 -1.034146e-05 4.147893e-05 0.000000e+00 -8.279782e-06 4.123758e-05 0.000000e+00 -6.158195e-06 4.155872e-05 0.000000e+00 -4.102207e-06 4.244601e-05 0.000000e+00 -2.189212e-06 4.388492e-05 0.000000e+00 -6.508650e-07 4.565999e-05 0.000000e+00 6.073957e-07 4.789981e-05 0.000000e+00 1.399702e-06 5.052229e-05 0.000000e+00 1.595322e-06 5.290359e-05 0.000000e+00 1.325759e-06 5.510407e-05 0.000000e+00 5.135595e-07 5.737674e-05 0.000000e+00 -6.260273e-07 5.916046e-05 0.000000e+00 -2.164014e-06 6.069049e-05 0.000000e+00 -3.906259e-06 6.178576e-05 0.000000e+00 -6.037905e-06 6.252140e-05 0.000000e+00 -1.098368e-05 5.485694e-05 0.000000e+00 -8.868436e-06 6.089768e-05 0.000000e+00 -1.188946e-05 5.954769e-05 0.000000e+00 -1.493996e-05 5.710871e-05 0.000000e+00 -1.618576e-05 5.356477e-05 0.000000e+00 -1.533536e-05 4.962837e-05 0.000000e+00 -1.379782e-05 4.604541e-05 0.000000e+00 -1.091231e-05 4.422238e-05 0.000000e+00 -7.305906e-06 4.325887e-05 0.000000e+00 -3.707105e-06 4.546415e-05 0.000000e+00 -1.873545e-06 4.688780e-05 0.000000e+00 -1.113274e-06 4.967721e-05 0.000000e+00 -5.463810e-07 5.278005e-05 0.000000e+00 -1.077463e-06 5.531935e-05 0.000000e+00 -2.811854e-06 5.860703e-05 0.000000e+00 -5.739927e-06 6.044313e-05 0.000000e+00 -7.280539e-06 6.119794e-05 0.000000e+00 -1.082072e-05 5.043025e-05 0.000000e+00 -8.442543e-06 5.671973e-05 0.000000e+00 -1.061708e-05 6.072028e-05 0.000000e+00 -1.347713e-05 5.826519e-05 0.000000e+00 -1.551839e-05 5.537640e-05 0.000000e+00 -1.573271e-05 5.166599e-05 0.000000e+00 -1.506907e-05 4.750785e-05 0.000000e+00 -1.262777e-05 4.458976e-05 0.000000e+00 -8.991753e-06 4.377170e-05 0.000000e+00 -5.585667e-06 4.426089e-05 0.000000e+00 -1.443995e-06 5.738633e-05 0.000000e+00 -4.009016e-06 5.991897e-05 0.000000e+00 -6.010699e-06 5.550695e-05 0.000000e+00 -1.124809e-05 5.732519e-05 0.000000e+00 -7.489555e-06 4.947695e-05 0.000000e+00 -1.328392e-05 5.152023e-05 0.000000e+00 -5.484031e-06 5.270020e-05 0.000000e+00 -1.320754e-05 5.614593e-05 0.000000e+00 -1.402974e-05 5.381218e-05 0.000000e+00 -1.324705e-05 4.877446e-05 0.000000e+00 -9.544667e-06 4.676512e-05 0.000000e+00 -7.430466e-06 4.578630e-05 0.000000e+00 -3.436738e-06 5.645934e-05 0.000000e+00 -3.282774e-06 5.392647e-05 0.000000e+00 -3.308036e-06 4.834801e-05 0.000000e+00 -9.794783e-06 5.899040e-05 0.000000e+00 -7.579069e-06 5.923633e-05 0.000000e+00 -1.181282e-05 4.682405e-05 0.000000e+00 -5.394153e-06 4.706888e-05 0.000000e+00 -5.557968e-06 5.801473e-05 0.000000e+00 -3.116070e-06 5.122911e-05 0.000000e+00 -4.949316e-06 4.980309e-05 0.000000e+00 </DataArray>
 <DataArray type="Float64" Name="IST_StressTensor" NumberOfComponents="9" format="ascii"> 1.246443e+00 3.166369e+00 0.000000e+00 3.166369e+00 -2.673524e+00 0.000000e+00 0.000000e+00 0.000000e+00 0.000000e+00 2.694867e+00 1.392417e+01 0.000000e+00 1.392417e+01 -8.574375e+00 0.000000e+00 0.000000e+00 0.000000e+00 0.000000e+00 -1.342375e+00 2.848197e+00 0.000000e+00 2.848197e+00 -3.324686e+00 0.000000e+00 0.000000e+00 0.000000e+00 0.000000e+00 -3.598545e+00 1.361043e+00 0.000000e+00 1.361043e+00 -5.244913e+00 0.000000e+00 0.000000e+00 0.000000e+00 0.000000e+00 -4.194014e+00 -6.559474e-02 0.000000e+00 -6.559474e-02 -8.606652e+00 0.000000e+00 0.000000e+00 0.000000e+00 0.000000e+00 -3.292656e+00 -7.746672e-01 0.000000e+00 -7.746672e-01 -1.418666e+01 0.000000e+00 0.000000e+00 0.000000e+00 0.000000e+00 5.625336e-01 2.736563e+00 0.000000e+00 2.736563e+00 -2.065073e+01 0.000000e+00 0.000000e+00 0.000000e+00 0.000000e+00 1.670359e+00 8.117105e+00 0.000000e+00 8.117105e+00 -2.359383e+01 0.000000e+00 0.000000e+00 0.000000e+00 0.000000e+00 1.208832e+00 1.596543e+01 0.000000e+00 1.596543e+01 -2.418591e+01 0.000000e+00 0.000000e+00 0.000000e+00 0.000000e+00 -3.115235e-02 2.136183e+01 0.000000e+00 2.136183e+01 -2.191302e+01 0.000000e+00 0.000000e+00 0.000000e+00 0.000000e+00 -2.236722e+00 2.614908e+01 0.000000e+00 2.614908e+01 -1.941402e+01 0.000000e+00 0.000000e+00 0.000000e+00 0.000000e+00 -5.257316e+00 3.004631e+01 0.000000e+00 3.004631e+01 -1.372867e+01 0.000000e+00 0.000000e+00 0.000000e+00 0.000000e+00 -6.110869e+00 3.071034e+01 0.000000e+00 3.071034e+01 -8.012520e+00 0.000000e+00 0.000000e+00 0.000000e+00 0.000000e+00 -4.378546e+00 2.894453e+01 0.000000e+00 2.894453e+01 -3.662322e+00 0.000000e+00 0.000000e+00 0.000000e+00 0.000000e+00 5.084374e-01 2.698631e+01 0.000000e+00 2.698631e+01 -1.944791e+00 0.000000e+00 0.000000e+00 0.000000e+00 0.000000e+00 5.954489e+00 2.643337e+01 0.000000e+00 2.643337e+01 -1.432908e+00 0.000000e+00 0.000000e+00 0.000000e+00 0.000000e+00 1.114569e+01 2.692793e+01 0.000000e+00 2.692793e+01 -7.846061e-01 0.000000e+00 0.000000e+00 0.000000e+00 0.000000e+00 1.371843e+01 2.761793e+01 0.000000e+00 2.761793e+01 8.635825e-01 0.000000e+00 0.000000e+00 0.000000e+00 0.000000e+00 1.415822e+01 2.749165e+01 0.000000e+00 2.749165e+01 4.178320e+00 0.000000e+00 0.000000e+00 0.000000e+00 0.000000e+00 1.363530e+01 2.594487e+01 0.000000e+00 2.594487e+01 8.233471e+00 0.000000e+00 0.000000e+00 0.000000e+00 0.000000e+00 9.988394e+00 2.415269e+01 0.000000e+00 2.415269e+01 1.384426e+01 0.000000e+00 0.000000e+00 0.000000e+00 0.000000e+00 3.411570e+00 1.746816e+01 0.000000e+00 1.746816e+01 1.723609e+01 0.000000e+00 0.000000e+00 0.000000e+00 0.000000e+00 3.080630e+00 1.057620e+01 0.000000e+00 1.057620e+01 1.756697e+01 0.000000e+00 0.000000e+00 0.000000e+00 0.000000e+00 6.587397e-01 4.511374e+00 0.000000e+00 4.511374e+00 1.595522e+01 0.000000e+00 0.000000e+00 0.000000e+00 0.000000e+00 2.791929e+00 -9.748615e-01 0.000000e+00 -9.748615e-01 1.370565e+01 0.000000e+00 0.000000e+00 0.000000e+00 0.000000e+00 5.767270e+00 -3.487609e+00 0.000000e+00 -3.487609e+00 7.030662e+00 0.000000e+00 0.000000e+00 0.000000e+00 0.000000e+00 7.005321e+00 -2.512366e+00 0.000000e+00 -2.512366e+00 2.458891e+00 0.000000e+00 0.000000e+00 0.000000e+00 0.000000e+00 6.793829e+00 -1.515274e-01 0.000000e+00 -1.515274e-01 -1.000959e+00 0.000000e+00 0.000000e+00 0.000000e+00 0.000000e+00 4.876065e+00 2.064417e+00 0.000000e+00 2.064417e+00 -2.084699e+00 0.000000e+00 0.000000e+00 0.000000e+00 0.000000e+00 1.216620e+00 3.604917e+00 0.000000e+00 3.604917e+00 -5.938517e+01 0.000000e+00 0.000000e+00 0.000000e+00 0.000000e+00 -8.012808e-02 2.902716e+00 0.000000e+00 2.902716e+00 -3.235332e+00 0.000000e+00 0.000000e+00 0.000000e+00 0.000000e+00 -4.104344e+00 1.852044e-01 0.000000e+00 1.852044e-01 -7.507119e+00 0.000000e+00 0.000000e+00 0.000000e+00 0.000000e+00 -1.550639e+00 -7.294337e-01 0.000000e+00 -7.294337e-01 -2.045200e+01 0.000000e+00 0.000000e+00 0.000000e+00 0.000000e+00 2.958682e+00 1.211814e+01 0.000000e+00 1.211814e+01 -2.771823e+01 0.000000e+00 0.000000e+00 0.000000e+00 0.000000e+00 1.781061e+00 2.474897e+01 0.000000e+00 2.474897e+01 -2.373233e+01 0.000000e+00 0.000000e+00 0.000000e+00 0.000000e+00 -4.781634e+00 3.249723e+01 0.000000e+00 3.249723e+01 -1.201813e+01 0.000000e+00 0.000000e+00 0.000000e+00 0.000000e+00 -2.809737e+00 2.804008e+01 0.000000e+00 2.804008e+01 -3.504237e+00 0.000000e+00 0.000000e+00 0.000000e+00 0.000000e+00 9.047694e+00 2.665077e+01 0.000000e+00 2.665077e+01 -1.491965e+00 0.000000e+00 0.000000e+00 0.000000e+00 0.000000e+00 1.360355e+01 2.894917e+01 0.000000e+00 2.894917e+01 3.927107e+00 0.000000e+00 0.000000e+00 0.000000e+00 0.000000e+00 1.205721e+01 2.716399e+01 0.000000e+00 2.716399e+01 8.843229e+00 0.000000e+00 0.000000e+00 0.000000e+00 0.000000e+00 6.261098e+00 2.323644e+01 0.000000e+00 2.323644e+01 1.884611e+01 0.000000e+00 0.000000e+00 0.000000e+00 0.000000e+00 -1.274659e-01 1.231929e+01 0.000000e+00 1.231929e+01 2.226797e+01 0.000000e+00 0.000000e+00 0.000000e+00 0.000000e+00 6.555217e-01 2.124176e+00 0.000000e+00 2.124176e+00 2.003162e+01 0.000000e+00 0.000000e+00 0.000000e+00 0.000000e+00 7.148269e+00 -4.124077e+00 0.000000e+00 -4.124077e+00 5.270649e+00 0.000000e+00 0.000000e+00 0.000000e+00 0.000000e+00 7.005426e+00 9.361619e-01 0.000000e+00 9.361619e-01 -1.577110e+00 0.000000e+00 0.000000e+00 0.000000e+00 0.000000e+00 3.015638e+00 2.807133e+00 0.000000e+00 2.807133e+00 -2.474821e+00 0.000000e+00 0.000000e+00 0.000000e+00 0.000000e+00 1.724629e-01 3.733510e+01 0.000000e+00 3.733510e+01 -4.697123e+01 0.000000e+00 0.000000e+00 0.000000e+00 0.000000e+00 2.099661e+00 -1.412274e+01 0.000000e+00 -1.412274e+01 -8.260739e+00 0.000000e+00 0.000000e+00 0.000000e+00 0.000000e+00 -2.659054e+00 2.101828e+00 0.000000e+00 2.101828e+00 -4.523921e+00 0.000000e+00 0.000000e+00 0.000000e+00 0.000000e+00 -4.381324e+00 -1.674919e+00 0.000000e+00 -1.674919e+00 -1.258794e+01 0.000000e+00 0.000000e+00 0.000000e+00 0.000000e+00 4.249027e+00 4.242268e+00 0.000000e+00 4.242268e+00 -2.575485e+01 0.000000e+00 0.000000e+00 0.000000e+00 0.000000e+00 3.126776e+00 1.948303e+01 0.000000e+00 1.948303e+01 -2.638538e+01 0.000000e+00 0.000000e+00 0.000000e+00 0.000000e+00 -2.950165e+00 2.963309e+01 0.000000e+00 2.963309e+01 -1.937975e+01 0.000000e+00 0.000000e+00 0.000000e+00 0.000000e+00 -6.476112e+00 3.075661e+01 0.000000e+00 3.075661e+01 -6.622715e+00 0.000000e+00 0.000000e+00 0.000000e+00 0.000000e+00 3.428439e+00 2.659868e+01 0.000000e+00 2.659868e+01 -2.226184e+00 0.000000e+00 0.000000e+00 0.000000e+00 0.000000e+00 1.247155e+01 2.810238e+01 0.000000e+00 2.810238e+01 -1.298790e-01 0.000000e+00 0.000000e+00 0.000000e+00 0.000000e+00 4.870774e+00 -3.099446e+00 0.000000e+00 -3.099446e+00 1.324752e+01 0.000000e+00 0.000000e+00 0.000000e+00 0.000000e+00 8.085202e+00 -1.864596e+00 0.000000e+00 -1.864596e+00 1.255236e+00 0.000000e+00 0.000000e+00 0.000000e+00 0.000000e+00 6.497011e+00 -1.093572e+01 0.000000e+00 -1.093572e+01 4.186274e+01 0.000000e+00 0.000000e+00 0.000000e+00 0.000000e+00 -4.385644e+00 -5.564315e+00 0.000000e+00 -5.564315e+00 -1.306087e+01 0.000000e+00 0.000000e+00 0.000000e+00 0.000000e+00 6.683130e+00 4.434300e+01 0.000000e+00 4.434300e+01 1.099990e+01 0.000000e+00 0.000000e+00 0.000000e+00 0.000000e+00 1.055757e+01 2.450387e+01 0.000000e+00 2.450387e+01 -3.706171e+01 0.000000e+00 0.000000e+00 0.000000e+00 0.000000e+00 4.311748e+00 2.717766e+01 0.000000e+00 2.717766e+01 6.447338e+01 0.000000e+00 0.000000e+00 0.000000e+00 0.000000e+00 -1.418897e+00 -3.905832e+00 0.000000e+00 -3.905832e+00 -3.228303e+01 0.000000e+00 0.000000e+00 0.000000e+00 0.000000e+00 5.410465e+00 1.031467e+01 0.000000e+00 1.031467e+01 -4.073773e+01 0.000000e+00 0.000000e+00 0.000000e+00 0.000000e+00 -1.846418e+00 3.315020e+01 0.000000e+00 3.315020e+01 -2.820906e+01 0.000000e+00 0.000000e+00 0.000000e+00 0.000000e+00 -8.743843e-01 2.996589e+01 0.000000e+00 2.996589e+01 -3.877446e+00 0.000000e+00 0.000000e+00 0.000000e+00 0.000000e+00 9.867354e+00 2.943868e+01 0.000000e+00 2.943868e+01 -1.156875e+00 0.000000e+00 0.000000e+00 0.000000e+00 0.000000e+00 6.472802e+00 -5.415217e+00 0.000000e+00 -5.415217e+00 2.113713e+01 0.000000e+00 0.000000e+00 0.000000e+00 0.000000e+00 -4.504391e+00 5.769829e+00 0.000000e+00 5.769829e+00 3.640001e+01 0.000000e+00 0.000000e+00 0.000000e+00 0.000000e+00 1.068306e+01 3.083712e+01 0.000000e+00 3.083712e+01 1.268750e+01 0.000000e+00 0.000000e+00 0.000000e+00 0.000000e+00 -1.897397e+00 2.473701e-01 0.000000e+00 2.473701e-01 -6.433498e+00 0.000000e+00 0.000000e+00 0.000000e+00 0.000000e+00 2.720823e+00 1.064979e+00 0.000000e+00 1.064979e+00 -2.296080e+00 0.000000e+00 0.000000e+00 0.000000e+00 0.000000e+00 -7.996812e+00 3.521279e+01 0.000000e+00 3.521279e+01 -1.311523e+01 0.000000e+00 0.000000e+00 0.000000e+00 0.000000e+00 1.279278e+01 3.199726e+01 0.000000e+00 3.199726e+01 5.609126e+00 0.000000e+00 0.000000e+00 0.000000e+00 0.000000e+00 9.515365e+00 -4.545536e+00 0.000000e+00 -4.545536e+00 3.428896e+00 0.000000e+00 0.000000e+00 0.000000e+00 0.000000e+00 3.708061e+00 2.516561e+01 0.000000e+00 2.516561e+01 3.459223e+01 0.000000e+00 0.000000e+00 0.000000e+00 0.000000e+00 9.427186e+00 3.831827e+01 0.000000e+00 3.831827e+01 1.795567e+01 0.000000e+00 0.000000e+00 0.000000e+00 0.000000e+00 </DataArray>
 <DataArray type="Float64" Name="IST_StrainTensor" NumberOfComponents="9" format="ascii"> 9.754764e-06 1.960133e-05 0.000000e+00 1.960133e-05 -1.451170e-05 0.000000e+00 0.000000e+00 0.000000e+00 0.000000e+00 2.508181e-05 8.619725e-05 0.000000e+00 8.619725e-05 -4.468017e-05 0.000000e+00 0.000000e+00 0.000000e+00 0.000000e+00 -1.642710e-06 1.763169e-05 0.000000e+00 1.763169e-05 -1.391416e-05 0.000000e+00 0.000000e+00 0.000000e+00 0.000000e+00 -9.643193e-06 8.425503e-06 0.000000e+00 8.425503e-06 -1.983500e-05 0.000000e+00 0.000000e+00 0.000000e+00 0.000000e+00 -7.676277e-06 -4.060627e-07 0.000000e+00 -4.060627e-07 -3.499261e-05 0.000000e+00 0.000000e+00 0.000000e+00 0.000000e+00 4.587344e-06 -4.795559e-06 0.000000e+00 -4.795559e-06 -6.285174e-05 0.000000e+00 0.000000e+00 0.000000e+00 0.000000e+00 3.217977e-05 1.694063e-05 0.000000e+00 1.694063e-05 -9.914043e-05 0.000000e+00 0.000000e+00 0.000000e+00 0.000000e+00 4.165957e-05 5.024874e-05 0.000000e+00 5.024874e-05 -1.147378e-04 0.000000e+00 0.000000e+00 0.000000e+00 0.000000e+00 4.030764e-05 9.883364e-05 0.000000e+00 9.883364e-05 -1.168979e-04 0.000000e+00 0.000000e+00 0.000000e+00 0.000000e+00 3.115597e-05 1.322399e-04 0.000000e+00 1.322399e-04 -1.043032e-04 0.000000e+00 0.000000e+00 0.000000e+00 0.000000e+00 1.708326e-05 1.618753e-04 0.000000e+00 1.618753e-04 -8.925240e-05 0.000000e+00 0.000000e+00 0.000000e+00 0.000000e+00 -5.422454e-06 1.860010e-04 0.000000e+00 1.860010e-04 -5.786417e-05 0.000000e+00 0.000000e+00 0.000000e+00 0.000000e+00 -1.765292e-05 1.901116e-04 0.000000e+00 1.901116e-04 -2.942504e-05 0.000000e+00 0.000000e+00 0.000000e+00 0.000000e+00 -1.561833e-05 1.791804e-04 0.000000e+00 1.791804e-04 -1.118456e-05 0.000000e+00 0.000000e+00 0.000000e+00 0.000000e+00 5.199404e-06 1.670581e-04 0.000000e+00 1.670581e-04 -9.987251e-06 0.000000e+00 0.000000e+00 0.000000e+00 0.000000e+00 3.040172e-05 1.636352e-04 0.000000e+00 1.636352e-04 -1.532979e-05 0.000000e+00 0.000000e+00 0.000000e+00 0.000000e+00 5.419556e-05 1.666967e-04 0.000000e+00 1.666967e-04 -1.965863e-05 0.000000e+00 0.000000e+00 0.000000e+00 0.000000e+00 6.409216e-05 1.709681e-04 0.000000e+00 1.709681e-04 -1.548546e-05 0.000000e+00 0.000000e+00 0.000000e+00 0.000000e+00 6.145109e-05 1.701864e-04 0.000000e+00 1.701864e-04 -3.292740e-07 0.000000e+00 0.000000e+00 0.000000e+00 0.000000e+00 5.316791e-05 1.606111e-04 0.000000e+00 1.606111e-04 1.972800e-05 0.000000e+00 0.000000e+00 0.000000e+00 0.000000e+00 2.778627e-05 1.495167e-04 0.000000e+00 1.495167e-04 5.165590e-05 0.000000e+00 0.000000e+00 0.000000e+00 0.000000e+00 -8.377412e-06 1.081362e-04 0.000000e+00 1.081362e-04 7.720294e-05 0.000000e+00 0.000000e+00 0.000000e+00 0.000000e+00 -1.042601e-05 6.547174e-05 0.000000e+00 6.547174e-05 7.925136e-05 0.000000e+00 0.000000e+00 0.000000e+00 0.000000e+00 -1.965631e-05 2.792755e-05 0.000000e+00 2.792755e-05 7.503617e-05 0.000000e+00 0.000000e+00 0.000000e+00 0.000000e+00 -6.284593e-06 -6.034857e-06 0.000000e+00 -6.034857e-06 6.127651e-05 0.000000e+00 0.000000e+00 0.000000e+00 0.000000e+00 1.741939e-05 -2.158996e-05 0.000000e+00 -2.158996e-05 2.524038e-05 0.000000e+00 0.000000e+00 0.000000e+00 0.000000e+00 2.984597e-05 -1.555274e-05 0.000000e+00 -1.555274e-05 1.701403e-06 0.000000e+00 0.000000e+00 0.000000e+00 0.000000e+00 3.378151e-05 -9.380270e-07 0.000000e+00 -9.380270e-07 -1.447194e-05 0.000000e+00 0.000000e+00 0.000000e+00 0.000000e+00 2.619750e-05 1.277973e-05 0.000000e+00 1.277973e-05 -1.689295e-05 0.000000e+00 0.000000e+00 0.000000e+00 0.000000e+00 9.062939e-05 2.231616e-05 0.000000e+00 2.231616e-05 -2.845246e-04 0.000000e+00 0.000000e+00 0.000000e+00 0.000000e+00 4.240341e-06 1.796920e-05 0.000000e+00 1.796920e-05 -1.529187e-05 0.000000e+00 0.000000e+00 0.000000e+00 0.000000e+00 -8.820039e-06 1.146503e-06 0.000000e+00 1.146503e-06 -2.988484e-05 0.000000e+00 0.000000e+00 0.000000e+00 0.000000e+00 2.183315e-05 -4.515542e-06 0.000000e+00 -4.515542e-06 -9.517527e-05 0.000000e+00 0.000000e+00 0.000000e+00 0.000000e+00 5.368643e-05 7.501708e-05 0.000000e+00 7.501708e-05 -1.362182e-04 0.000000e+00 0.000000e+00 0.000000e+00 0.000000e+00 4.238458e-05 1.532079e-04 0.000000e+00 1.532079e-04 -1.155555e-04 0.000000e+00 0.000000e+00 0.000000e+00 0.000000e+00 -5.600930e-06 2.011733e-04 0.000000e+00 2.011733e-04 -5.039828e-05 0.000000e+00 0.000000e+00 0.000000e+00 0.000000e+00 -8.373648e-06 1.735814e-04 0.000000e+00 1.735814e-04 -1.267293e-05 0.000000e+00 0.000000e+00 0.000000e+00 0.000000e+00 4.521564e-05 1.649809e-04 0.000000e+00 1.649809e-04 -2.002987e-05 0.000000e+00 0.000000e+00 0.000000e+00 0.000000e+00 5.916863e-05 1.792091e-04 0.000000e+00 1.792091e-04 -7.331270e-07 0.000000e+00 0.000000e+00 0.000000e+00 0.000000e+00 4.478210e-05 1.681581e-04 0.000000e+00 1.681581e-04 2.488603e-05 0.000000e+00 0.000000e+00 0.000000e+00 0.000000e+00 2.891730e-06 1.438446e-04 0.000000e+00 1.438446e-04 8.079898e-05 0.000000e+00 0.000000e+00 0.000000e+00 0.000000e+00 -3.241837e-05 7.626227e-05 0.000000e+00 7.626227e-05 1.062201e-04 0.000000e+00 0.000000e+00 0.000000e+00 0.000000e+00 -2.549508e-05 1.314966e-05 0.000000e+00 1.314966e-05 9.445223e-05 0.000000e+00 0.000000e+00 0.000000e+00 0.000000e+00 2.650988e-05 -2.553000e-05 0.000000e+00 -2.553000e-05 1.488651e-05 0.000000e+00 0.000000e+00 0.000000e+00 0.000000e+00 3.561219e-05 5.795288e-06 0.000000e+00 5.795288e-06 -1.751780e-05 0.000000e+00 0.000000e+00 0.000000e+00 0.000000e+00 1.789564e-05 1.737749e-05 0.000000e+00 1.737749e-05 -1.609292e-05 0.000000e+00 0.000000e+00 0.000000e+00 0.000000e+00 6.792300e-05 2.311220e-04 0.000000e+00 2.311220e-04 -2.239189e-04 0.000000e+00 0.000000e+00 0.000000e+00 0.000000e+00 2.179944e-05 -8.742651e-05 0.000000e+00 -8.742651e-05 -4.233637e-05 0.000000e+00 0.000000e+00 0.000000e+00 0.000000e+00 -6.199415e-06 1.301132e-05 0.000000e+00 1.301132e-05 -1.774383e-05 0.000000e+00 0.000000e+00 0.000000e+00 0.000000e+00 -2.880683e-06 -1.036855e-05 0.000000e+00 -1.036855e-05 -5.368352e-05 0.000000e+00 0.000000e+00 0.000000e+00 0.000000e+00 5.702611e-05 2.626166e-05 0.000000e+00 2.626166e-05 -1.287122e-04 0.000000e+00 0.000000e+00 0.000000e+00 0.000000e+00 5.258281e-05 1.206092e-04 0.000000e+00 1.206092e-04 -1.301115e-04 0.000000e+00 0.000000e+00 0.000000e+00 0.000000e+00 1.363695e-05 1.834429e-04 0.000000e+00 1.834429e-04 -8.806999e-05 0.000000e+00 0.000000e+00 0.000000e+00 0.000000e+00 -2.137761e-05 1.903980e-04 0.000000e+00 1.903980e-04 -2.228515e-05 0.000000e+00 0.000000e+00 0.000000e+00 0.000000e+00 1.950617e-05 1.646585e-04 0.000000e+00 1.646585e-04 -1.549865e-05 0.000000e+00 0.000000e+00 0.000000e+00 0.000000e+00 5.957385e-05 1.739671e-04 0.000000e+00 1.739671e-04 -1.843496e-05 0.000000e+00 0.000000e+00 0.000000e+00 0.000000e+00 4.269134e-06 -1.918705e-05 0.000000e+00 -1.918705e-05 5.612517e-05 0.000000e+00 0.000000e+00 0.000000e+00 0.000000e+00 3.670777e-05 -1.154274e-05 0.000000e+00 -1.154274e-05 -5.572974e-06 0.000000e+00 0.000000e+00 0.000000e+00 0.000000e+00 -2.886577e-05 -6.769729e-05 0.000000e+00 -6.769729e-05 1.900650e-04 0.000000e+00 0.000000e+00 0.000000e+00 0.000000e+00 -2.225634e-06 -3.444576e-05 0.000000e+00 -3.444576e-05 -5.592941e-05 0.000000e+00 0.000000e+00 0.000000e+00 0.000000e+00 1.611028e-05 2.745043e-04 0.000000e+00 2.745043e-04 4.283316e-05 0.000000e+00 0.000000e+00 0.000000e+00 0.000000e+00 1.032194e-04 1.516906e-04 0.000000e+00 1.516906e-04 -1.915666e-04 0.000000e+00 0.000000e+00 0.000000e+00 0.000000e+00 -7.157270e-05 1.682427e-04 0.000000e+00 1.682427e-04 3.008565e-04 0.000000e+00 0.000000e+00 0.000000e+00 0.000000e+00 3.936196e-05 -2.417896e-05 0.000000e+00 -2.417896e-05 -1.517017e-04 0.000000e+00 0.000000e+00 0.000000e+00 0.000000e+00 8.396088e-05 6.385275e-05 0.000000e+00 6.385275e-05 -2.017184e-04 0.000000e+00 0.000000e+00 0.000000e+00 0.000000e+00 3.150619e-05 2.052155e-04 0.000000e+00 2.052155e-04 -1.316911e-04 0.000000e+00 0.000000e+00 0.000000e+00 0.000000e+00 1.375474e-06 1.855032e-04 0.000000e+00 1.855032e-04 -1.721491e-05 0.000000e+00 0.000000e+00 0.000000e+00 0.000000e+00 4.864008e-05 1.822394e-04 0.000000e+00 1.822394e-04 -1.960515e-05 0.000000e+00 0.000000e+00 0.000000e+00 0.000000e+00 6.269716e-07 -3.352277e-05 0.000000e+00 -3.352277e-05 9.140612e-05 0.000000e+00 0.000000e+00 0.000000e+00 0.000000e+00 -7.344949e-05 3.571799e-05 0.000000e+00 3.571799e-05 1.797682e-04 0.000000e+00 0.000000e+00 0.000000e+00 0.000000e+00 3.274672e-05 1.908965e-04 0.000000e+00 1.908965e-04 4.515516e-05 0.000000e+00 0.000000e+00 0.000000e+00 0.000000e+00 1.554866e-07 1.531339e-06 0.000000e+00 1.531339e-06 -2.792514e-05 0.000000e+00 0.000000e+00 0.000000e+00 0.000000e+00 1.623641e-05 6.592724e-06 0.000000e+00 6.592724e-06 -1.482060e-05 0.000000e+00 0.000000e+00 0.000000e+00 0.000000e+00 -1.934401e-05 2.179839e-04 0.000000e+00 2.179839e-04 -5.102947e-05 0.000000e+00 0.000000e+00 0.000000e+00 0.000000e+00 5.290495e-05 1.980783e-04 0.000000e+00 1.980783e-04 8.434728e-06 0.000000e+00 0.000000e+00 0.000000e+00 0.000000e+00 4.041284e-05 -2.813903e-05 0.000000e+00 -2.813903e-05 2.734698e-06 0.000000e+00 0.000000e+00 0.000000e+00 0.000000e+00 -3.176004e-05 1.557871e-04 0.000000e+00 1.557871e-04 1.594277e-04 0.000000e+00 0.000000e+00 0.000000e+00 0.000000e+00 1.924040e-05 2.372083e-04 0.000000e+00 2.372083e-04 7.203579e-05 0.000000e+00 0.000000e+00 0.000000e+00 0.000000e+00 </DataArray>
</PointData>
<CellData Scalars="" Vectors="" Tensors="" >
</CellData>
</Piece>
</UnstructuredGrid>
</VTKFile>