<!-- TimeStep 2 Computed 2021-08-30 at 9:26:11 -->
<VTKFile type="UnstructuredGrid" version="0.1" byte_order="LittleEndian">
<UnstructuredGrid>
<Piece NumberOfPoints="658" NumberOfCells="1187">
<Points>
 <DataArray type="Float64" NumberOfComponents="3" format="ascii"> 3.225000e-02 1.380000e-02 0.000000e+00 3.850000e-02 2.000000e-03 0.000000e+00 1.790000e-02 2.000000e-03 0.000000e+00 3.850000e-02 3.000000e-02 0.000000e+00 1.610000e-02 5.000000e-04 0.000000e+00 -2.400000e-02 3.000000e-02 0.000000e+00 0.000000e+00 0.000000e+00 0.000000e+00 -2.400000e-02 0.000000e+00 0.000000e+00 3.209060e-02 1.520260e-02 0.000000e+00 3.166140e-02 1.644790e-02 0.000000e+00 3.086510e-02 1.772340e-02 0.000000e+00 2.972250e-02 1.882050e-02 0.000000e+00 2.860520e-02 1.948120e-02 0.000000e+00 2.719700e-02 1.993430e-02 0.000000e+00 2.590380e-02 2.004930e-02 0.000000e+00 2.457020e-02 1.988430e-02 0.000000e+00 2.332460e-02 1.944840e-02 0.000000e+00 2.208010e-02 1.866800e-02 0.000000e+00 2.105550e-02 1.762290e-02 0.000000e+00 2.030070e-02 1.636520e-02 0.000000e+00 1.988720e-02 1.510250e-02 0.000000e+00 1.975010e-02 1.376650e-02 0.000000e+00 1.990830e-02 1.240220e-02 0.000000e+00 2.036540e-02 1.109550e-02 0.000000e+00 2.111820e-02 9.897330e-03 0.000000e+00 2.206020e-02 8.948140e-03 0.000000e+00 2.327140e-02 8.177090e-03 0.000000e+00 2.473380e-02 7.679600e-03 0.000000e+00 2.609570e-02 7.550730e-03 0.000000e+00 2.739940e-02 7.708680e-03 0.000000e+00 2.878200e-02 8.203300e-03 0.000000e+00 2.990320e-02 8.918690e-03 0.000000e+00 3.088920e-02 9.906670e-03 0.000000e+00 3.160900e-02 1.104290e-02 0.000000e+00 3.210220e-02 1.244870e-02 0.000000e+00 -2.400000e-02 2.335620e-02 0.000000e+00 -2.400000e-02 1.701100e-02 0.000000e+00 -2.400000e-02 1.072240e-02 0.000000e+00 -2.400000e-02 4.857510e-03 0.000000e+00 2.555380e-03 7.935950e-05 0.000000e+00 4.875910e-03 1.514260e-04 0.000000e+00 6.963700e-03 2.162640e-04 0.000000e+00 8.859870e-03 2.751510e-04 0.000000e+00 1.057630e-02 3.284580e-04 0.000000e+00 1.216970e-02 3.779410e-04 0.000000e+00 1.361520e-02 4.228320e-04 0.000000e+00 1.491400e-02 4.631670e-04 0.000000e+00 3.513720e-02 3.000000e-02 0.000000e+00 3.240430e-02 3.000000e-02 0.000000e+00 2.925060e-02 3.000000e-02 0.000000e+00 2.634890e-02 3.000000e-02 0.000000e+00 2.370540e-02 3.000000e-02 0.000000e+00 2.076670e-02 3.000000e-02 0.000000e+00 1.724780e-02 3.000000e-02 0.000000e+00 1.387080e-02 3.000000e-02 0.000000e+00 1.012770e-02 3.000000e-02 0.000000e+00 5.994200e-03 3.000000e-02 0.000000e+00 1.449760e-03 3.000000e-02 0.000000e+00 -3.587440e-03 3.000000e-02 0.000000e+00 -1.004840e-02 3.000000e-02 0.000000e+00 -1.697880e-02 3.000000e-02 0.000000e+00 1.699120e-02 1.242700e-03 0.000000e+00 3.850000e-02 5.026050e-03 0.000000e+00 3.850000e-02 7.576210e-03 0.000000e+00 3.850000e-02 9.994300e-03 0.000000e+00 3.850000e-02 1.226100e-02 0.000000e+00 3.850000e-02 1.414740e-02 0.000000e+00 3.850000e-02 1.624580e-02 0.000000e+00 3.850000e-02 1.834310e-02 0.000000e+00 3.850000e-02 2.066490e-02 0.000000e+00 3.850000e-02 2.323650e-02 0.000000e+00 3.850000e-02 2.633950e-02 0.000000e+00 1.914730e-02 2.000000e-03 0.000000e+00 2.068130e-02 2.000000e-03 0.000000e+00 2.253900e-02 2.000000e-03 0.000000e+00 2.480250e-02 2.000000e-03 0.000000e+00 2.727520e-02 2.000000e-03 0.000000e+00 3.001300e-02 2.000000e-03 0.000000e+00 3.284600e-02 2.000000e-03 0.000000e+00 3.556410e-02 2.000000e-03 0.000000e+00 -2.352000e-02 0.000000e+00 0.000000e+00 -2.304000e-02 0.000000e+00 0.000000e+00 -2.256000e-02 0.000000e+00 0.000000e+00 -2.208000e-02 0.000000e+00 0.000000e+00 -2.160000e-02 0.000000e+00 0.000000e+00 -2.112000e-02 0.000000e+00 0.000000e+00 -2.064000e-02 0.000000e+00 0.000000e+00 -2.016000e-02 0.000000e+00 0.000000e+00 -1.968000e-02 0.000000e+00 0.000000e+00 -1.920000e-02 0.000000e+00 0.000000e+00 -1.872000e-02 0.000000e+00 0.000000e+00 -1.824000e-02 0.000000e+00 0.000000e+00 -1.776000e-02 0.000000e+00 0.000000e+00 -1.728000e-02 0.000000e+00 0.000000e+00 -1.680000e-02 0.000000e+00 0.000000e+00 -1.632000e-02 0.000000e+00 0.000000e+00 -1.584000e-02 0.000000e+00 0.000000e+00 -1.536000e-02 0.000000e+00 0.000000e+00 -1.488000e-02 0.000000e+00 0.000000e+00 -1.440000e-02 0.000000e+00 0.000000e+00 -1.392000e-02 0.000000e+00 0.000000e+00 -1.344000e-02 0.000000e+00 0.000000e+00 -1.296000e-02 0.000000e+00 0.000000e+00 -1.248000e-02 0.000000e+00 0.000000e+00 -1.200000e-02 0.000000e+00 0.000000e+00 -1.152000e-02 0.000000e+00 0.000000e+00 -1.104000e-02 0.000000e+00 0.000000e+00 -1.056000e-02 0.000000e+00 0.000000e+00 -1.008000e-02 0.000000e+00 0.000000e+00 -9.600000e-03 0.000000e+00 0.000000e+00 -9.120000e-03 0.000000e+00 0.000000e+00 -8.640000e-03 0.000000e+00 0.000000e+00 -8.160000e-03 0.000000e+00 0.000000e+00 -7.680000e-03 0.000000e+00 0.000000e+00 -7.200000e-03 0.000000e+00 0.000000e+00 -6.720000e-03 0.000000e+00 0.000000e+00 -6.240000e-03 0.000000e+00 0.000000e+00 -5.760000e-03 0.000000e+00 0.000000e+00 -5.280000e-03 0.000000e+00 0.000000e+00 -4.800000e-03 0.000000e+00 0.000000e+00 -4.320000e-03 0.000000e+00 0.000000e+00 -3.840000e-03 0.000000e+00 0.000000e+00 -3.360000e-03 0.000000e+00 0.000000e+00 -2.880000e-03 0.000000e+00 0.000000e+00 -2.400000e-03 0.000000e+00 0.000000e+00 -1.920000e-03 0.000000e+00 0.000000e+00 -1.440000e-03 0.000000e+00 0.000000e+00 -9.600000e-04 0.000000e+00 0.000000e+00 -4.800000e-04 0.000000e+00 0.000000e+00 -2.340000e-02 5.208130e-04 0.000000e+00 -2.232960e-02 4.618260e-04 0.000000e+00 -2.136950e-02 4.810430e-04 0.000000e+00 -2.041540e-02 4.927590e-04 0.000000e+00 -1.945300e-02 4.966680e-04 0.000000e+00 -1.848070e-02 4.958900e-04 0.000000e+00 -1.751710e-02 4.691530e-04 0.000000e+00 -1.656600e-02 4.678350e-04 0.000000e+00 -1.561650e-02 4.775930e-04 0.000000e+00 -1.465390e-02 4.891080e-04 0.000000e+00 -1.370270e-02 4.971550e-04 0.000000e+00 -1.272340e-02 4.842530e-04 0.000000e+00 -1.178010e-02 4.967790e-04 0.000000e+00 -1.080540e-02 4.845440e-04 0.000000e+00 -9.864580e-03 4.765300e-04 0.000000e+00 -8.865750e-03 4.840670e-04 0.000000e+00 -7.905730e-03 5.011730e-04 0.000000e+00 -6.950840e-03 4.922920e-04 0.000000e+00 -6.019280e-03 4.246020e-04 0.000000e+00 -5.025350e-03 4.728720e-04 0.000000e+00 -4.065420e-03 4.835660e-04 0.000000e+00 -3.128960e-03 4.451670e-04 0.000000e+00 -2.171430e-03 4.762830e-04 0.000000e+00 -1.187460e-03 5.232410e-04 0.000000e+00 -1.169200e-04 6.148440e-04 0.000000e+00 5.857940e-03 1.696520e-03 0.000000e+00 9.466970e-03 1.890640e-03 0.000000e+00 1.285950e-02 1.842540e-03 0.000000e+00 1.567970e-02 1.589100e-03 0.000000e+00 1.654450e-02 2.586790e-03 0.000000e+00 1.870650e-02 3.039180e-03 0.000000e+00 2.161510e-02 3.508730e-03 0.000000e+00 2.644280e-02 3.572340e-03 0.000000e+00 3.127720e-02 3.918880e-03 0.000000e+00 3.629790e-02 5.896780e-03 0.000000e+00 3.653930e-02 1.078160e-02 0.000000e+00 3.658270e-02 1.517420e-02 0.000000e+00 3.649690e-02 1.966800e-02 0.000000e+00 3.564140e-02 2.453050e-02 0.000000e+00 3.471780e-02 2.738170e-02 0.000000e+00 3.097490e-02 2.763820e-02 0.000000e+00 2.500050e-02 2.778260e-02 0.000000e+00 1.911390e-02 2.734780e-02 0.000000e+00 1.195580e-02 2.690690e-02 0.000000e+00 3.452650e-03 2.633780e-02 0.000000e+00 -7.324260e-03 2.613160e-02 0.000000e+00 -1.270890e-02 2.610200e-02 0.000000e+00 -1.842590e-02 2.481480e-02 0.000000e+00 -2.078380e-02 2.023790e-02 0.000000e+00 3.351880e-02 1.299650e-02 0.000000e+00 3.321610e-02 1.125410e-02 0.000000e+00 3.240270e-02 9.708370e-03 0.000000e+00 3.124550e-02 8.531210e-03 0.000000e+00 2.994440e-02 7.484320e-03 0.000000e+00 2.846950e-02 6.692040e-03 0.000000e+00 2.682410e-02 6.398290e-03 0.000000e+00 2.522120e-02 6.457060e-03 0.000000e+00 2.358330e-02 6.768300e-03 0.000000e+00 2.202220e-02 7.395140e-03 0.000000e+00 2.065990e-02 8.488800e-03 0.000000e+00 1.961080e-02 9.755280e-03 0.000000e+00 1.888420e-02 1.131290e-02 0.000000e+00 1.849530e-02 1.294410e-02 0.000000e+00 1.849360e-02 1.454180e-02 0.000000e+00 1.881370e-02 1.618350e-02 0.000000e+00 1.956540e-02 1.777080e-02 0.000000e+00 2.064850e-02 1.913430e-02 0.000000e+00 2.199860e-02 2.018520e-02 0.000000e+00 2.351120e-02 2.085000e-02 0.000000e+00 2.512340e-02 2.121420e-02 0.000000e+00 2.667170e-02 2.118690e-02 0.000000e+00 2.831550e-02 2.085570e-02 0.000000e+00 2.991870e-02 2.021780e-02 0.000000e+00 3.132950e-02 1.919600e-02 0.000000e+00 3.236480e-02 1.776990e-02 0.000000e+00 3.311520e-02 1.621600e-02 0.000000e+00 3.347840e-02 1.467100e-02 0.000000e+00 -2.284400e-02 4.893670e-04 0.000000e+00 -2.185120e-02 4.651270e-04 0.000000e+00 -2.087950e-02 4.954800e-04 0.000000e+00 -1.992730e-02 4.905700e-04 0.000000e+00 -1.896440e-02 5.146960e-04 0.000000e+00 -1.799490e-02 4.750100e-04 0.000000e+00 -1.705020e-02 4.652250e-04 0.000000e+00 -1.607800e-02 4.701420e-04 0.000000e+00 -1.512950e-02 4.852050e-04 0.000000e+00 -1.419440e-02 4.972290e-04 0.000000e+00 -1.320410e-02 4.845360e-04 0.000000e+00 -1.225140e-02 4.886650e-04 0.000000e+00 -1.130790e-02 4.924130e-04 0.000000e+00 -1.033120e-02 4.774360e-04 0.000000e+00 -9.365120e-03 4.775410e-04 0.000000e+00 -8.389860e-03 4.925440e-04 0.000000e+00 -7.442720e-03 5.065380e-04 0.000000e+00 -6.466490e-03 4.625650e-04 0.000000e+00 -5.527350e-03 4.204680e-04 0.000000e+00 -4.553670e-03 4.855930e-04 0.000000e+00 -3.599350e-03 4.758930e-04 0.000000e+00 -2.637330e-03 4.397930e-04 0.000000e+00 -1.676010e-03 4.983490e-04 0.000000e+00 -6.774770e-04 5.559640e-04 0.000000e+00 4.116400e-03 1.544720e-03 0.000000e+00 7.691210e-03 1.775840e-03 0.000000e+00 1.126030e-02 1.890640e-03 0.000000e+00 1.429970e-02 1.759220e-03 0.000000e+00 1.756480e-02 3.582850e-03 0.000000e+00 1.998660e-02 3.276390e-03 0.000000e+00 2.393340e-02 3.733490e-03 0.000000e+00 2.887110e-02 3.696960e-03 0.000000e+00 3.388150e-02 4.409110e-03 0.000000e+00 3.644040e-02 8.532590e-03 0.000000e+00 3.666220e-02 1.303330e-02 0.000000e+00 3.624470e-02 1.730480e-02 0.000000e+00 3.612270e-02 2.204020e-02 0.000000e+00 1.561920e-02 2.705730e-02 0.000000e+00 2.783560e-02 2.771860e-02 0.000000e+00 2.222260e-02 2.767250e-02 0.000000e+00 7.971510e-03 2.667810e-02 0.000000e+00 -1.457570e-03 2.572150e-02 0.000000e+00 -2.083080e-02 1.620770e-02 0.000000e+00 -2.114540e-02 1.046000e-03 0.000000e+00 -2.018830e-02 1.019380e-03 0.000000e+00 -1.681430e-02 9.910220e-04 0.000000e+00 -1.776950e-02 9.521010e-04 0.000000e+00 -2.067570e-02 1.052860e-03 0.000000e+00 -1.727630e-02 9.377480e-04 0.000000e+00 -1.823140e-02 1.032910e-03 0.000000e+00 -1.298260e-02 9.876760e-04 0.000000e+00 -1.396810e-02 1.067390e-03 0.000000e+00 -2.457830e-03 9.476930e-04 0.000000e+00 -1.347010e-02 1.016030e-03 0.000000e+00 -1.445740e-02 1.046670e-03 0.000000e+00 -1.107320e-02 1.059790e-03 0.000000e+00 -1.011690e-02 9.539410e-04 0.000000e+00 -1.056780e-02 1.013760e-03 0.000000e+00 -1.157310e-02 1.056340e-03 0.000000e+00 -8.623990e-03 1.038970e-03 0.000000e+00 -6.189430e-03 9.536710e-04 0.000000e+00 -7.664510e-03 1.040370e-03 0.000000e+00 -6.660790e-03 1.046330e-03 0.000000e+00 -3.328320e-03 9.685660e-04 0.000000e+00 -4.327420e-03 1.042660e-03 0.000000e+00 -7.157010e-03 1.050700e-03 0.000000e+00 -3.803170e-03 1.020190e-03 0.000000e+00 -4.831560e-03 1.021450e-03 0.000000e+00 -2.891810e-03 8.524400e-04 0.000000e+00 8.485410e-03 3.432940e-03 0.000000e+00 -3.736620e-04 1.188990e-03 0.000000e+00 1.208400e-02 3.413080e-03 0.000000e+00 6.715380e-03 3.280840e-03 0.000000e+00 4.997270e-03 3.185510e-03 0.000000e+00 -9.151520e-04 1.111380e-03 0.000000e+00 1.030580e-02 3.489760e-03 0.000000e+00 2.705650e-03 1.522090e-03 0.000000e+00 2.039490e-02 4.933730e-03 0.000000e+00 1.519830e-02 3.004380e-03 0.000000e+00 1.884210e-02 4.425300e-03 0.000000e+00 3.358290e-02 2.277120e-02 0.000000e+00 2.225360e-02 5.511080e-03 0.000000e+00 3.485680e-02 1.890660e-02 0.000000e+00 3.491090e-02 1.193930e-02 0.000000e+00 3.000610e-02 5.643160e-03 0.000000e+00 3.235230e-02 5.887860e-03 0.000000e+00 -2.209940e-02 9.181730e-04 0.000000e+00 3.445720e-02 7.084320e-03 0.000000e+00 3.439750e-02 9.622150e-03 0.000000e+00 2.104510e-02 2.526260e-02 0.000000e+00 3.428480e-02 2.067350e-02 0.000000e+00 2.375500e-02 2.570570e-02 0.000000e+00 1.776660e-02 2.436660e-02 0.000000e+00 3.252570e-02 2.530750e-02 0.000000e+00 1.000040e-02 2.369430e-02 0.000000e+00 -5.222370e-03 2.226790e-02 0.000000e+00 2.623900e-02 2.582870e-02 0.000000e+00 1.372330e-02 2.413330e-02 0.000000e+00 -9.640430e-03 2.255880e-02 0.000000e+00 -1.822220e-02 1.811490e-02 0.000000e+00 -1.412820e-02 2.232400e-02 0.000000e+00 -2.161440e-02 9.727400e-04 0.000000e+00 -8.127090e-03 1.038090e-03 0.000000e+00 5.986810e-04 8.564660e-04 0.000000e+00 2.919940e-02 2.548060e-02 0.000000e+00 -2.219370e-02 1.372400e-02 0.000000e+00 -1.584900e-02 9.464230e-04 0.000000e+00 3.277780e-02 8.016360e-03 0.000000e+00 3.130570e-02 7.065650e-03 0.000000e+00 2.773290e-02 5.134820e-03 0.000000e+00 2.416750e-02 5.438660e-03 0.000000e+00 2.051830e-02 6.767480e-03 0.000000e+00 1.794570e-02 9.989900e-03 0.000000e+00 1.698810e-02 1.376450e-02 0.000000e+00 1.769270e-02 1.761110e-02 0.000000e+00 1.884300e-02 1.943280e-02 0.000000e+00 2.041690e-02 2.092300e-02 0.000000e+00 2.214210e-02 2.190840e-02 0.000000e+00 2.592160e-02 2.259040e-02 0.000000e+00 2.774100e-02 2.232700e-02 0.000000e+00 2.968140e-02 2.187400e-02 0.000000e+00 3.309810e-02 1.924490e-02 0.000000e+00 3.412190e-02 1.750290e-02 0.000000e+00 1.570410e-03 8.416660e-04 0.000000e+00 3.243440e-03 3.109830e-03 0.000000e+00 -2.011680e-02 1.340120e-02 0.000000e+00 1.924930e-03 2.296040e-03 0.000000e+00 -2.304690e-02 1.038930e-03 0.000000e+00 -1.921250e-02 1.069290e-03 0.000000e+00 -1.251460e-02 1.011640e-03 0.000000e+00 -1.632520e-02 9.725270e-04 0.000000e+00 -9.608800e-03 9.760010e-04 0.000000e+00 -5.775390e-03 8.260340e-04 0.000000e+00 1.949790e-04 1.244240e-03 0.000000e+00 1.366400e-02 3.254490e-03 0.000000e+00 -1.954400e-03 9.997400e-04 0.000000e+00 5.956210e-03 2.320340e-02 0.000000e+00 1.613680e-02 4.138020e-03 0.000000e+00 -2.159150e-02 1.135960e-02 0.000000e+00 -1.862070e-02 1.532320e-02 0.000000e+00 -1.969900e-02 1.013850e-03 0.000000e+00 -1.429360e-03 2.184690e-02 0.000000e+00 8.938000e-04 1.758100e-03 0.000000e+00 -1.739860e-02 2.105290e-02 0.000000e+00 3.503010e-02 1.390550e-02 0.000000e+00 -1.538560e-02 9.531990e-04 0.000000e+00 3.477560e-02 1.583430e-02 0.000000e+00 3.186090e-02 2.104080e-02 0.000000e+00 2.402810e-02 2.247280e-02 0.000000e+00 2.043580e-02 2.297850e-02 0.000000e+00 1.712150e-02 1.568790e-02 0.000000e+00 1.719890e-02 1.184250e-02 0.000000e+00 1.891820e-02 8.124710e-03 0.000000e+00 2.580970e-02 5.034100e-03 0.000000e+00 -2.258690e-02 9.559390e-04 0.000000e+00 -1.871690e-02 1.070390e-03 0.000000e+00 -1.490240e-02 9.781250e-04 0.000000e+00 -1.203480e-02 1.046550e-03 0.000000e+00 -9.143920e-03 1.022430e-03 0.000000e+00 -5.328750e-03 9.594130e-04 0.000000e+00 -1.443410e-03 1.043280e-03 0.000000e+00 1.969480e-03 2.272860e-02 0.000000e+00 -2.071300e-02 9.788950e-03 0.000000e+00 -1.958230e-02 1.116720e-02 0.000000e+00 -2.215760e-02 9.118380e-03 0.000000e+00 -1.941500e-02 9.053100e-03 0.000000e+00 -2.076380e-02 8.120110e-03 0.000000e+00 -2.092830e-02 1.670000e-03 0.000000e+00 -1.422850e-02 1.696350e-03 0.000000e+00 -4.658650e-03 1.607000e-03 0.000000e+00 -1.132350e-02 1.693630e-03 0.000000e+00 4.262890e-03 1.984380e-02 0.000000e+00 -6.266330e-03 1.609810e-03 0.000000e+00 9.347380e-03 5.186120e-03 0.000000e+00 -1.652640e-02 1.692530e-03 0.000000e+00 7.541480e-03 5.084430e-03 0.000000e+00 1.748270e-02 5.199610e-03 0.000000e+00 1.306590e-02 4.915860e-03 0.000000e+00 2.080530e-05 1.841260e-03 0.000000e+00 1.469850e-02 4.628130e-03 0.000000e+00 5.792460e-03 4.871950e-03 0.000000e+00 -6.440500e-04 1.784460e-03 0.000000e+00 1.127780e-02 5.148840e-03 0.000000e+00 1.085750e-03 2.955270e-03 0.000000e+00 -3.179300e-03 1.891810e-02 0.000000e+00 2.274260e-02 2.375350e-02 0.000000e+00 8.310980e-03 2.037610e-02 0.000000e+00 -1.755530e-02 1.298870e-02 0.000000e+00 -1.950490e-02 1.671430e-03 0.000000e+00 -1.797420e-02 1.554430e-03 0.000000e+00 -1.151340e-02 1.943950e-02 0.000000e+00 1.890250e-02 6.092260e-03 0.000000e+00 4.184220e-03 4.874160e-03 0.000000e+00 2.495010e-02 2.409630e-02 0.000000e+00 1.570090e-02 1.714030e-02 0.000000e+00 1.539290e-02 1.272360e-02 0.000000e+00 -1.622490e-02 1.607980e-02 0.000000e+00 -1.513740e-02 1.901560e-02 0.000000e+00 1.709160e-02 8.657140e-03 0.000000e+00 1.574290e-02 1.018820e-02 0.000000e+00 1.540270e-02 1.492700e-02 0.000000e+00 1.656690e-02 1.939380e-02 0.000000e+00 1.823450e-02 2.152830e-02 0.000000e+00 2.704170e-02 2.404070e-02 0.000000e+00 2.896550e-02 2.347080e-02 0.000000e+00 -1.967140e-02 7.179610e-03 0.000000e+00 -1.783480e-02 1.020500e-02 0.000000e+00 -7.187160e-03 1.861690e-02 0.000000e+00 -2.042350e-02 1.621020e-03 0.000000e+00 -8.891590e-03 1.690860e-03 0.000000e+00 -1.473500e-02 1.624080e-03 0.000000e+00 -1.708810e-02 1.535920e-03 0.000000e+00 -1.280550e-02 1.533350e-03 0.000000e+00 -6.817630e-03 1.658350e-03 0.000000e+00 -5.205250e-03 1.561040e-03 0.000000e+00 -1.185630e-03 1.677410e-03 0.000000e+00 -3.512550e-03 1.587410e-03 0.000000e+00 -1.032760e-02 1.560550e-03 0.000000e+00 -7.360100e-03 1.597090e-03 0.000000e+00 -1.324550e-02 1.468750e-03 0.000000e+00 -2.907030e-03 1.434130e-03 0.000000e+00 -1.996470e-02 1.519740e-03 0.000000e+00 1.931370e-03 3.789880e-03 0.000000e+00 -4.079750e-03 1.619410e-03 0.000000e+00 1.197440e-02 2.104740e-02 0.000000e+00 -1.897920e-02 1.758730e-03 0.000000e+00 -7.886370e-03 1.578040e-03 0.000000e+00 3.103830e-02 2.336140e-02 0.000000e+00 -5.761230e-03 1.376150e-03 0.000000e+00 1.734660e-02 6.968860e-03 0.000000e+00 -1.183840e-02 1.658460e-03 0.000000e+00 -8.375160e-03 1.643890e-03 0.000000e+00 1.398700e-02 1.888430e-02 0.000000e+00 -1.754320e-02 1.377420e-03 0.000000e+00 -2.145750e-02 1.634970e-03 0.000000e+00 -1.560810e-02 1.497140e-03 0.000000e+00 -1.845720e-02 1.726330e-03 0.000000e+00 5.418650e-04 1.925980e-02 0.000000e+00 -9.876720e-03 1.465750e-03 0.000000e+00 -2.303880e-03 1.532840e-03 0.000000e+00 2.755290e-03 5.104590e-03 0.000000e+00 -2.280550e-02 1.623090e-03 0.000000e+00 -1.606410e-02 1.427410e-03 0.000000e+00 -2.188640e-02 1.411010e-03 0.000000e+00 -2.094230e-02 6.373350e-03 0.000000e+00 -2.232220e-02 1.406430e-03 0.000000e+00 -1.081290e-02 1.633740e-03 0.000000e+00 -1.370450e-02 1.654570e-03 0.000000e+00 1.528360e-02 2.157820e-02 0.000000e+00 -2.187280e-02 7.259610e-03 0.000000e+00 -1.815370e-02 8.007390e-03 0.000000e+00 -2.242760e-02 5.441030e-03 0.000000e+00 -2.111880e-02 4.871500e-03 0.000000e+00 -2.197930e-02 4.152140e-03 0.000000e+00 -2.116740e-02 3.600850e-03 0.000000e+00 -2.203540e-02 3.076390e-03 0.000000e+00 -2.023470e-02 4.145160e-03 0.000000e+00 -2.127800e-02 2.452930e-03 0.000000e+00 -2.298410e-02 3.664980e-03 0.000000e+00 -2.270040e-02 2.460280e-03 0.000000e+00 -1.999070e-02 5.511250e-03 0.000000e+00 -2.206850e-02 2.053180e-03 0.000000e+00 -1.517820e-02 1.440220e-03 0.000000e+00 -1.231230e-02 1.598230e-03 0.000000e+00 6.595770e-03 1.685960e-02 0.000000e+00 -1.592540e-02 2.049480e-03 0.000000e+00 -9.423340e-03 1.617440e-03 0.000000e+00 -1.759700e-03 1.588040e-03 0.000000e+00 1.584660e-02 5.852590e-03 0.000000e+00 -1.573680e-02 1.125250e-02 0.000000e+00 1.028020e-02 7.063320e-03 0.000000e+00 -3.487310e-04 2.505800e-03 0.000000e+00 1.069450e-02 1.770910e-02 0.000000e+00 -1.474740e-02 1.397010e-02 0.000000e+00 -3.193340e-03 2.222860e-03 0.000000e+00 3.816860e-04 2.456360e-03 0.000000e+00 1.558350e-02 7.891870e-03 0.000000e+00 -2.062510e-02 2.214170e-03 0.000000e+00 -2.300510e-02 7.309920e-03 0.000000e+00 4.943630e-03 6.312230e-03 0.000000e+00 7.693650e-04 4.169100e-03 0.000000e+00 -2.045950e-02 3.007890e-03 0.000000e+00 -1.320390e-02 1.673890e-02 0.000000e+00 1.362080e-02 1.162150e-02 0.000000e+00 -1.951950e-02 3.249670e-03 0.000000e+00 8.291150e-03 7.213000e-03 0.000000e+00 -1.266920e-02 2.089280e-03 0.000000e+00 1.509320e-03 5.134000e-03 0.000000e+00 -1.527330e-02 2.093450e-03 0.000000e+00 2.634420e-03 1.638980e-02 0.000000e+00 -5.045840e-03 2.218060e-03 0.000000e+00 1.032670e-04 3.309100e-03 0.000000e+00 -7.065010e-03 2.281640e-03 0.000000e+00 -8.640040e-03 2.326170e-03 0.000000e+00 -9.974600e-04 2.426710e-03 0.000000e+00 -1.392370e-02 2.394960e-03 0.000000e+00 6.425320e-03 6.836580e-03 0.000000e+00 1.368060e-02 8.944580e-03 0.000000e+00 -1.324990e-02 2.163790e-03 0.000000e+00 3.459150e-03 6.713730e-03 0.000000e+00 1.420770e-02 6.458950e-03 0.000000e+00 -2.642010e-03 2.036210e-03 0.000000e+00 1.236770e-02 6.799520e-03 0.000000e+00 -2.000000e-02 2.247710e-03 0.000000e+00 -3.838250e-03 2.305580e-03 0.000000e+00 -1.048460e-02 2.166750e-03 0.000000e+00 -7.605190e-03 2.079640e-03 0.000000e+00 -1.458780e-02 2.330800e-03 0.000000e+00 -1.809020e-02 2.261400e-03 0.000000e+00 -1.160560e-02 2.374400e-03 0.000000e+00 -2.345370e-02 1.689690e-03 0.000000e+00 -1.919820e-02 4.653410e-03 0.000000e+00 -1.641330e-02 2.565530e-03 0.000000e+00 -1.756040e-02 1.950690e-03 0.000000e+00 -9.899080e-04 1.629390e-02 0.000000e+00 -1.101460e-02 2.356260e-03 0.000000e+00 1.356170e-02 1.392670e-02 0.000000e+00 -4.430740e-03 2.157270e-03 0.000000e+00 -1.934050e-02 2.352940e-03 0.000000e+00 -9.909980e-03 2.184850e-03 0.000000e+00 -4.350210e-03 1.600370e-02 0.000000e+00 -1.867810e-02 6.202350e-03 0.000000e+00 -1.219210e-02 2.273370e-03 0.000000e+00 -2.181920e-03 1.363960e-02 0.000000e+00 -1.701680e-02 2.237570e-03 0.000000e+00 -9.988580e-03 1.660220e-02 0.000000e+00 -9.258230e-03 2.324560e-03 0.000000e+00 -5.729720e-03 2.037550e-03 0.000000e+00 -1.647890e-02 9.011350e-03 0.000000e+00 -1.573620e-02 2.768090e-03 0.000000e+00 -1.315450e-02 1.204400e-02 0.000000e+00 -1.870420e-02 2.625320e-03 0.000000e+00 9.245580e-03 9.447760e-03 0.000000e+00 4.851590e-03 8.089660e-03 0.000000e+00 -8.097740e-03 2.235490e-03 0.000000e+00 -7.309900e-03 1.525420e-02 0.000000e+00 6.793080e-03 9.005710e-03 0.000000e+00 -1.852220e-02 3.799150e-03 0.000000e+00 1.357970e-02 1.634240e-02 0.000000e+00 -8.909860e-03 3.032160e-03 0.000000e+00 -1.788630e-02 5.150740e-03 0.000000e+00 -1.700150e-02 6.826470e-03 0.000000e+00 1.152840e-02 1.296890e-02 0.000000e+00 -6.360720e-03 2.399370e-03 0.000000e+00 4.561470e-03 1.344060e-02 0.000000e+00 8.747560e-03 1.435930e-02 0.000000e+00 1.156160e-02 1.514880e-02 0.000000e+00 -5.545620e-03 2.829420e-03 0.000000e+00 9.692160e-04 1.365760e-02 0.000000e+00 -5.239460e-03 1.322120e-02 0.000000e+00 -8.202260e-03 2.967140e-03 0.000000e+00 -1.709630e-02 3.087160e-03 0.000000e+00 1.709990e-03 6.891740e-03 0.000000e+00 -8.415540e-04 3.270690e-03 0.000000e+00 -6.923600e-03 3.038420e-03 0.000000e+00 -1.543670e-03 2.192360e-03 0.000000e+00 -1.207480e-02 3.051020e-03 0.000000e+00 -2.100420e-03 2.218900e-03 0.000000e+00 1.160490e-02 1.070880e-02 0.000000e+00 -1.533530e-02 7.875990e-03 0.000000e+00 -4.408490e-04 4.294140e-03 0.000000e+00 -1.183060e-02 1.440060e-02 0.000000e+00 -1.410050e-02 9.592400e-03 0.000000e+00 -3.500260e-03 3.046370e-03 0.000000e+00 -1.045890e-02 2.970590e-03 0.000000e+00 1.140890e-02 8.662630e-03 0.000000e+00 -1.438500e-02 3.322090e-03 0.000000e+00 -9.675450e-03 3.028560e-03 0.000000e+00 -4.540410e-03 2.965630e-03 0.000000e+00 -1.129200e-02 3.131170e-03 0.000000e+00 -1.758150e-02 2.555930e-03 0.000000e+00 -9.492890e-03 1.429740e-02 0.000000e+00 -1.632830e-02 3.443940e-03 0.000000e+00 -1.797410e-02 3.114580e-03 0.000000e+00 -1.347750e-02 3.099040e-03 0.000000e+00 2.259820e-04 5.677470e-03 0.000000e+00 -2.640870e-03 2.795250e-03 0.000000e+00 -1.274080e-02 2.757440e-03 0.000000e+00 -7.886550e-03 1.250410e-02 0.000000e+00 -1.644270e-02 5.346590e-03 0.000000e+00 -1.184280e-02 3.958520e-03 0.000000e+00 -1.174620e-02 1.050750e-02 0.000000e+00 -1.514600e-02 6.326280e-03 0.000000e+00 -6.203070e-03 3.226220e-03 0.000000e+00 -1.506810e-02 2.845480e-03 0.000000e+00 -1.063540e-02 1.246320e-02 0.000000e+00 -7.590500e-03 2.755570e-03 0.000000e+00 2.870920e-03 8.759280e-03 0.000000e+00 -1.725650e-02 4.106950e-03 0.000000e+00 -1.560390e-03 4.085660e-03 0.000000e+00 -5.468920e-03 3.836080e-03 0.000000e+00 -6.703370e-03 3.935240e-03 0.000000e+00 -3.376270e-03 1.124270e-02 0.000000e+00 7.156370e-03 1.158260e-02 0.000000e+00 -1.761550e-03 3.002010e-03 0.000000e+00 -4.089830e-03 3.905360e-03 0.000000e+00 -1.371550e-02 7.524910e-03 0.000000e+00 -1.367380e-02 4.248310e-03 0.000000e+00 -8.368120e-03 3.867030e-03 0.000000e+00 -1.171170e-03 5.217830e-03 0.000000e+00 -4.857990e-03 4.848200e-03 0.000000e+00 -1.090300e-02 4.029160e-03 0.000000e+00 -1.274650e-02 3.669680e-03 0.000000e+00 -5.919780e-03 1.083900e-02 0.000000e+00 9.558640e-03 1.189050e-02 0.000000e+00 -7.574440e-03 3.563860e-03 0.000000e+00 -1.492750e-02 4.771680e-03 0.000000e+00 2.236970e-03 1.119460e-02 0.000000e+00 4.733280e-03 1.045470e-02 0.000000e+00 -9.220580e-03 3.768400e-03 0.000000e+00 -5.148650e-04 1.135420e-02 0.000000e+00 -1.357850e-02 5.818830e-03 0.000000e+00 -2.366500e-03 4.946830e-03 0.000000e+00 -6.228020e-03 4.926570e-03 0.000000e+00 -9.983610e-03 3.980800e-03 0.000000e+00 -1.144050e-02 4.948540e-03 0.000000e+00 -7.759370e-03 1.033500e-02 0.000000e+00 -7.629040e-03 4.640490e-03 0.000000e+00 -1.538870e-02 3.648900e-03 0.000000e+00 -9.628720e-03 1.075910e-02 0.000000e+00 -1.257110e-02 4.731370e-03 0.000000e+00 -2.768930e-03 3.787840e-03 0.000000e+00 -3.622200e-03 4.846620e-03 0.000000e+00 -4.524900e-03 9.105610e-03 0.000000e+00 -8.939800e-04 6.451090e-03 0.000000e+00 -1.215260e-02 8.625950e-03 0.000000e+00 -1.217790e-02 7.025380e-03 0.000000e+00 8.168110e-04 9.212630e-03 0.000000e+00 -1.608840e-02 4.335870e-03 0.000000e+00 -1.711100e-03 9.213210e-03 0.000000e+00 -1.029650e-02 5.049540e-03 0.000000e+00 -6.909270e-03 8.648760e-03 0.000000e+00 -9.007840e-03 4.819760e-03 0.000000e+00 -1.058850e-02 9.286990e-03 0.000000e+00 -2.065190e-03 6.248940e-03 0.000000e+00 -1.039850e-02 7.639190e-03 0.000000e+00 -7.166850e-03 5.639700e-03 0.000000e+00 -3.354030e-03 7.400740e-03 0.000000e+00 -5.409180e-03 5.770720e-03 0.000000e+00 -9.516970e-03 6.165460e-03 0.000000e+00 -1.214120e-02 5.777600e-03 0.000000e+00 -8.233940e-03 5.873880e-03 0.000000e+00 -3.176660e-03 5.893430e-03 0.000000e+00 -8.382550e-05 7.590150e-03 0.000000e+00 -4.307220e-03 6.013980e-03 0.000000e+00 -1.097900e-02 6.151490e-03 0.000000e+00 -1.620360e-03 7.485480e-03 0.000000e+00 -8.906380e-03 8.940680e-03 0.000000e+00 -6.308780e-03 6.070970e-03 0.000000e+00 -5.450560e-03 7.209030e-03 0.000000e+00 -8.549410e-03 7.365900e-03 0.000000e+00 -7.178150e-03 6.864210e-03 0.000000e+00 </DataArray>
</Points>
<Cells>
 <DataArray type="Int32" Name="connectivity" format="ascii"> 80 81 129  82 83 130  84 85 131  86 87 132  88 89 133  90 91 134  92 93 135  94 95 136  96 97 137  98 99 138  100 101 139  102 103 140  104 105 141  106 107 142  108 109 143  110 111 144  112 113 145  114 115 146  116 117 147  118 119 148  120 121 149  122 123 150  124 125 151  126 127 152  128 6 153  40 41 154  42 43 155  44 45 156  46 4 157  4 61 157  61 2 158  2 72 159  73 74 160  75 76 161  77 78 162  79 1 62  62 63 163  64 65 164  66 67 165  68 69 166  70 71 167  71 3 168  167 71 168  3 47 168  47 48 168  48 49 169  50 51 170  52 53 171  54 55 172  56 57 173  58 59 174  59 60 175  60 5 176  175 60 176  5 35 176  35 36 177  0 34 178  34 33 179  33 32 180  32 31 181  31 30 182  30 29 183  29 28 184  28 27 185  27 26 186  26 25 187  25 24 188  24 23 189  23 22 190  22 21 191  21 20 192  20 19 193  19 18 194  18 17 195  17 16 196  16 15 197  15 14 198  14 13 199  13 12 200  12 11 201  11 10 202  10 9 203  9 8 204  8 0 205  79 62 163  7 80 129  81 82 206  129 81 206  82 130 206  83 84 207  84 131 207  85 86 208  87 88 209  89 90 210  133 89 210  90 134 210  91 92 211  93 94 212  95 96 213  97 98 214  137 97 214  98 138 214  99 100 215  101 102 216  103 104 217  140 103 217  104 141 217  105 106 218  107 108 219  109 110 220  143 109 220  110 144 220  111 112 221  112 145 221  113 114 222  115 116 223  117 118 224  147 117 224  118 148 224  119 120 225  121 122 226  123 124 227  125 126 228  151 125 228  126 152 228  127 128 229  40 154 230  39 40 230  41 42 231  43 44 232  45 46 233  157 61 158  158 2 234  2 159 234  72 73 235  74 75 236  75 161 236  77 162 237  76 77 237  78 79 238  163 63 239  63 64 239  64 164 239  65 66 240  67 68 241  69 70 242  171 53 243  53 54 243  168 48 169  169 49 244  49 50 244  50 170 244  51 52 245  54 172 243  55 56 246  58 174 247  57 58 247  59 175 174  178 34 179  0 178 205  33 180 179  32 181 180  31 182 181  30 183 182  29 184 183  28 185 184  27 186 185  26 187 186  25 188 187  24 189 188  23 190 189  22 191 190  21 192 191  20 193 192  19 194 193  18 195 194  17 196 195  16 197 196  15 198 197  14 199 198  13 200 199  12 201 200  11 202 201  10 203 202  9 204 203  8 205 204  649 635 652  130 83 207  131 85 208  132 87 209  211 92 135  134 91 211  135 93 212  136 95 213  215 100 139  138 99 215  139 101 216  218 106 142  141 105 218  142 107 219  144 111 221  145 113 222  146 115 223  225 120 149  148 119 225  149 121 226  150 123 227  229 128 153  152 127 229  154 41 231  155 43 232  156 45 233  159 72 235  160 74 236  161 76 237  162 78 238  164 65 240  165 67 241  166 69 242  170 51 245  172 55 246  173 57 247  177 36 248  213 96 137  227 124 151  232 44 156  233 46 157  242 70 167  209 88 133  208 86 132  212 94 136  216 102 140  219 108 143  223 116 147  222 114 146  226 122 150  231 42 155  235 73 160  241 68 166  240 66 165  245 52 171  246 56 173  131 208 249  132 209 250  212 136 251  211 135 252  208 132 253  132 250 253  135 212 254  252 135 254  212 251 254  134 211 255  211 252 255  216 140 256  215 139 257  227 151 258  139 216 259  257 139 259  216 256 259  138 215 260  215 257 260  218 142 261  219 143 262  142 219 263  261 142 263  219 262 263  141 218 264  218 261 264  144 221 265  223 147 266  145 222 267  146 223 268  223 266 268  226 150 269  225 149 270  222 146 271  267 222 271  146 268 271  149 226 272  270 149 272  226 269 272  148 225 273  225 270 273  150 227 274  269 150 274  227 258 274  231 155 275  229 153 276  232 156 277  154 231 278  231 275 278  230 154 279  154 278 279  152 229 280  229 276 280  155 232 281  232 277 281  39 230 282  235 160 283  233 157 284  159 235 285  235 283 285  242 167 286  157 158 284  160 236 287  241 166 288  164 240 289  237 162 290  162 238 291  238 79 163  130 207 292  163 239 293  239 164 294  293 239 294  164 289 294  245 171 295  166 242 296  288 166 296  242 286 296  165 350 240  170 245 297  171 243 298  167 168 299  286 167 299  168 169 299  172 246 300  247 174 301  244 170 302  170 297 302  243 172 303  298 243 303  172 300 303  174 175 304  177 248 305  175 176 306  35 177 176  207 131 307  292 207 307  131 249 307  221 145 308  265 221 308  145 267 308  153 6 309  169 244 310  299 169 310  244 302 310  248 36 311  178 179 289  213 137 312  180 181 313  181 182 314  182 183 290  183 184 315  185 186 316  186 187 287  187 188 317  189 190 318  191 192 319  193 194 320  194 195 321  195 196 322  196 197 323  198 199 324  199 200 325  200 201 326  202 203 327  203 204 328  39 282 329  282 230 330  230 279 330  238 163 293  248 311 331  329 282 332  129 206 333  160 287 283  208 253 249  133 210 334  256 140 335  140 217 335  136 213 336  238 293 291  262 143 337  143 220 337  136 336 251  266 147 338  147 224 338  153 309 339  275 155 281  153 339 276  277 156 340  156 233 340  282 330 332  258 151 341  151 228 341  233 284 340  159 285 234  300 246 342  246 173 342  284 158 343  158 234 343  287 236 316  245 295 297  161 237 315  237 290 315  162 291 290  331 311 344  248 331 345  171 298 295  209 133 346  247 301 347  329 332 348  250 209 346  305 248 345  133 334 346  175 306 304  176 177 349  36 37 311  205 178 350  312 137 351  137 214 351  328 204 352  204 205 352  327 203 328  326 201 353  201 202 353  325 200 326  324 199 325  323 197 354  197 198 354  196 323 322  355 322 323  321 195 322  320 194 321  319 192 356  192 193 356  318 190 357  190 191 357  317 188 358  188 189 358  287 187 317  316 186 287  315 184 359  161 315 359  184 185 359  290 183 315  313 181 314  306 176 349  289 179 294  213 312 336  185 316 359  189 318 358  191 319 357  193 320 356  198 324 354  202 327 353  179 180 294  206 130 360  333 206 360  130 292 360  210 134 361  334 210 361  134 255 361  214 138 362  351 214 362  138 260 362  217 141 363  335 217 363  141 264 363  220 144 364  337 220 364  144 265 364  224 148 365  338 224 365  148 273 365  228 152 366  341 228 366  152 280 366  236 161 359  165 241 352  173 247 367  311 37 344  37 370 344  344 368 369  339 309 348  342 173 367  205 350 352  349 177 305  368 344 370  294 180 313  331 344 369  369 368 371  371 368 372  368 370 372  283 287 317  249 253 373  260 257 374  291 293 313  273 270 375  264 261 376  342 367 377  268 266 378  275 281 379  251 336 380  278 275 381  275 379 381  234 285 382  277 340 383  276 339 384  340 284 385  383 340 385  284 343 385  279 278 386  278 381 386  280 276 387  276 384 387  281 277 388  277 383 388  6 39 329  348 332 389  347 301 390  297 295 391  300 342 392  345 331 393  339 348 384  346 334 394  295 298 355  293 294 313  255 252 395  304 306 396  299 433 286  301 174 304  283 317 397  285 283 397  317 358 397  350 178 289  330 279 398  279 386 398  654 655 657  354 324 399  356 320 400  357 319 401  314 182 290  305 345 402  331 369 393  306 349 403  396 306 403  349 305 403  358 318 404  318 357 405  319 356 406  401 319 406  356 400 406  320 321 407  321 322 408  407 321 408  322 355 408  323 354 391  324 325 409  325 326 410  655 637 657  371 372 411  352 241 328  369 371 412  301 304 413  390 301 413  304 396 413  373 253 414  253 250 414  364 265 415  362 260 416  260 374 416  254 251 417  251 380 417  256 335 418  271 268 419  268 378 419  365 273 420  273 375 420  342 377 392  366 280 421  280 387 421  234 382 343  272 269 422  263 262 423  267 271 424  271 419 424  382 285 397  259 256 425  256 418 425  274 258 426  281 388 379  367 247 347  236 359 316  414 250 427  250 346 427  332 330 428  375 270 429  270 272 429  300 392 430  345 393 402  241 288 328  394 334 431  334 361 431  308 267 432  267 424 432  353 286 433  404 318 405  266 338 434  378 266 434  338 365 434  286 353 296  397 358 435  382 397 435  358 404 435  332 428 389  303 300 430  363 264 436  264 376 436  265 308 437  415 265 437  308 432 437  320 407 400  438 400 407  395 252 439  252 254 439  307 249 440  312 351 441  361 255 442  255 395 442  129 333 516  354 399 391  355 323 391  357 401 405  299 310 433  165 352 350  367 347 443  377 367 443  347 390 443  427 346 394  423 262 444  262 337 444  426 258 445  258 341 445  428 330 446  330 398 446  440 249 373  516 333 447  333 360 447  328 288 327  302 297 399  336 312 448  355 298 408  403 305 402  292 307 449  307 440 449  409 325 410  326 353 433  411 372 450  360 292 451  447 360 451  292 449 451  380 336 448  376 261 452  261 263 452  374 257 453  257 259 453  448 312 441  399 297 391  408 298 454  407 408 454  298 303 454  450 372 455  327 288 296  412 371 456  371 411 456  455 372 370  327 296 353  450 455 457  455 484 457  450 457 458  38 464 457  457 459 458  458 459 460  460 459 461  458 460 462  460 461 463  461 459 464  459 457 464  461 464 465  450 458 466  411 450 466  458 462 466  461 465 467  461 467 463  351 362 468  441 351 468  362 416 468  335 363 469  418 335 469  363 436 469  291 313 314  392 377 470  448 441 471  369 412 393  337 364 472  444 337 472  364 415 472  422 269 426  341 366 473  445 341 473  366 421 473  343 382 474  382 435 474  393 412 475  291 314 290  263 423 452  467 465 447  379 388 476  391 295 355  387 384 477  303 430 454  430 392 478  272 422 429  402 393 479  422 426 480  384 348 481  404 405 482  373 414 483  329 348 309  455 370 484  370 37 484  465 464 516  398 386 485  389 428 486  310 302 409  460 463 487  410 326 433  462 460 487  380 448 471  396 403 488  403 402 488  516 447 465  409 302 399  487 463 483  481 348 389  384 481 477  409 399 324  405 401 489  462 487 490  381 379 491  379 476 491  38 457 484  438 407 454  418 469 492  483 463 373  254 417 439  486 428 493  428 446 493  471 441 494  441 468 494  470 377 495  420 375 496  426 269 274  481 389 497  477 481 497  389 486 497  424 419 498  415 437 499  421 387 500  387 477 500  374 453 501  365 420 434  485 386 502  386 381 502  482 405 503  405 489 503  425 418 504  418 492 504  6 329 309  446 398 505  398 485 505  383 385 506  402 479 488  480 426 507  426 445 507  454 430 438  388 383 508  289 240 350  478 392 470  427 394 509  430 478 438  429 422 510  422 480 510  479 393 475  414 427 509  431 361 442  452 423 511  404 482 435  432 424 512  424 498 512  414 509 483  416 374 513  374 501 513  490 487 509  442 395 514  436 376 515  259 425 453  647 657 656  383 506 508  466 462 517  380 471 518  410 433 310  395 439 519  514 395 519  439 417 519  476 388 508  443 390 520  376 452 521  515 376 521  452 511 521  440 373 463  343 474 385  401 406 522  463 467 440  462 490 517  381 491 502  487 483 509  496 375 523  375 429 523  495 377 443  509 394 524  490 509 524  394 431 524  511 423 525  423 444 525  410 310 409  520 390 526  401 522 489  645 647 656  411 466 527  456 411 527  464 38 516  526 390 413  492 469 528  469 436 528  520 526 529  385 474 506  417 380 530  519 417 530  380 518 530  396 488 531  415 499 532  472 415 532  434 420 533  420 496 533  474 435 482  475 412 534  466 517 527  495 443 520  518 471 535  479 475 536  431 442 537  524 431 537  442 514 537  491 476 538  485 502 539  412 456 534  436 515 528  453 425 504  437 432 540  499 437 540  432 512 540  526 413 541  508 506 503  502 491 542  539 502 542  491 538 542  517 490 543  400 438 544  506 474 482  532 499 545  472 532 525  527 517 546  534 456 547  400 544 406  506 482 503  468 416 494  644 655 654  416 513 494  489 522 548  419 378 549  470 495 550  449 440 467  378 434 533  522 406 544  478 470 551  470 550 551  378 533 549  449 467 451  522 544 552  533 496 553  419 549 498  657 642 654  648 643 650  495 520 554  550 495 554  520 529 554  456 527 547  129 516 7  529 526 555  545 499 556  499 540 556  530 518 557  493 446 558  446 505 558  548 522 552  500 477 559  527 546 547  498 549 560  501 453 504  473 421 561  421 500 561  528 515 562  445 473 563  473 561 563  503 489 564  489 548 564  477 497 559  534 547 565  497 486 566  488 479 567  507 445 563  536 475 568  471 494 535  510 480 569  479 536 567  475 534 568  521 511 570  485 539 505  476 508 571  478 551 552  476 571 538  513 501 572  525 532 573  532 545 573  526 541 555  496 523 574  517 543 546  523 429 510  396 531 413  531 488 567  515 521 575  521 570 575  549 533 553  514 519 576  519 530 576  531 567 577  553 496 574  557 518 578  518 535 578  534 565 568  514 576 579  501 504 580  562 515 575  566 486 581  486 493 581  569 480 582  480 507 582  641 645 656  511 525 570  572 501 580  413 531 541  514 579 537  492 528 583  504 492 583  528 562 583  580 504 583  555 541 584  547 546 585  559 497 566  562 575 586  536 568 587  548 552 551  565 547 588  547 585 588  549 553 589  535 494 590  648 640 643  567 536 591  577 567 591  536 587 591  490 537 543  512 498 592  540 512 592  498 560 592  505 539 593  571 508 503  478 552 544  574 523 510  546 543 594  549 589 560  559 566 595  589 553 596  571 503 564  560 589 597  529 555 598  576 530 557  574 510 569  444 472 525  579 543 537  553 574 596  551 550 599  500 559 600  559 595 600  574 569 601  568 565 602  572 580 603  576 557 579  579 557 594  545 556 604  602 565 588  513 572 590  595 566 605  589 596 597  541 531 577  574 601 596  606 596 601  586 575 607  575 570 607  543 579 594  580 583 608  583 562 608  581 493 558  647 642 657  555 584 609  548 551 610  564 548 610  507 563 582  571 564 538  562 586 608  585 546 594  566 581 605  570 525 573  438 478 544  592 560 611  540 592 556  555 609 598  612 624 572  610 551 599  538 564 610  541 577 584  538 610 599  550 554 613  580 608 603  542 538 599  593 539 614  577 591 584  611 560 597  539 542 614  37 38 484  594 557 578  537 490 524  613 614 550  573 545 615  545 604 615  554 529 616  613 554 616  529 598 616  447 451 467  572 603 612  602 588 617  563 561 600  595 605 618  597 596 619  596 606 619  607 570 620  586 607 621  561 500 600  609 584 622  611 597 623  588 585 612  600 582 563  535 590 624  578 535 624  590 572 624  591 587 625  556 592 611  604 556 611  608 586 626  603 608 626  505 593 558  569 582 627  604 611 623  569 627 601  601 627 628  627 582 600  598 609 629  605 581 630  587 568 631  631 568 602  631 602 632  602 617 632  593 614 613  593 613 633  558 593 633  613 616 633  573 615 620  597 619 623  644 650 655  606 601 628  586 621 626  612 585 634  620 570 573  600 595 627  598 629 635  588 612 617  607 620 636  513 590 494  621 607 636  516 38 7  584 591 625  594 578 634  629 609 637  609 622 637  604 623 638  628 627 618  614 542 599  616 598 635  625 587 639  587 631 639  618 605 640  605 630 640  639 631 641  631 632 641  585 594 634  623 619 642  635 629 643  636 620 638  578 624 634  603 626 617  619 606 644  636 638 645  617 626 646  632 617 646  626 621 646  638 623 647  623 642 647  628 618 648  618 640 648  630 581 649  616 635 633  606 628 650  644 606 650  628 648 650  622 584 625  621 636 651  646 621 651  636 645 651  581 558 649  630 649 652  622 625 653  625 639 653  641 651 645  635 643 652  558 633 649  617 612 603  599 550 614  642 619 654  619 644 654  637 622 653  630 652 640  653 639 641  645 638 647  604 638 615  618 627 595  652 643 640  643 629 655  646 651 632  620 615 638  637 653 656  629 637 655  653 641 656  643 655 650  656 657 637  624 612 634  641 632 651  649 633 635  </DataArray>
 <DataArray type="Int32" Name="offsets" format="ascii"> 3 6 9 12 15 18 21 24 27 30 33 36 39 42 45 48 51 54 57 60 63 66 69 72 75 78 81 84 87 90 93 96 99 102 105 108 111 114 117 120 123 126 129 132 135 138 141 144 147 150 153 156 159 162 165 168 171 174 177 180 183 186 189 192 195 198 201 204 207 210 213 216 219 222 225 228 231 234 237 240 243 246 249 252 255 258 261 264 267 270 273 276 279 282 285 288 291 294 297 300 303 306 309 312 315 318 321 324 327 330 333 336 339 342 345 348 351 354 357 360 363 366 369 372 375 378 381 384 387 390 393 396 399 402 405 408 411 414 417 420 423 426 429 432 435 438 441 444 447 450 453 456 459 462 465 468 471 474 477 480 483 486 489 492 495 498 501 504 507 510 513 516 519 522 525 528 531 534 537 540 543 546 549 552 555 558 561 564 567 570 573 576 579 582 585 588 591 594 597 600 603 606 609 612 615 618 621 624 627 630 633 636 639 642 645 648 651 654 657 660 663 666 669 672 675 678 681 684 687 690 693 696 699 702 705 708 711 714 717 720 723 726 729 732 735 738 741 744 747 750 753 756 759 762 765 768 771 774 777 780 783 786 789 792 795 798 801 804 807 810 813 816 819 822 825 828 831 834 837 840 843 846 849 852 855 858 861 864 867 870 873 876 879 882 885 888 891 894 897 900 903 906 909 912 915 918 921 924 927 930 933 936 939 942 945 948 951 954 957 960 963 966 969 972 975 978 981 984 987 990 993 996 999 1002 1005 1008 1011 1014 1017 1020 1023 1026 1029 1032 1035 1038 1041 1044 1047 1050 1053 1056 1059 1062 1065 1068 1071 1074 1077 1080 1083 1086 1089 1092 1095 1098 1101 1104 1107 1110 1113 1116 1119 1122 1125 1128 1131 1134 1137 1140 1143 1146 1149 1152 1155 1158 1161 1164 1167 1170 1173 1176 1179 1182 1185 1188 1191 1194 1197 1200 1203 1206 1209 1212 1215 1218 1221 1224 1227 1230 1233 1236 1239 1242 1245 1248 1251 1254 1257 1260 1263 1266 1269 1272 1275 1278 1281 1284 1287 1290 1293 1296 1299 1302 1305 1308 1311 1314 1317 1320 1323 1326 1329 1332 1335 1338 1341 1344 1347 1350 1353 1356 1359 1362 1365 1368 1371 1374 1377 1380 1383 1386 1389 1392 1395 1398 1401 1404 1407 1410 1413 1416 1419 1422 1425 1428 1431 1434 1437 1440 1443 1446 1449 1452 1455 1458 1461 1464 1467 1470 1473 1476 1479 1482 1485 1488 1491 1494 1497 1500 1503 1506 1509 1512 1515 1518 1521 1524 1527 1530 1533 1536 1539 1542 1545 1548 1551 1554 1557 1560 1563 1566 1569 1572 1575 1578 1581 1584 1587 1590 1593 1596 1599 1602 1605 1608 1611 1614 1617 1620 1623 1626 1629 1632 1635 1638 1641 1644 1647 1650 1653 1656 1659 1662 1665 1668 1671 1674 1677 1680 1683 1686 1689 1692 1695 1698 1701 1704 1707 1710 1713 1716 1719 1722 1725 1728 1731 1734 1737 1740 1743 1746 1749 1752 1755 1758 1761 1764 1767 1770 1773 1776 1779 1782 1785 1788 1791 1794 1797 1800 1803 1806 1809 1812 1815 1818 1821 1824 1827 1830 1833 1836 1839 1842 1845 1848 1851 1854 1857 1860 1863 1866 1869 1872 1875 1878 1881 1884 1887 1890 1893 1896 1899 1902 1905 1908 1911 1914 1917 1920 1923 1926 1929 1932 1935 1938 1941 1944 1947 1950 1953 1956 1959 1962 1965 1968 1971 1974 1977 1980 1983 1986 1989 1992 1995 1998 2001 2004 2007 2010 2013 2016 2019 2022 2025 2028 2031 2034 2037 2040 2043 2046 2049 2052 2055 2058 2061 2064 2067 2070 2073 2076 2079 2082 2085 2088 2091 2094 2097 2100 2103 2106 2109 2112 2115 2118 2121 2124 2127 2130 2133 2136 2139 2142 2145 2148 2151 2154 2157 2160 2163 2166 2169 2172 2175 2178 2181 2184 2187 2190 2193 2196 2199 2202 2205 2208 2211 2214 2217 2220 2223 2226 2229 2232 2235 2238 2241 2244 2247 2250 2253 2256 2259 2262 2265 2268 2271 2274 2277 2280 2283 2286 2289 2292 2295 2298 2301 2304 2307 2310 2313 2316 2319 2322 2325 2328 2331 2334 2337 2340 2343 2346 2349 2352 2355 2358 2361 2364 2367 2370 2373 2376 2379 2382 2385 2388 2391 2394 2397 2400 2403 2406 2409 2412 2415 2418 2421 2424 2427 2430 2433 2436 2439 2442 2445 2448 2451 2454 2457 2460 2463 2466 2469 2472 2475 2478 2481 2484 2487 2490 2493 2496 2499 2502 2505 2508 2511 2514 2517 2520 2523 2526 2529 2532 2535 2538 2541 2544 2547 2550 2553 2556 2559 2562 2565 2568 2571 2574 2577 2580 2583 2586 2589 2592 2595 2598 2601 2604 2607 2610 2613 2616 2619 2622 2625 2628 2631 2634 2637 2640 2643 2646 2649 2652 2655 2658 2661 2664 2667 2670 2673 2676 2679 2682 2685 2688 2691 2694 2697 2700 2703 2706 2709 2712 2715 2718 2721 2724 2727 2730 2733 2736 2739 2742 2745 2748 2751 2754 2757 2760 2763 2766 2769 2772 2775 2778 2781 2784 2787 2790 2793 2796 2799 2802 2805 2808 2811 2814 2817 2820 2823 2826 2829 2832 2835 2838 2841 2844 2847 2850 2853 2856 2859 2862 2865 2868 2871 2874 2877 2880 2883 2886 2889 2892 2895 2898 2901 2904 2907 2910 2913 2916 2919 2922 2925 2928 2931 2934 2937 2940 2943 2946 2949 2952 2955 2958 2961 2964 2967 2970 2973 2976 2979 2982 2985 2988 2991 2994 2997 3000 3003 3006 3009 3012 3015 3018 3021 3024 3027 3030 3033 3036 3039 3042 3045 3048 3051 3054 3057 3060 3063 3066 3069 3072 3075 3078 3081 3084 3087 3090 3093 3096 3099 3102 3105 3108 3111 3114 3117 3120 3123 3126 3129 3132 3135 3138 3141 3144 3147 3150 3153 3156 3159 3162 3165 3168 3171 3174 3177 3180 3183 3186 3189 3192 3195 3198 3201 3204 3207 3210 3213 3216 3219 3222 3225 3228 3231 3234 3237 3240 3243 3246 3249 3252 3255 3258 3261 3264 3267 3270 3273 3276 3279 3282 3285 3288 3291 3294 3297 3300 3303 3306 3309 3312 3315 3318 3321 3324 3327 3330 3333 3336 3339 3342 3345 3348 3351 3354 3357 3360 3363 3366 3369 3372 3375 3378 3381 3384 3387 3390 3393 3396 3399 3402 3405 3408 3411 3414 3417 3420 3423 3426 3429 3432 3435 3438 3441 3444 3447 3450 3453 3456 3459 3462 3465 3468 3471 3474 3477 3480 3483 3486 3489 3492 3495 3498 3501 3504 3507 3510 3513 3516 3519 3522 3525 3528 3531 3534 3537 3540 3543 3546 3549 3552 3555 3558 3561 </DataArray>
 <DataArray type="UInt8" Name="types" format="ascii"> 5 5 5 5 5 5 5 5 5 5 5 5 5 5 5 5 5 5 5 5 5 5 5 5 5 5 5 5 5 5 5 5 5 5 5 5 5 5 5 5 5 5 5 5 5 5 5 5 5 5 5 5 5 5 5 5 5 5 5 5 5 5 5 5 5 5 5 5 5 5 5 5 5 5 5 5 5 5 5 5 5 5 5 5 5 5 5 5 5 5 5 5 5 5 5 5 5 5 5 5 5 5 5 5 5 5 5 5 5 5 5 5 5 5 5 5 5 5 5 5 5 5 5 5 5 5 5 5 5 5 5 5 5 5 5 5 5 5 5 5 5 5 5 5 5 5 5 5 5 5 5 5 5 5 5 5 5 5 5 5 5 5 5 5 5 5 5 5 5 5 5 5 5 5 5 5 5 5 5 5 5 5 5 5 5 5 5 5 5 5 5 5 5 5 5 5 5 5 5 5 5 5 5 5 5 5 5 5 5 5 5 5 5 5 5 5 5 5 5 5 5 5 5 5 5 5 5 5 5 5 5 5 5 5 5 5 5 5 5 5 5 5 5 5 5 5 5 5 5 5 5 5 5 5 5 5 5 5 5 5 5 5 5 5 5 5 5 5 5 5 5 5 5 5 5 5 5 5 5 5 5 5 5 5 5 5 5 5 5 5 5 5 5 5 5 5 5 5 5 5 5 5 5 5 5 5 5 5 5 5 5 5 5 5 5 5 5 5 5 5 5 5 5 5 5 5 5 5 5 5 5 5 5 5 5 5 5 5 5 5 5 5 5 5 5 5 5 5 5 5 5 5 5 5 5 5 5 5 5 5 5 5 5 5 5 5 5 5 5 5 5 5 5 5 5 5 5 5 5 5 5 5 5 5 5 5 5 5 5 5 5 5 5 5 5 5 5 5 5 5 5 5 5 5 5 5 5 5 5 5 5 5 5 5 5 5 5 5 5 5 5 5 5 5 5 5 5 5 5 5 5 5 5 5 5 5 5 5 5 5 5 5 5 5 5 5 5 5 5 5 5 5 5 5 5 5 5 5 5 5 5 5 5 5 5 5 5 5 5 5 5 5 5 5 5 5 5 5 5 5 5 5 5 5 5 5 5 5 5 5 5 5 5 5 5 5 5 5 5 5 5 5 5 5 5 5 5 5 5 5 5 5 5 5 5 5 5 5 5 5 5 5 5 5 5 5 5 5 5 5 5 5 5 5 5 5 5 5 5 5 5 5 5 5 5 5 5 5 5 5 5 5 5 5 5 5 5 5 5 5 5 5 5 5 5 5 5 5 5 5 5 5 5 5 5 5 5 5 5 5 5 5 5 5 5 5 5 5 5 5 5 5 5 5 5 5 5 5 5 5 5 5 5 5 5 5 5 5 5 5 5 5 5 5 5 5 5 5 5 5 5 5 5 5 5 5 5 5 5 5 5 5 5 5 5 5 5 5 5 5 5 5 5 5 5 5 5 5 5 5 5 5 5 5 5 5 5 5 5 5 5 5 5 5 5 5 5 5 5 5 5 5 5 5 5 5 5 5 5 5 5 5 5 5 5 5 5 5 5 5 5 5 5 5 5 5 5 5 5 5 5 5 5 5 5 5 5 5 5 5 5 5 5 5 5 5 5 5 5 5 5 5 5 5 5 5 5 5 5 5 5 5 5 5 5 5 5 5 5 5 5 5 5 5 5 5 5 5 5 5 5 5 5 5 5 5 5 5 5 5 5 5 5 5 5 5 5 5 5 5 5 5 5 5 5 5 5 5 5 5 5 5 5 5 5 5 5 5 5 5 5 5 5 5 5 5 5 5 5 5 5 5 5 5 5 5 5 5 5 5 5 5 5 5 5 5 5 5 5 5 5 5 5 5 5 5 5 5 5 5 5 5 5 5 5 5 5 5 5 5 5 5 5 5 5 5 5 5 5 5 5 5 5 5 5 5 5 5 5 5 5 5 5 5 5 5 5 5 5 5 5 5 5 5 5 5 5 5 5 5 5 5 5 5 5 5 5 5 5 5 5 5 5 5 5 5 5 5 5 5 5 5 5 5 5 5 5 5 5 5 5 5 5 5 5 5 5 5 5 5 5 5 5 5 5 5 5 5 5 5 5 5 5 5 5 5 5 5 5 5 5 5 5 5 5 5 5 5 5 5 5 5 5 5 5 5 5 5 5 5 5 5 5 5 5 5 5 5 5 5 5 5 5 5 5 5 5 5 5 5 5 5 5 5 5 5 5 5 5 5 5 5 5 5 5 5 5 5 5 5 5 5 5 5 5 5 5 5 5 5 5 5 5 5 5 5 5 5 5 5 5 5 5 5 5 5 5 5 5 5 5 5 5 5 5 5 5 5 5 5 5 5 5 5 5 5 5 5 5 5 5 5 5 5 5 5 5 5 5 5 5 5 5 5 5 5 5 5 5 5 5 5 5 5 5 5 5 5 5 5 5 5 5 5 5 5 5 5 5 5 5 5 5 5 5 5 5 5 5 5 5 5 5 5 5 5 5 5 5 5 5 5 5 5 5 5 5 5 5 5 5 5 5 5 5 5 5 5 5 5 5 5 5 5 5 5 5 5 5 5 5 5 5 5 5 5 5 5 5 5 5 5 5 5 5 5 5 5 5 5 5 5 5 5 5 5 5 5 5 5 5 5 5 5 5 5 5 5 5 5 5 5 5 5 5 5 5 </DataArray>
</Cells>
<PointData Scalars="" Vectors="DisplacementVector " Tensors="IST_StressTensor IST_StrainTensor " >
 <DataArray type="Float64" Name="DisplacementVector" NumberOfComponents="3" format="ascii"> -1.153423e-06 8.961261e-06 0.000000e+00 1.484395e-06 1.037160e-05 0.000000e+00 1.469731e-06 5.434092e-06 0.000000e+00 -4.807956e-06 1.037398e-05 0.000000e+00 1.786657e-06 4.984293e-06 0.000000e+00 -3.273213e-06 -1.434122e-06 0.000000e+00 1.281935e-06 0.000000e+00 0.000000e+00 0.000000e+00 0.000000e+00 0.000000e+00 -1.455319e-06 8.923429e-06 0.000000e+00 -1.724833e-06 8.826130e-06 0.000000e+00 -2.003744e-06 8.645955e-06 0.000000e+00 -2.248076e-06 8.385088e-06 0.000000e+00 -2.400138e-06 8.124520e-06 0.000000e+00 -2.508599e-06 7.788583e-06 0.000000e+00 -2.541153e-06 7.472480e-06 0.000000e+00 -2.510784e-06 7.139268e-06 0.000000e+00 -2.419803e-06 6.824011e-06 0.000000e+00 -2.252946e-06 6.503623e-06 0.000000e+00 -2.027142e-06 6.235340e-06 0.000000e+00 -1.753895e-06 6.035334e-06 0.000000e+00 -1.477351e-06 5.925561e-06 0.000000e+00 -1.182826e-06 5.891082e-06 0.000000e+00 -8.797421e-07 5.936959e-06 0.000000e+00 -5.860295e-07 6.063715e-06 0.000000e+00 -3.127446e-07 6.269274e-06 0.000000e+00 -9.298071e-08 6.522856e-06 0.000000e+00 8.677082e-08 6.842831e-06 0.000000e+00 1.999574e-07 7.217470e-06 0.000000e+00 2.279031e-07 7.557655e-06 0.000000e+00 1.893942e-07 7.872010e-06 0.000000e+00 7.336564e-08 8.196677e-06 0.000000e+00 -8.943247e-08 8.451495e-06 0.000000e+00 -3.091448e-07 8.670070e-06 0.000000e+00 -5.580370e-07 8.826537e-06 0.000000e+00 -8.625579e-07 8.931629e-06 0.000000e+00 -2.415438e-06 -1.419921e-06 0.000000e+00 -1.517189e-06 -1.308029e-06 0.000000e+00 -6.876069e-07 -9.969896e-07 0.000000e+00 -1.567910e-07 -5.082582e-07 0.000000e+00 1.521389e-06 1.401411e-06 0.000000e+00 1.576186e-06 2.080281e-06 0.000000e+00 1.629546e-06 2.649115e-06 0.000000e+00 1.675783e-06 3.143286e-06 0.000000e+00 1.714146e-06 3.583364e-06 0.000000e+00 1.744872e-06 3.989918e-06 0.000000e+00 1.767363e-06 4.358122e-06 0.000000e+00 1.781555e-06 4.687949e-06 0.000000e+00 -4.809723e-06 9.601023e-06 0.000000e+00 -4.813740e-06 8.970816e-06 0.000000e+00 -4.821671e-06 8.233753e-06 0.000000e+00 -4.826045e-06 7.540336e-06 0.000000e+00 -4.820315e-06 6.893760e-06 0.000000e+00 -4.794085e-06 6.162794e-06 0.000000e+00 -4.727680e-06 5.287027e-06 0.000000e+00 -4.626624e-06 4.463942e-06 0.000000e+00 -4.472750e-06 3.591546e-06 0.000000e+00 -4.261755e-06 2.702809e-06 0.000000e+00 -4.001302e-06 1.838719e-06 0.000000e+00 -3.719340e-06 1.033088e-06 0.000000e+00 -3.431903e-06 1.967733e-07 0.000000e+00 -3.290598e-06 -5.788258e-07 0.000000e+00 1.621311e-06 5.205656e-06 0.000000e+00 8.026334e-07 1.037054e-05 0.000000e+00 2.288200e-07 1.036574e-05 0.000000e+00 -3.111815e-07 1.035798e-05 0.000000e+00 -8.115061e-07 1.035108e-05 0.000000e+00 -1.224811e-06 1.034793e-05 0.000000e+00 -1.684641e-06 1.034863e-05 0.000000e+00 -2.148044e-06 1.035274e-05 0.000000e+00 -2.667579e-06 1.035979e-05 0.000000e+00 -3.251549e-06 1.036703e-05 0.000000e+00 -3.964255e-06 1.037249e-05 0.000000e+00 1.505797e-06 5.763902e-06 0.000000e+00 1.530690e-06 6.165708e-06 0.000000e+00 1.543940e-06 6.646788e-06 0.000000e+00 1.542647e-06 7.219153e-06 0.000000e+00 1.527037e-06 7.823558e-06 0.000000e+00 1.506164e-06 8.463825e-06 0.000000e+00 1.491128e-06 9.105434e-06 0.000000e+00 1.485312e-06 9.713758e-06 0.000000e+00 4.398771e-09 0.000000e+00 0.000000e+00 1.225737e-08 0.000000e+00 0.000000e+00 2.175669e-08 0.000000e+00 0.000000e+00 3.202403e-08 0.000000e+00 0.000000e+00 4.277777e-08 0.000000e+00 0.000000e+00 5.374325e-08 0.000000e+00 0.000000e+00 6.473742e-08 0.000000e+00 0.000000e+00 7.577967e-08 0.000000e+00 0.000000e+00 8.683519e-08 0.000000e+00 0.000000e+00 9.797995e-08 0.000000e+00 0.000000e+00 1.091802e-07 0.000000e+00 0.000000e+00 1.205076e-07 0.000000e+00 0.000000e+00 1.319963e-07 0.000000e+00 0.000000e+00 1.437557e-07 0.000000e+00 0.000000e+00 1.558447e-07 0.000000e+00 0.000000e+00 1.681905e-07 0.000000e+00 0.000000e+00 1.808806e-07 0.000000e+00 0.000000e+00 1.940178e-07 0.000000e+00 0.000000e+00 2.075844e-07 0.000000e+00 0.000000e+00 2.216830e-07 0.000000e+00 0.000000e+00 2.363170e-07 0.000000e+00 0.000000e+00 2.514704e-07 0.000000e+00 0.000000e+00 2.672486e-07 0.000000e+00 0.000000e+00 2.837362e-07 0.000000e+00 0.000000e+00 3.009608e-07 0.000000e+00 0.000000e+00 3.189574e-07 0.000000e+00 0.000000e+00 3.377649e-07 0.000000e+00 0.000000e+00 3.573503e-07 0.000000e+00 0.000000e+00 3.778151e-07 0.000000e+00 0.000000e+00 3.992916e-07 0.000000e+00 0.000000e+00 4.217580e-07 0.000000e+00 0.000000e+00 4.451907e-07 0.000000e+00 0.000000e+00 4.696758e-07 0.000000e+00 0.000000e+00 4.953259e-07 0.000000e+00 0.000000e+00 5.223314e-07 0.000000e+00 0.000000e+00 5.507096e-07 0.000000e+00 0.000000e+00 5.804420e-07 0.000000e+00 0.000000e+00 6.117567e-07 0.000000e+00 0.000000e+00 6.449020e-07 0.000000e+00 0.000000e+00 6.798131e-07 0.000000e+00 0.000000e+00 7.168937e-07 0.000000e+00 0.000000e+00 7.564139e-07 0.000000e+00 0.000000e+00 7.988943e-07 0.000000e+00 0.000000e+00 8.447602e-07 0.000000e+00 0.000000e+00 8.949930e-07 0.000000e+00 0.000000e+00 9.508177e-07 0.000000e+00 0.000000e+00 1.014280e-06 0.000000e+00 0.000000e+00 1.089097e-06 0.000000e+00 0.000000e+00 1.179491e-06 0.000000e+00 0.000000e+00 3.975014e-12 -4.711448e-08 0.000000e+00 2.412615e-08 -3.827418e-08 0.000000e+00 4.609725e-08 -3.609418e-08 0.000000e+00 6.812751e-08 -3.313312e-08 0.000000e+00 9.032941e-08 -2.985717e-08 0.000000e+00 1.130150e-07 -2.638965e-08 0.000000e+00 1.363275e-07 -2.209839e-08 0.000000e+00 1.601864e-07 -1.936098e-08 0.000000e+00 1.852029e-07 -1.722960e-08 0.000000e+00 2.122699e-07 -1.521014e-08 0.000000e+00 2.410339e-07 -1.294572e-08 0.000000e+00 2.732549e-07 -1.041488e-08 0.000000e+00 3.068350e-07 -8.499025e-09 0.000000e+00 3.448846e-07 -5.952049e-09 0.000000e+00 3.849208e-07 -3.678665e-09 0.000000e+00 4.312769e-07 -1.157685e-09 0.000000e+00 4.798429e-07 1.641520e-09 0.000000e+00 5.332869e-07 4.340389e-09 0.000000e+00 5.915124e-07 6.814595e-09 0.000000e+00 6.584899e-07 1.131052e-08 0.000000e+00 7.313186e-07 1.610191e-08 0.000000e+00 8.130438e-07 2.041854e-08 0.000000e+00 9.068407e-07 3.007702e-08 0.000000e+00 1.014291e-06 5.037589e-08 0.000000e+00 1.109682e-06 1.377906e-07 0.000000e+00 1.195154e-06 2.334053e-06 0.000000e+00 1.287929e-06 3.283775e-06 0.000000e+00 1.397906e-06 4.155153e-06 0.000000e+00 1.519817e-06 4.875977e-06 0.000000e+00 1.302492e-06 5.088151e-06 0.000000e+00 1.236221e-06 5.641549e-06 0.000000e+00 1.160526e-06 6.405137e-06 0.000000e+00 1.155716e-06 7.626078e-06 0.000000e+00 1.059401e-06 8.754369e-06 0.000000e+00 6.057215e-07 9.876364e-06 0.000000e+00 -4.876483e-07 9.920429e-06 0.000000e+00 -1.449562e-06 9.923613e-06 0.000000e+00 -2.441983e-06 9.906827e-06 0.000000e+00 -3.546733e-06 9.716518e-06 0.000000e+00 -4.204606e-06 9.505432e-06 0.000000e+00 -4.265899e-06 8.640416e-06 0.000000e+00 -4.293121e-06 7.211230e-06 0.000000e+00 -4.133462e-06 5.737694e-06 0.000000e+00 -3.865737e-06 3.977066e-06 0.000000e+00 -3.442644e-06 2.145933e-06 0.000000e+00 -2.998029e-06 4.824743e-07 0.000000e+00 -2.858397e-06 -1.281438e-07 0.000000e+00 -2.613796e-06 -7.462327e-07 0.000000e+00 -1.959346e-06 -9.761499e-07 0.000000e+00 -9.777946e-07 9.244407e-06 0.000000e+00 -5.983578e-07 9.181149e-06 0.000000e+00 -2.591402e-07 9.004530e-06 0.000000e+00 2.090160e-09 8.749476e-06 0.000000e+00 2.389948e-07 8.457403e-06 0.000000e+00 4.223919e-07 8.116513e-06 0.000000e+00 4.920891e-07 7.726354e-06 0.000000e+00 4.796375e-07 7.333106e-06 0.000000e+00 4.054301e-07 6.917417e-06 0.000000e+00 2.546341e-07 6.510576e-06 0.000000e+00 -3.281502e-09 6.148114e-06 0.000000e+00 -2.969690e-07 5.865414e-06 0.000000e+00 -6.485994e-07 5.667133e-06 0.000000e+00 -1.009247e-06 5.559654e-06 0.000000e+00 -1.357027e-06 5.556806e-06 0.000000e+00 -1.711312e-06 5.641049e-06 0.000000e+00 -2.053259e-06 5.839638e-06 0.000000e+00 -2.348132e-06 6.123279e-06 0.000000e+00 -2.577027e-06 6.472863e-06 0.000000e+00 -2.722596e-06 6.859440e-06 0.000000e+00 -2.801103e-06 7.264374e-06 0.000000e+00 -2.790787e-06 7.646739e-06 0.000000e+00 -2.710952e-06 8.042532e-06 0.000000e+00 -2.563130e-06 8.419101e-06 0.000000e+00 -2.332348e-06 8.744085e-06 0.000000e+00 -2.015966e-06 8.980033e-06 0.000000e+00 -1.675844e-06 9.149749e-06 0.000000e+00 -1.340461e-06 9.232524e-06 0.000000e+00 1.232112e-08 -4.262583e-08 0.000000e+00 3.504890e-08 -3.673824e-08 0.000000e+00 5.735522e-08 -3.515756e-08 0.000000e+00 7.940313e-08 -3.116724e-08 0.000000e+00 1.015438e-07 -2.911230e-08 0.000000e+00 1.247060e-07 -2.373606e-08 0.000000e+00 1.479171e-07 -2.065919e-08 0.000000e+00 1.728548e-07 -1.814018e-08 0.000000e+00 1.986316e-07 -1.623094e-08 0.000000e+00 2.258755e-07 -1.424744e-08 0.000000e+00 2.571326e-07 -1.147310e-08 0.000000e+00 2.897207e-07 -9.442763e-09 0.000000e+00 3.248510e-07 -7.309821e-09 0.000000e+00 3.646616e-07 -4.712072e-09 0.000000e+00 4.075865e-07 -2.504127e-09 0.000000e+00 4.548094e-07 2.332318e-10 0.000000e+00 5.049837e-07 2.956710e-09 0.000000e+00 5.628098e-07 5.763778e-09 0.000000e+00 6.242385e-07 8.211170e-09 0.000000e+00 6.930869e-07 1.374675e-08 0.000000e+00 7.702816e-07 1.843261e-08 0.000000e+00 8.604737e-07 2.362375e-08 0.000000e+00 9.599558e-07 3.818731e-08 0.000000e+00 1.068176e-06 7.444325e-08 0.000000e+00 1.144092e-06 1.841722e-06 0.000000e+00 1.252673e-06 2.823479e-06 0.000000e+00 1.343366e-06 3.744963e-06 0.000000e+00 1.451551e-06 4.524100e-06 0.000000e+00 1.085804e-06 5.344326e-06 0.000000e+00 1.199059e-06 5.978314e-06 0.000000e+00 1.118304e-06 7.002288e-06 0.000000e+00 1.118176e-06 8.202893e-06 0.000000e+00 9.430202e-07 9.338528e-06 0.000000e+00 1.235505e-08 9.903656e-06 0.000000e+00 -9.821183e-07 9.943292e-06 0.000000e+00 -1.916669e-06 9.848526e-06 0.000000e+00 -2.977235e-06 9.824559e-06 0.000000e+00 -3.998616e-06 4.863961e-06 0.000000e+00 -4.284708e-06 7.899016e-06 0.000000e+00 -4.248752e-06 6.520868e-06 0.000000e+00 -3.683008e-06 3.071365e-06 0.000000e+00 -3.140967e-06 1.285047e-06 0.000000e+00 -1.375654e-06 -8.875108e-07 0.000000e+00 4.469693e-08 -7.662264e-08 0.000000e+00 6.760190e-08 -6.679234e-08 0.000000e+00 1.481866e-07 -4.250645e-08 0.000000e+00 1.251723e-07 -4.628579e-08 0.000000e+00 5.571807e-08 -7.308671e-08 0.000000e+00 1.374216e-07 -4.280134e-08 0.000000e+00 1.129679e-07 -5.321188e-08 0.000000e+00 2.581253e-07 -2.234800e-08 0.000000e+00 2.254528e-07 -2.922497e-08 0.000000e+00 8.462057e-07 5.681022e-08 0.000000e+00 2.418396e-07 -2.524900e-08 0.000000e+00 2.111555e-07 -3.131850e-08 0.000000e+00 3.255135e-07 -1.429961e-08 0.000000e+00 3.667403e-07 -8.367010e-09 0.000000e+00 3.466300e-07 -1.122467e-08 0.000000e+00 3.065091e-07 -1.690126e-08 0.000000e+00 4.329238e-07 -7.606940e-10 0.000000e+00 5.684590e-07 1.424059e-08 0.000000e+00 4.817564e-07 5.103734e-09 0.000000e+00 5.374132e-07 1.183701e-08 0.000000e+00 7.708010e-07 4.252118e-08 0.000000e+00 6.899875e-07 3.303380e-08 0.000000e+00 5.090752e-07 8.324946e-09 0.000000e+00 7.303679e-07 3.829732e-08 0.000000e+00 6.550010e-07 2.706017e-08 0.000000e+00 8.145227e-07 4.369335e-08 0.000000e+00 8.808427e-07 3.013330e-06 0.000000e+00 9.683060e-07 2.160744e-07 0.000000e+00 1.000314e-06 3.943390e-06 0.000000e+00 8.453407e-07 2.547564e-06 0.000000e+00 7.856536e-07 2.077724e-06 0.000000e+00 9.539381e-07 1.386415e-07 0.000000e+00 9.297611e-07 3.484921e-06 0.000000e+00 1.048071e-06 1.386714e-06 0.000000e+00 8.066431e-07 6.081861e-06 0.000000e+00 1.174404e-06 4.744179e-06 0.000000e+00 9.066558e-07 5.674060e-06 0.000000e+00 -3.142635e-06 9.247172e-06 0.000000e+00 6.880995e-07 6.569726e-06 0.000000e+00 -2.271020e-06 9.537756e-06 0.000000e+00 -7.448085e-07 9.556160e-06 0.000000e+00 6.636538e-07 8.467917e-06 0.000000e+00 6.065108e-07 8.996870e-06 0.000000e+00 2.331085e-08 -7.476058e-08 0.000000e+00 3.358309e-07 9.464859e-06 0.000000e+00 -2.345026e-07 9.447131e-06 0.000000e+00 -3.683374e-06 6.220110e-06 0.000000e+00 -2.666720e-06 9.408325e-06 0.000000e+00 -3.804712e-06 6.902674e-06 0.000000e+00 -3.443465e-06 5.385377e-06 0.000000e+00 -3.725399e-06 9.002159e-06 0.000000e+00 -3.147530e-06 3.491258e-06 0.000000e+00 -2.453181e-06 7.015874e-07 0.000000e+00 -3.842253e-06 7.515732e-06 0.000000e+00 -3.322096e-06 4.377652e-06 0.000000e+00 -2.395213e-06 1.797915e-07 0.000000e+00 -1.638864e-06 -6.652745e-07 0.000000e+00 -2.289376e-06 -2.858228e-07 0.000000e+00 3.443349e-08 -7.522435e-08 0.000000e+00 4.577315e-07 2.298303e-09 0.000000e+00 1.070600e-06 4.397251e-07 0.000000e+00 -3.765082e-06 8.226876e-06 0.000000e+00 -1.051854e-06 -9.460915e-07 0.000000e+00 1.737889e-07 -3.538294e-08 0.000000e+00 1.224209e-07 9.090357e-06 0.000000e+00 3.364570e-07 8.762507e-06 0.000000e+00 7.848209e-07 7.938659e-06 0.000000e+00 7.139793e-07 7.063528e-06 0.000000e+00 3.840172e-07 6.112450e-06 0.000000e+00 -3.683999e-07 5.423074e-06 0.000000e+00 -1.195046e-06 5.163117e-06 0.000000e+00 -2.011074e-06 5.349585e-06 0.000000e+00 -2.401712e-06 5.651157e-06 0.000000e+00 -2.728279e-06 6.059092e-06 0.000000e+00 -2.949864e-06 6.502048e-06 0.000000e+00 -3.106356e-06 7.450937e-06 0.000000e+00 -3.044667e-06 7.894079e-06 0.000000e+00 -2.938839e-06 8.354001e-06 0.000000e+00 -2.344624e-06 9.141940e-06 0.000000e+00 -1.959032e-06 9.373518e-06 0.000000e+00 1.135231e-06 9.040039e-07 0.000000e+00 7.039851e-07 1.556055e-06 0.000000e+00 -9.811773e-07 -7.236826e-07 0.000000e+00 8.032541e-07 1.102930e-06 0.000000e+00 -3.693959e-09 -9.361452e-08 0.000000e+00 8.947750e-08 -6.233645e-08 0.000000e+00 2.735130e-07 -2.063369e-08 0.000000e+00 1.609298e-07 -3.880292e-08 0.000000e+00 3.885264e-07 -6.134593e-09 0.000000e+00 5.982539e-07 1.496168e-08 0.000000e+00 9.663058e-07 3.681460e-07 0.000000e+00 1.079074e-06 4.350114e-06 0.000000e+00 8.857484e-07 7.322017e-08 0.000000e+00 -2.946046e-06 2.601689e-06 0.000000e+00 9.275253e-07 4.976123e-06 0.000000e+00 -7.355359e-07 -7.725490e-07 0.000000e+00 -1.234623e-06 -6.461736e-07 0.000000e+00 7.903447e-08 -6.270708e-08 0.000000e+00 -2.492052e-06 1.235036e-06 0.000000e+00 8.670547e-07 6.802540e-07 0.000000e+00 -2.080880e-06 -6.165981e-07 0.000000e+00 -1.173485e-06 9.579228e-06 0.000000e+00 1.862247e-07 -3.308387e-08 0.000000e+00 -1.593490e-06 9.520605e-06 0.000000e+00 -2.748268e-06 8.857911e-06 0.000000e+00 -3.079210e-06 6.979922e-06 0.000000e+00 -3.172113e-06 6.062326e-06 0.000000e+00 -1.603664e-06 5.198285e-06 0.000000e+00 -7.801249e-07 5.221268e-06 0.000000e+00 5.830736e-08 5.685777e-06 0.000000e+00 8.103089e-07 7.473287e-06 0.000000e+00 1.049395e-08 -8.192561e-08 0.000000e+00 1.009924e-07 -5.863087e-08 0.000000e+00 1.994085e-07 -3.153202e-08 0.000000e+00 2.897719e-07 -1.903787e-08 0.000000e+00 4.086481e-07 -3.876809e-09 0.000000e+00 6.235276e-07 2.084156e-08 0.000000e+00 9.243874e-07 9.674774e-08 0.000000e+00 -2.744575e-06 1.820764e-06 0.000000e+00 -5.414057e-07 -6.219509e-07 0.000000e+00 -6.854570e-07 -5.959802e-07 0.000000e+00 -4.907218e-07 -7.028993e-07 0.000000e+00 -4.386439e-07 -4.952311e-07 0.000000e+00 -3.666282e-07 -5.360922e-07 0.000000e+00 3.776407e-08 -1.195567e-07 0.000000e+00 2.035706e-07 -4.855686e-08 0.000000e+00 6.340877e-07 4.765525e-08 0.000000e+00 2.993661e-07 -2.460090e-08 0.000000e+00 -2.288499e-06 2.206923e-06 0.000000e+00 5.369275e-07 2.432603e-08 0.000000e+00 5.106952e-07 3.222875e-06 0.000000e+00 1.415170e-07 -6.942261e-08 0.000000e+00 4.731339e-07 2.753160e-06 0.000000e+00 7.043450e-07 5.318143e-06 0.000000e+00 6.768498e-07 4.183474e-06 0.000000e+00 8.383720e-07 4.191566e-07 0.000000e+00 7.821855e-07 4.604677e-06 0.000000e+00 4.535960e-07 2.290216e-06 0.000000e+00 8.417847e-07 2.731880e-07 0.000000e+00 5.763691e-07 3.721963e-06 0.000000e+00 6.432216e-07 8.613163e-07 0.000000e+00 -1.950908e-06 9.127137e-07 0.000000e+00 -3.358916e-06 6.650290e-06 0.000000e+00 -2.466712e-06 3.073362e-06 0.000000e+00 -8.982202e-07 -4.998646e-07 0.000000e+00 7.104728e-08 -1.006988e-07 0.000000e+00 1.092228e-07 -7.755808e-08 0.000000e+00 -1.876408e-06 -3.641021e-08 0.000000e+00 5.192956e-07 5.686615e-06 0.000000e+00 3.874887e-07 1.848936e-06 0.000000e+00 -3.444075e-06 7.203167e-06 0.000000e+00 -1.903984e-06 4.835576e-06 0.000000e+00 -9.839650e-07 4.750844e-06 0.000000e+00 -1.332839e-06 -4.510521e-07 0.000000e+00 -1.779660e-06 -3.782979e-07 0.000000e+00 -8.494525e-08 5.203466e-06 0.000000e+00 -4.393243e-07 4.846048e-06 0.000000e+00 -1.444777e-06 4.754171e-06 0.000000e+00 -2.376392e-06 5.064197e-06 0.000000e+00 -2.839736e-06 5.497123e-06 0.000000e+00 -3.434173e-06 7.715501e-06 0.000000e+00 -3.303429e-06 8.177908e-06 0.000000e+00 -2.569173e-07 -4.191569e-07 0.000000e+00 -5.454972e-07 -4.391391e-07 0.000000e+00 -1.813892e-06 4.016978e-07 0.000000e+00 5.082760e-08 -1.093387e-07 0.000000e+00 3.994276e-07 -3.293888e-09 0.000000e+00 1.908430e-07 -5.070391e-08 0.000000e+00 1.310452e-07 -6.806473e-08 0.000000e+00 2.520563e-07 -3.305369e-08 0.000000e+00 5.040724e-07 1.802313e-08 0.000000e+00 6.026146e-07 3.728608e-08 0.000000e+00 8.429321e-07 1.908293e-07 0.000000e+00 7.110717e-07 6.969805e-08 0.000000e+00 3.421866e-07 -1.512563e-08 0.000000e+00 4.780929e-07 1.161844e-08 0.000000e+00 2.394108e-07 -3.489719e-08 0.000000e+00 7.671231e-07 7.682793e-08 0.000000e+00 6.362710e-08 -9.691485e-08 0.000000e+00 5.157501e-07 1.170458e-06 0.000000e+00 6.709006e-07 5.891962e-08 0.000000e+00 -2.658704e-06 3.931574e-06 0.000000e+00 8.105872e-08 -9.937486e-08 0.000000e+00 4.518608e-07 6.378881e-09 0.000000e+00 -3.277432e-06 8.661536e-06 0.000000e+00 5.780058e-07 2.580089e-08 0.000000e+00 2.972360e-07 5.276366e-06 0.000000e+00 2.817874e-07 -2.826112e-08 0.000000e+00 4.253487e-07 1.669855e-09 0.000000e+00 -2.249217e-06 4.410464e-06 0.000000e+00 1.231728e-07 -6.500080e-08 0.000000e+00 2.537380e-08 -1.246268e-07 0.000000e+00 1.697320e-07 -5.374513e-08 0.000000e+00 9.394378e-08 -9.134101e-08 0.000000e+00 -2.099569e-06 1.502723e-06 0.000000e+00 3.638146e-07 -1.072727e-08 0.000000e+00 7.990393e-07 1.045482e-07 0.000000e+00 2.955496e-07 1.460605e-06 0.000000e+00 -1.204123e-08 -1.449067e-07 0.000000e+00 1.591983e-07 -5.496549e-08 0.000000e+00 1.904534e-08 -1.130911e-07 0.000000e+00 -2.146715e-07 -4.395223e-07 0.000000e+00 7.334248e-09 -1.181087e-07 0.000000e+00 3.206606e-07 -1.955718e-08 0.000000e+00 2.203750e-07 -4.283259e-08 0.000000e+00 -2.815451e-06 4.748443e-06 0.000000e+00 -3.139958e-07 -5.547136e-07 0.000000e+00 -3.083489e-07 -3.776933e-07 0.000000e+00 -1.718261e-07 -4.540718e-07 0.000000e+00 -1.070908e-07 -3.498772e-07 0.000000e+00 -8.582172e-08 -3.350794e-07 0.000000e+00 -3.740033e-08 -2.637059e-07 0.000000e+00 -3.440227e-08 -2.534807e-07 0.000000e+00 -4.431405e-08 -2.689606e-07 0.000000e+00 7.392735e-09 -1.837392e-07 0.000000e+00 -8.210528e-08 -3.442203e-07 0.000000e+00 -3.341897e-08 -2.203824e-07 0.000000e+00 -1.271536e-07 -3.418206e-07 0.000000e+00 -1.811936e-09 -1.693825e-07 0.000000e+00 1.826700e-07 -4.826950e-08 0.000000e+00 2.669772e-07 -3.083672e-08 0.000000e+00 -1.786401e-06 2.644752e-06 0.000000e+00 1.462676e-07 -7.689074e-08 0.000000e+00 3.784395e-07 -7.974154e-09 0.000000e+00 8.262434e-07 1.365854e-07 0.000000e+00 5.243499e-07 4.892533e-06 0.000000e+00 -6.531119e-07 -3.359350e-07 0.000000e+00 1.288478e-07 3.454167e-06 0.000000e+00 7.104688e-07 4.361785e-07 0.000000e+00 -1.986990e-06 3.596944e-06 0.000000e+00 -1.022341e-06 -3.079253e-07 0.000000e+00 6.662402e-07 1.165156e-07 0.000000e+00 7.240668e-07 6.071124e-07 0.000000e+00 6.098177e-08 4.814322e-06 0.000000e+00 3.019120e-08 -1.527378e-07 0.000000e+00 -3.480226e-07 -6.365932e-07 0.000000e+00 1.359080e-07 2.072314e-06 0.000000e+00 4.290126e-07 8.792022e-07 0.000000e+00 5.556492e-09 -2.025422e-07 0.000000e+00 -1.439079e-06 -1.979900e-07 0.000000e+00 -7.687903e-07 4.297147e-06 0.000000e+00 1.711519e-08 -1.946110e-07 0.000000e+00 4.709264e-08 2.942498e-06 0.000000e+00 2.390399e-07 -4.332093e-08 0.000000e+00 2.717294e-07 1.135509e-06 0.000000e+00 1.622906e-07 -7.097900e-08 0.000000e+00 -1.644877e-06 1.814386e-06 0.000000e+00 5.660289e-07 5.995554e-08 0.000000e+00 5.702779e-07 6.352366e-07 0.000000e+00 4.565374e-07 2.328107e-08 0.000000e+00 3.812117e-07 1.248952e-10 0.000000e+00 7.184315e-07 3.127130e-07 0.000000e+00 1.892759e-07 -6.411793e-08 0.000000e+00 7.400520e-08 2.461404e-06 0.000000e+00 -2.025068e-07 4.317934e-06 0.000000e+00 2.183158e-07 -5.086442e-08 0.000000e+00 2.481508e-08 1.697731e-06 0.000000e+00 3.534406e-07 4.466431e-06 0.000000e+00 7.174147e-07 1.289163e-07 0.000000e+00 2.374005e-07 3.991415e-06 0.000000e+00 4.411764e-08 -1.437666e-07 0.000000e+00 6.233423e-07 9.792582e-08 0.000000e+00 3.133216e-07 -2.179751e-08 0.000000e+00 4.415843e-07 1.324197e-08 0.000000e+00 1.729084e-07 -7.050235e-08 0.000000e+00 8.707737e-08 -1.141996e-07 0.000000e+00 2.636120e-07 -3.692352e-08 0.000000e+00 -3.453258e-08 -1.631709e-07 0.000000e+00 -5.169821e-08 -2.641369e-07 0.000000e+00 1.162952e-07 -1.028432e-07 0.000000e+00 1.087433e-07 -9.204094e-08 0.000000e+00 -1.558097e-06 1.173186e-06 0.000000e+00 2.853109e-07 -2.973182e-08 0.000000e+00 -1.243627e-06 4.284415e-06 0.000000e+00 6.043856e-07 7.370051e-08 0.000000e+00 5.523834e-08 -1.383602e-07 0.000000e+00 3.353624e-07 -1.554175e-08 0.000000e+00 -1.441522e-06 6.853813e-07 0.000000e+00 -1.531962e-07 -3.230953e-07 0.000000e+00 2.479079e-07 -4.186058e-08 0.000000e+00 -1.092074e-06 9.047690e-07 0.000000e+00 1.130969e-07 -9.779344e-08 0.000000e+00 -1.445226e-06 8.638645e-08 0.000000e+00 3.550092e-07 -8.002647e-09 0.000000e+00 5.418979e-07 4.110710e-08 0.000000e+00 -3.892253e-07 -3.253769e-07 0.000000e+00 1.250220e-07 -1.003333e-07 0.000000e+00 -7.451492e-07 -1.820859e-07 0.000000e+00 6.101182e-08 -1.426759e-07 0.000000e+00 -3.864572e-07 3.188678e-06 0.000000e+00 -1.989906e-07 2.078235e-06 0.000000e+00 4.101886e-07 7.417883e-09 0.000000e+00 -1.267949e-06 3.256453e-07 0.000000e+00 -3.393277e-07 2.572857e-06 0.000000e+00 1.194307e-08 -1.999738e-07 0.000000e+00 -1.733376e-06 4.296291e-06 0.000000e+00 3.279283e-07 -2.403782e-09 0.000000e+00 -5.731553e-08 -2.457353e-07 0.000000e+00 -1.741555e-07 -2.800027e-07 0.000000e+00 -1.060047e-06 3.770988e-06 0.000000e+00 4.839539e-07 3.703010e-08 0.000000e+00 -1.153215e-06 2.133680e-06 0.000000e+00 -1.336132e-06 3.102805e-06 0.000000e+00 -1.491324e-06 3.791510e-06 0.000000e+00 4.885627e-07 6.702040e-08 0.000000e+00 -1.149532e-06 1.421823e-06 0.000000e+00 -9.715930e-07 4.938694e-07 0.000000e+00 3.604969e-07 1.043041e-08 0.000000e+00 7.799179e-08 -1.354208e-07 0.000000e+00 -2.654300e-08 1.281634e-06 0.000000e+00 5.753553e-07 4.399229e-07 0.000000e+00 4.093389e-07 3.779419e-08 0.000000e+00 7.447555e-07 2.192589e-07 0.000000e+00 2.152455e-07 -5.299546e-08 0.000000e+00 7.200574e-07 1.764780e-07 0.000000e+00 -6.044732e-07 3.785113e-06 0.000000e+00 -2.505334e-07 -2.420842e-07 0.000000e+00 4.047252e-07 6.232194e-07 0.000000e+00 -1.089577e-06 -8.794507e-08 0.000000e+00 -4.282664e-07 -2.152211e-07 0.000000e+00 5.536412e-07 1.550658e-07 0.000000e+00 2.741777e-07 -2.781925e-08 0.000000e+00 -1.832314e-07 3.738306e-06 0.000000e+00 1.350595e-07 -9.542680e-08 0.000000e+00 2.989582e-07 -1.524941e-08 0.000000e+00 5.206834e-07 1.044597e-07 0.000000e+00 2.360771e-07 -4.217802e-08 0.000000e+00 8.816048e-08 -1.205006e-07 0.000000e+00 -1.090470e-06 1.028896e-07 0.000000e+00 7.913627e-08 -1.351837e-07 0.000000e+00 5.694364e-08 -1.540367e-07 0.000000e+00 1.710613e-07 -7.503351e-08 0.000000e+00 1.756929e-07 8.794127e-07 0.000000e+00 6.171601e-07 1.879824e-07 0.000000e+00 2.091504e-07 -5.737844e-08 0.000000e+00 -8.260428e-07 2.076816e-07 0.000000e+00 -4.280550e-08 -2.076814e-07 0.000000e+00 1.670682e-07 -6.130198e-08 0.000000e+00 -5.295758e-07 -9.194682e-08 0.000000e+00 -9.627655e-08 -1.954763e-07 0.000000e+00 4.236063e-07 6.011089e-08 0.000000e+00 1.387260e-07 -9.257533e-08 0.000000e+00 -8.060777e-07 -9.677825e-09 0.000000e+00 4.009997e-07 2.006300e-08 0.000000e+00 -3.361253e-07 1.627268e-06 0.000000e+00 2.246848e-08 -1.826081e-07 0.000000e+00 4.389389e-07 4.172361e-07 0.000000e+00 3.905572e-07 1.040306e-07 0.000000e+00 3.374028e-07 6.276015e-08 0.000000e+00 -6.812959e-07 6.444409e-07 0.000000e+00 -8.211143e-07 2.692452e-06 0.000000e+00 6.101297e-07 2.840103e-07 0.000000e+00 4.248176e-07 1.733322e-07 0.000000e+00 -1.878381e-07 -1.671912e-07 0.000000e+00 9.820172e-08 -1.043788e-07 0.000000e+00 2.854106e-07 1.377795e-08 0.000000e+00 2.568443e-07 5.803938e-07 0.000000e+00 2.853312e-07 1.784787e-07 0.000000e+00 1.900582e-07 -4.292912e-08 0.000000e+00 1.598017e-07 -7.432585e-08 0.000000e+00 -5.865763e-07 3.431862e-07 0.000000e+00 -8.608431e-07 3.280650e-06 0.000000e+00 3.397098e-07 3.049350e-08 0.000000e+00 3.232651e-08 -1.469803e-07 0.000000e+00 -7.482699e-07 1.581158e-06 0.000000e+00 -6.255099e-07 2.102435e-06 0.000000e+00 2.635319e-07 -6.119992e-09 0.000000e+00 -7.436968e-07 1.071688e-06 0.000000e+00 -2.006065e-08 -1.338532e-07 0.000000e+00 3.005166e-07 3.940374e-07 0.000000e+00 2.438290e-07 1.088761e-07 0.000000e+00 2.223238e-07 -2.354631e-08 0.000000e+00 1.025906e-07 -6.179842e-08 0.000000e+00 -5.011493e-07 1.690679e-07 0.000000e+00 2.371274e-07 4.608345e-08 0.000000e+00 9.091975e-08 -1.240664e-07 0.000000e+00 -5.591264e-07 4.294980e-08 0.000000e+00 9.099257e-08 -8.779494e-08 0.000000e+00 4.724426e-07 2.578911e-07 0.000000e+00 3.054224e-07 2.644849e-07 0.000000e+00 -3.315297e-07 4.109950e-07 0.000000e+00 5.433585e-08 7.278297e-07 0.000000e+00 -2.910262e-07 -1.092044e-07 0.000000e+00 -1.102493e-07 -1.017164e-07 0.000000e+00 -4.058312e-07 1.212007e-06 0.000000e+00 3.337331e-08 -1.623010e-07 0.000000e+00 -3.784274e-07 7.713430e-07 0.000000e+00 1.238479e-07 -3.210839e-08 0.000000e+00 -2.550844e-07 1.845626e-07 0.000000e+00 1.802016e-07 4.002673e-09 0.000000e+00 -3.609653e-07 -2.942119e-08 0.000000e+00 9.524629e-08 5.346201e-07 0.000000e+00 -1.506162e-07 -3.026277e-08 0.000000e+00 1.380739e-07 8.730881e-08 0.000000e+00 -7.491551e-08 4.524469e-07 0.000000e+00 1.531959e-07 1.862365e-07 0.000000e+00 3.127347e-08 -3.025556e-09 0.000000e+00 1.247698e-08 -8.843503e-08 0.000000e+00 8.947434e-08 4.382817e-08 0.000000e+00 1.532572e-07 3.772423e-07 0.000000e+00 -1.358467e-07 9.503141e-07 0.000000e+00 1.322681e-07 2.809722e-07 0.000000e+00 2.738529e-09 -5.424859e-08 0.000000e+00 -1.037187e-07 6.830179e-07 0.000000e+00 -3.038362e-07 6.168067e-08 0.000000e+00 1.004275e-07 1.441217e-07 0.000000e+00 -4.626297e-08 2.431413e-07 0.000000e+00 -9.415624e-08 5.421231e-08 0.000000e+00 -1.456563e-08 1.172131e-07 0.000000e+00 </DataArray>
 <DataArray type="Float64" Name="IST_StressTensor" NumberOfComponents="9" format="ascii"> 1.427200e-01 4.982844e-01 0.000000e+00 4.982844e-01 -3.607979e-01 0.000000e+00 0.000000e+00 0.000000e+00 0.000000e+00 -9.627120e-02 -9.922731e-02 0.000000e+00 -9.922731e-02 -1.022742e-01 0.000000e+00 0.000000e+00 0.000000e+00 0.000000e+00 4.945944e+00 1.573375e+00 0.000000e+00 1.573375e+00 8.124689e-01 0.000000e+00 0.000000e+00 0.000000e+00 0.000000e+00 6.109492e-02 -9.782587e-02 0.000000e+00 -9.782587e-02 4.520869e-02 0.000000e+00 0.000000e+00 0.000000e+00 0.000000e+00 2.786079e+00 8.308186e-01 0.000000e+00 8.308186e-01 2.357456e-01 0.000000e+00 0.000000e+00 0.000000e+00 0.000000e+00 -6.262003e-01 -6.342488e-01 0.000000e+00 -6.342488e-01 -5.923611e-01 0.000000e+00 0.000000e+00 0.000000e+00 0.000000e+00 3.073770e+01 1.047281e+01 0.000000e+00 1.047281e+01 3.575121e+01 0.000000e+00 0.000000e+00 0.000000e+00 0.000000e+00 3.643864e-01 -8.325394e-01 0.000000e+00 -8.325394e-01 -2.141937e+01 0.000000e+00 0.000000e+00 0.000000e+00 0.000000e+00 -1.770566e-01 4.712012e-01 0.000000e+00 4.712012e-01 -3.725724e-01 0.000000e+00 0.000000e+00 0.000000e+00 0.000000e+00 -4.037618e-01 3.082636e-01 0.000000e+00 3.082636e-01 -5.095855e-01 0.000000e+00 0.000000e+00 0.000000e+00 0.000000e+00 -4.521417e-01 1.228629e-01 0.000000e+00 1.228629e-01 -8.386379e-01 0.000000e+00 0.000000e+00 0.000000e+00 0.000000e+00 -2.749482e-01 8.936917e-02 0.000000e+00 8.936917e-02 -1.397658e+00 0.000000e+00 0.000000e+00 0.000000e+00 0.000000e+00 5.866399e-02 4.814936e-01 0.000000e+00 4.814936e-01 -2.024077e+00 0.000000e+00 0.000000e+00 0.000000e+00 0.000000e+00 2.146855e-01 1.185069e+00 0.000000e+00 1.185069e+00 -2.367128e+00 0.000000e+00 0.000000e+00 0.000000e+00 0.000000e+00 1.449119e-01 2.077834e+00 0.000000e+00 2.077834e+00 -2.409650e+00 0.000000e+00 0.000000e+00 0.000000e+00 0.000000e+00 -1.325867e-01 2.850932e+00 0.000000e+00 2.850932e+00 -2.203595e+00 0.000000e+00 0.000000e+00 0.000000e+00 0.000000e+00 -4.987933e-01 3.552529e+00 0.000000e+00 3.552529e+00 -1.848854e+00 0.000000e+00 0.000000e+00 0.000000e+00 0.000000e+00 -8.381486e-01 4.018752e+00 0.000000e+00 4.018752e+00 -1.320041e+00 0.000000e+00 0.000000e+00 0.000000e+00 0.000000e+00 -9.393648e-01 4.149016e+00 0.000000e+00 4.149016e+00 -6.985127e-01 0.000000e+00 0.000000e+00 0.000000e+00 0.000000e+00 -6.527936e-01 4.003296e+00 0.000000e+00 4.003296e+00 -2.494138e-01 0.000000e+00 0.000000e+00 0.000000e+00 0.000000e+00 4.435201e-02 3.780616e+00 0.000000e+00 3.780616e+00 -9.540207e-02 0.000000e+00 0.000000e+00 0.000000e+00 0.000000e+00 9.144808e-01 3.680216e+00 0.000000e+00 3.680216e+00 -1.227383e-01 0.000000e+00 0.000000e+00 0.000000e+00 0.000000e+00 1.644765e+00 3.698597e+00 0.000000e+00 3.698597e+00 -1.156543e-01 0.000000e+00 0.000000e+00 0.000000e+00 0.000000e+00 2.092691e+00 3.734561e+00 0.000000e+00 3.734561e+00 -7.432796e-03 0.000000e+00 0.000000e+00 0.000000e+00 0.000000e+00 2.187777e+00 3.685543e+00 0.000000e+00 3.685543e+00 2.765000e-01 0.000000e+00 0.000000e+00 0.000000e+00 0.000000e+00 1.915101e+00 3.484062e+00 0.000000e+00 3.484062e+00 7.036795e-01 0.000000e+00 0.000000e+00 0.000000e+00 0.000000e+00 1.230455e+00 2.976968e+00 0.000000e+00 2.976968e+00 1.125019e+00 0.000000e+00 0.000000e+00 0.000000e+00 0.000000e+00 4.958941e-01 2.170412e+00 0.000000e+00 2.170412e+00 1.297290e+00 0.000000e+00 0.000000e+00 0.000000e+00 0.000000e+00 1.982040e-01 1.270851e+00 0.000000e+00 1.270851e+00 1.455587e+00 0.000000e+00 0.000000e+00 0.000000e+00 0.000000e+00 9.617064e-02 4.617561e-01 0.000000e+00 4.617561e-01 1.303523e+00 0.000000e+00 0.000000e+00 0.000000e+00 0.000000e+00 2.318134e-01 -9.183837e-02 0.000000e+00 -9.183837e-02 1.013081e+00 0.000000e+00 0.000000e+00 0.000000e+00 0.000000e+00 5.747515e-01 -3.570123e-01 0.000000e+00 -3.570123e-01 4.842765e-01 0.000000e+00 0.000000e+00 0.000000e+00 0.000000e+00 7.526007e-01 -2.410423e-01 0.000000e+00 -2.410423e-01 2.416805e-02 0.000000e+00 0.000000e+00 0.000000e+00 0.000000e+00 7.310459e-01 4.644097e-02 0.000000e+00 4.644097e-02 -2.627215e-01 0.000000e+00 0.000000e+00 0.000000e+00 0.000000e+00 5.032800e-01 3.329138e-01 0.000000e+00 3.329138e-01 -3.604093e-01 0.000000e+00 0.000000e+00 0.000000e+00 0.000000e+00 -4.376202e-01 -1.157013e+00 0.000000e+00 -1.157013e+00 -2.101334e+00 0.000000e+00 0.000000e+00 0.000000e+00 0.000000e+00 1.054505e-02 -1.549719e+00 0.000000e+00 -1.549719e+00 -6.310788e+00 0.000000e+00 0.000000e+00 0.000000e+00 0.000000e+00 3.114593e-01 -1.213535e+00 0.000000e+00 -1.213535e+00 -1.261498e+01 0.000000e+00 0.000000e+00 0.000000e+00 0.000000e+00 3.233342e-01 -6.120077e-01 0.000000e+00 -6.120077e-01 -1.844733e+01 0.000000e+00 0.000000e+00 0.000000e+00 0.000000e+00 1.647613e+01 4.689381e+00 0.000000e+00 4.689381e+00 2.412361e+00 0.000000e+00 0.000000e+00 0.000000e+00 0.000000e+00 8.184030e+00 2.242769e-01 0.000000e+00 2.242769e-01 -7.393621e-02 0.000000e+00 0.000000e+00 0.000000e+00 0.000000e+00 7.611572e+00 3.950363e-01 0.000000e+00 3.950363e-01 5.792215e-02 0.000000e+00 0.000000e+00 0.000000e+00 0.000000e+00 6.905333e+00 4.198930e-01 0.000000e+00 4.198930e-01 -3.726989e-02 0.000000e+00 0.000000e+00 0.000000e+00 0.000000e+00 6.172720e+00 4.781471e-01 0.000000e+00 4.781471e-01 -4.612084e-02 0.000000e+00 0.000000e+00 0.000000e+00 0.000000e+00 5.395607e+00 5.408455e-01 0.000000e+00 5.408455e-01 -3.404496e-02 0.000000e+00 0.000000e+00 0.000000e+00 0.000000e+00 4.552612e+00 6.198107e-01 0.000000e+00 6.198107e-01 -4.619352e-02 0.000000e+00 0.000000e+00 0.000000e+00 0.000000e+00 3.545994e+00 7.100192e-01 0.000000e+00 7.100192e-01 -1.120212e-02 0.000000e+00 0.000000e+00 0.000000e+00 0.000000e+00 1.938510e-01 -8.674788e-02 0.000000e+00 -8.674788e-02 -1.802846e-02 0.000000e+00 0.000000e+00 0.000000e+00 0.000000e+00 2.825869e-01 -4.745534e-02 0.000000e+00 -4.745534e-02 -4.258887e-02 0.000000e+00 0.000000e+00 0.000000e+00 0.000000e+00 2.437448e-01 9.628256e-02 0.000000e+00 9.628256e-02 -1.206089e-01 0.000000e+00 0.000000e+00 0.000000e+00 0.000000e+00 -2.448648e-01 3.180695e-01 0.000000e+00 3.180695e-01 -1.412895e-01 0.000000e+00 0.000000e+00 0.000000e+00 0.000000e+00 -1.304325e+00 5.823846e-01 0.000000e+00 5.823846e-01 -1.451347e-01 0.000000e+00 0.000000e+00 0.000000e+00 0.000000e+00 -2.920353e+00 8.264036e-01 0.000000e+00 8.264036e-01 -1.072590e-01 0.000000e+00 0.000000e+00 0.000000e+00 0.000000e+00 -4.768109e+00 9.787708e-01 0.000000e+00 9.787708e-01 -4.282607e-02 0.000000e+00 0.000000e+00 0.000000e+00 0.000000e+00 -6.891717e+00 1.008859e+00 0.000000e+00 1.008859e+00 3.011160e-02 0.000000e+00 0.000000e+00 0.000000e+00 0.000000e+00 -8.803328e+00 9.019366e-01 0.000000e+00 9.019366e-01 1.480461e-01 0.000000e+00 0.000000e+00 0.000000e+00 0.000000e+00 -1.020323e+01 6.241788e-01 0.000000e+00 6.241788e-01 2.804795e-01 0.000000e+00 0.000000e+00 0.000000e+00 0.000000e+00 -1.053775e+01 4.461094e-02 0.000000e+00 4.461094e-02 4.857134e-01 0.000000e+00 0.000000e+00 0.000000e+00 0.000000e+00 -9.240776e+00 -8.961075e-01 0.000000e+00 -8.961075e-01 5.222174e-01 0.000000e+00 0.000000e+00 0.000000e+00 0.000000e+00 -6.222946e+00 -1.409527e+00 0.000000e+00 -1.409527e+00 2.805885e-01 0.000000e+00 0.000000e+00 0.000000e+00 0.000000e+00 -2.483451e+00 -1.233837e+00 0.000000e+00 -1.233837e+00 -3.106485e-01 0.000000e+00 0.000000e+00 0.000000e+00 0.000000e+00 4.006096e+00 1.495834e+00 0.000000e+00 1.495834e+00 4.903508e-01 0.000000e+00 0.000000e+00 0.000000e+00 0.000000e+00 -4.175324e-02 -1.109956e-01 0.000000e+00 -1.109956e-01 -1.740433e-01 0.000000e+00 0.000000e+00 0.000000e+00 0.000000e+00 2.455858e-02 -9.334582e-02 0.000000e+00 -9.334582e-02 -4.631160e-01 0.000000e+00 0.000000e+00 0.000000e+00 0.000000e+00 7.184224e-02 1.486564e-02 0.000000e+00 1.486564e-02 -5.806656e-01 0.000000e+00 0.000000e+00 0.000000e+00 0.000000e+00 5.326570e-02 1.249144e-01 0.000000e+00 1.249144e-01 -4.581020e-01 0.000000e+00 0.000000e+00 0.000000e+00 0.000000e+00 1.552259e-02 1.863144e-01 0.000000e+00 1.863144e-01 -1.494877e-01 0.000000e+00 0.000000e+00 0.000000e+00 0.000000e+00 -3.259216e-02 1.744943e-01 0.000000e+00 1.744943e-01 1.541190e-01 0.000000e+00 0.000000e+00 0.000000e+00 0.000000e+00 -4.802970e-02 9.344805e-02 0.000000e+00 9.344805e-02 3.886379e-01 0.000000e+00 0.000000e+00 0.000000e+00 0.000000e+00 -4.991083e-02 1.035036e-02 0.000000e+00 1.035036e-02 4.615591e-01 0.000000e+00 0.000000e+00 0.000000e+00 0.000000e+00 -4.110020e-02 -7.275947e-02 0.000000e+00 -7.275947e-02 3.499927e-01 0.000000e+00 0.000000e+00 0.000000e+00 0.000000e+00 6.845497e-03 -1.028073e-01 0.000000e+00 -1.028073e-01 1.547779e-01 0.000000e+00 0.000000e+00 0.000000e+00 0.000000e+00 4.304325e+00 1.056533e+00 0.000000e+00 1.056533e+00 2.281350e-01 0.000000e+00 0.000000e+00 0.000000e+00 0.000000e+00 2.412998e+00 7.928886e-01 0.000000e+00 7.928886e-01 8.100066e-02 0.000000e+00 0.000000e+00 0.000000e+00 0.000000e+00 8.474015e-01 6.482745e-01 0.000000e+00 6.482745e-01 1.255458e-01 0.000000e+00 0.000000e+00 0.000000e+00 0.000000e+00 -4.707984e-01 4.285677e-01 0.000000e+00 4.285677e-01 1.958858e-01 0.000000e+00 0.000000e+00 0.000000e+00 0.000000e+00 -1.168608e+00 1.182885e-01 0.000000e+00 1.182885e-01 1.912747e-01 0.000000e+00 0.000000e+00 0.000000e+00 0.000000e+00 -1.099845e+00 -1.231408e-01 0.000000e+00 -1.231408e-01 1.161720e-01 0.000000e+00 0.000000e+00 0.000000e+00 0.000000e+00 -6.396233e-01 -2.168869e-01 0.000000e+00 -2.168869e-01 1.862650e-02 0.000000e+00 0.000000e+00 0.000000e+00 0.000000e+00 -1.603382e-01 -1.649198e-01 0.000000e+00 -1.649198e-01 -8.469533e-02 0.000000e+00 0.000000e+00 0.000000e+00 0.000000e+00 -3.316364e+00 -9.191717e-01 0.000000e+00 -9.191717e-01 -1.999221e+01 0.000000e+00 0.000000e+00 0.000000e+00 0.000000e+00 -1.670855e+00 -6.780350e-01 0.000000e+00 -6.780350e-01 -1.911856e+01 0.000000e+00 0.000000e+00 0.000000e+00 0.000000e+00 -9.716459e-01 -4.156704e-01 0.000000e+00 -4.156704e-01 -1.813608e+01 0.000000e+00 0.000000e+00 0.000000e+00 0.000000e+00 -4.727625e-01 -2.971897e-01 0.000000e+00 -2.971897e-01 -1.712989e+01 0.000000e+00 0.000000e+00 0.000000e+00 0.000000e+00 -7.095400e-02 -2.375049e-01 0.000000e+00 -2.375049e-01 -1.618030e+01 0.000000e+00 0.000000e+00 0.000000e+00 0.000000e+00 2.451671e-01 -2.065392e-01 0.000000e+00 -2.065392e-01 -1.524639e+01 0.000000e+00 0.000000e+00 0.000000e+00 0.000000e+00 5.321258e-01 -1.953540e-01 0.000000e+00 -1.953540e-01 -1.434799e+01 0.000000e+00 0.000000e+00 0.000000e+00 0.000000e+00 7.921130e-01 -1.866495e-01 0.000000e+00 -1.866495e-01 -1.348826e+01 0.000000e+00 0.000000e+00 0.000000e+00 0.000000e+00 1.055672e+00 -1.912081e-01 0.000000e+00 -1.912081e-01 -1.265901e+01 0.000000e+00 0.000000e+00 0.000000e+00 0.000000e+00 1.321655e+00 -1.954868e-01 0.000000e+00 -1.954868e-01 -1.184347e+01 0.000000e+00 0.000000e+00 0.000000e+00 0.000000e+00 1.621443e+00 -2.031198e-01 0.000000e+00 -2.031198e-01 -1.104564e+01 0.000000e+00 0.000000e+00 0.000000e+00 0.000000e+00 1.920979e+00 -1.992655e-01 0.000000e+00 -1.992655e-01 -1.026664e+01 0.000000e+00 0.000000e+00 0.000000e+00 0.000000e+00 2.231871e+00 -2.014008e-01 0.000000e+00 -2.014008e-01 -9.526576e+00 0.000000e+00 0.000000e+00 0.000000e+00 0.000000e+00 2.561419e+00 -2.047503e-01 0.000000e+00 -2.047503e-01 -8.839826e+00 0.000000e+00 0.000000e+00 0.000000e+00 0.000000e+00 2.898272e+00 -2.033510e-01 0.000000e+00 -2.033510e-01 -8.134133e+00 0.000000e+00 0.000000e+00 0.000000e+00 0.000000e+00 3.242734e+00 -2.153754e-01 0.000000e+00 -2.153754e-01 -7.422355e+00 0.000000e+00 0.000000e+00 0.000000e+00 0.000000e+00 3.619441e+00 -2.272541e-01 0.000000e+00 -2.272541e-01 -6.748750e+00 0.000000e+00 0.000000e+00 0.000000e+00 0.000000e+00 4.000943e+00 -2.335211e-01 0.000000e+00 -2.335211e-01 -6.092988e+00 0.000000e+00 0.000000e+00 0.000000e+00 0.000000e+00 4.409328e+00 -2.480176e-01 0.000000e+00 -2.480176e-01 -5.449873e+00 0.000000e+00 0.000000e+00 0.000000e+00 0.000000e+00 4.823976e+00 -2.550820e-01 0.000000e+00 -2.550820e-01 -4.815862e+00 0.000000e+00 0.000000e+00 0.000000e+00 0.000000e+00 5.255077e+00 -2.633686e-01 0.000000e+00 -2.633686e-01 -4.155497e+00 0.000000e+00 0.000000e+00 0.000000e+00 0.000000e+00 5.711019e+00 -2.751894e-01 0.000000e+00 -2.751894e-01 -3.505731e+00 0.000000e+00 0.000000e+00 0.000000e+00 0.000000e+00 6.186777e+00 -2.824014e-01 0.000000e+00 -2.824014e-01 -2.887338e+00 0.000000e+00 0.000000e+00 0.000000e+00 0.000000e+00 6.677474e+00 -2.905116e-01 0.000000e+00 -2.905116e-01 -2.280572e+00 0.000000e+00 0.000000e+00 0.000000e+00 0.000000e+00 7.185906e+00 -3.045852e-01 0.000000e+00 -3.045852e-01 -1.662540e+00 0.000000e+00 0.000000e+00 0.000000e+00 0.000000e+00 7.725616e+00 -3.173215e-01 0.000000e+00 -3.173215e-01 -1.030480e+00 0.000000e+00 0.000000e+00 0.000000e+00 0.000000e+00 8.274744e+00 -3.221187e-01 0.000000e+00 -3.221187e-01 -3.621341e-01 0.000000e+00 0.000000e+00 0.000000e+00 0.000000e+00 8.853626e+00 -3.336800e-01 0.000000e+00 -3.336800e-01 3.310471e-01 0.000000e+00 0.000000e+00 0.000000e+00 0.000000e+00 9.453614e+00 -3.499476e-01 0.000000e+00 -3.499476e-01 9.946624e-01 0.000000e+00 0.000000e+00 0.000000e+00 0.000000e+00 1.008618e+01 -3.629337e-01 0.000000e+00 -3.629337e-01 1.670254e+00 0.000000e+00 0.000000e+00 0.000000e+00 0.000000e+00 1.074638e+01 -3.792544e-01 0.000000e+00 -3.792544e-01 2.422358e+00 0.000000e+00 0.000000e+00 0.000000e+00 0.000000e+00 1.142509e+01 -4.058087e-01 0.000000e+00 -4.058087e-01 3.223631e+00 0.000000e+00 0.000000e+00 0.000000e+00 0.000000e+00 1.215070e+01 -4.391918e-01 0.000000e+00 -4.391918e-01 4.036423e+00 0.000000e+00 0.000000e+00 0.000000e+00 0.000000e+00 1.293815e+01 -4.796192e-01 0.000000e+00 -4.796192e-01 4.837500e+00 0.000000e+00 0.000000e+00 0.000000e+00 0.000000e+00 1.378849e+01 -5.017182e-01 0.000000e+00 -5.017182e-01 5.669347e+00 0.000000e+00 0.000000e+00 0.000000e+00 0.000000e+00 1.469212e+01 -5.075419e-01 0.000000e+00 -5.075419e-01 6.623831e+00 0.000000e+00 0.000000e+00 0.000000e+00 0.000000e+00 1.564560e+01 -5.185640e-01 0.000000e+00 -5.185640e-01 7.672632e+00 0.000000e+00 0.000000e+00 0.000000e+00 0.000000e+00 1.667381e+01 -5.491066e-01 0.000000e+00 -5.491066e-01 8.742748e+00 0.000000e+00 0.000000e+00 0.000000e+00 0.000000e+00 1.774750e+01 -6.329577e-01 0.000000e+00 -6.329577e-01 9.910975e+00 0.000000e+00 0.000000e+00 0.000000e+00 0.000000e+00 1.901368e+01 -7.516504e-01 0.000000e+00 -7.516504e-01 1.118741e+01 0.000000e+00 0.000000e+00 0.000000e+00 0.000000e+00 2.042305e+01 -8.537516e-01 0.000000e+00 -8.537516e-01 1.258704e+01 0.000000e+00 0.000000e+00 0.000000e+00 0.000000e+00 2.204438e+01 -9.876220e-01 0.000000e+00 -9.876220e-01 1.416591e+01 0.000000e+00 0.000000e+00 0.000000e+00 0.000000e+00 2.398179e+01 -1.114031e+00 0.000000e+00 -1.114031e+00 1.605688e+01 0.000000e+00 0.000000e+00 0.000000e+00 0.000000e+00 2.624465e+01 -1.345596e+00 0.000000e+00 -1.345596e+00 1.832815e+01 0.000000e+00 0.000000e+00 0.000000e+00 0.000000e+00 2.890501e+01 -1.832628e+00 0.000000e+00 -1.832628e+00 2.098787e+01 0.000000e+00 0.000000e+00 0.000000e+00 0.000000e+00 3.233654e+01 -2.664950e+00 0.000000e+00 -2.664950e+00 2.441683e+01 0.000000e+00 0.000000e+00 0.000000e+00 0.000000e+00 3.694305e+01 -4.212585e+00 0.000000e+00 -4.212585e+00 2.926460e+01 0.000000e+00 0.000000e+00 0.000000e+00 0.000000e+00 4.292315e+01 -7.076666e+00 0.000000e+00 -7.076666e+00 3.701721e+01 0.000000e+00 0.000000e+00 0.000000e+00 0.000000e+00 4.945241e+01 -1.182899e+01 0.000000e+00 -1.182899e+01 5.186806e+01 0.000000e+00 0.000000e+00 0.000000e+00 0.000000e+00 -1.399102e+00 -1.247835e+00 0.000000e+00 -1.247835e+00 -2.031364e+01 0.000000e+00 0.000000e+00 0.000000e+00 0.000000e+00 -5.136175e-01 -4.996404e-01 0.000000e+00 -4.996404e-01 -1.770064e+01 0.000000e+00 0.000000e+00 0.000000e+00 0.000000e+00 1.630019e-01 -3.211218e-01 0.000000e+00 -3.211218e-01 -1.572709e+01 0.000000e+00 0.000000e+00 0.000000e+00 0.000000e+00 6.884591e-01 -2.880979e-01 0.000000e+00 -2.880979e-01 -1.393604e+01 0.000000e+00 0.000000e+00 0.000000e+00 0.000000e+00 1.181349e+00 -3.022869e-01 0.000000e+00 -3.022869e-01 -1.223839e+01 0.000000e+00 0.000000e+00 0.000000e+00 0.000000e+00 1.767908e+00 -3.325810e-01 0.000000e+00 -3.325810e-01 -1.064149e+01 0.000000e+00 0.000000e+00 0.000000e+00 0.000000e+00 2.391695e+00 -3.304037e-01 0.000000e+00 -3.304037e-01 -9.180447e+00 0.000000e+00 0.000000e+00 0.000000e+00 0.000000e+00 3.062377e+00 -3.577815e-01 0.000000e+00 -3.577815e-01 -7.770881e+00 0.000000e+00 0.000000e+00 0.000000e+00 0.000000e+00 3.799229e+00 -3.796550e-01 0.000000e+00 -3.796550e-01 -6.417076e+00 0.000000e+00 0.000000e+00 0.000000e+00 0.000000e+00 4.574853e+00 -4.434834e-01 0.000000e+00 -4.434834e-01 -5.125815e+00 0.000000e+00 0.000000e+00 0.000000e+00 0.000000e+00 5.462952e+00 -4.915891e-01 0.000000e+00 -4.915891e-01 -3.831650e+00 0.000000e+00 0.000000e+00 0.000000e+00 0.000000e+00 6.397001e+00 -5.165821e-01 0.000000e+00 -5.165821e-01 -2.579752e+00 0.000000e+00 0.000000e+00 0.000000e+00 0.000000e+00 7.404800e+00 -5.839409e-01 0.000000e+00 -5.839409e-01 -1.345970e+00 0.000000e+00 0.000000e+00 0.000000e+00 0.000000e+00 8.516658e+00 -6.277701e-01 0.000000e+00 -6.277701e-01 -2.269605e-02 0.000000e+00 0.000000e+00 0.000000e+00 0.000000e+00 9.714686e+00 -6.449027e-01 0.000000e+00 -6.449027e-01 1.349317e+00 0.000000e+00 0.000000e+00 0.000000e+00 0.000000e+00 1.101313e+01 -7.440479e-01 0.000000e+00 -7.440479e-01 2.836075e+00 0.000000e+00 0.000000e+00 0.000000e+00 0.000000e+00 1.247717e+01 -8.520706e-01 0.000000e+00 -8.520706e-01 4.473176e+00 0.000000e+00 0.000000e+00 0.000000e+00 0.000000e+00 1.411102e+01 -9.721383e-01 0.000000e+00 -9.721383e-01 6.208318e+00 0.000000e+00 0.000000e+00 0.000000e+00 0.000000e+00 1.607033e+01 -9.760883e-01 0.000000e+00 -9.760883e-01 8.247679e+00 0.000000e+00 0.000000e+00 0.000000e+00 0.000000e+00 1.813660e+01 -1.300539e+00 0.000000e+00 -1.300539e+00 1.056918e+01 0.000000e+00 0.000000e+00 0.000000e+00 0.000000e+00 2.081688e+01 -1.725586e+00 0.000000e+00 -1.725586e+00 1.349017e+01 0.000000e+00 0.000000e+00 0.000000e+00 0.000000e+00 2.452117e+01 -2.060466e+00 0.000000e+00 -2.060466e+00 1.727404e+01 0.000000e+00 0.000000e+00 0.000000e+00 0.000000e+00 2.882572e+01 -3.403074e+00 0.000000e+00 -3.403074e+00 2.283806e+01 0.000000e+00 0.000000e+00 0.000000e+00 0.000000e+00 3.376144e+01 -6.125966e+00 0.000000e+00 -6.125966e+00 3.300899e+01 0.000000e+00 0.000000e+00 0.000000e+00 0.000000e+00 3.232574e+01 -2.278115e+00 0.000000e+00 -2.278115e+00 5.570270e+01 0.000000e+00 0.000000e+00 0.000000e+00 0.000000e+00 9.536517e+00 1.364094e+00 0.000000e+00 1.364094e+00 4.267012e-01 0.000000e+00 0.000000e+00 0.000000e+00 0.000000e+00 6.945841e+00 9.564504e-01 0.000000e+00 9.564504e-01 2.823979e-02 0.000000e+00 0.000000e+00 0.000000e+00 0.000000e+00 5.218817e+00 9.647152e-01 0.000000e+00 9.647152e-01 -5.297677e-02 0.000000e+00 0.000000e+00 0.000000e+00 0.000000e+00 3.712333e+00 1.120420e+00 0.000000e+00 1.120420e+00 3.633469e-02 0.000000e+00 0.000000e+00 0.000000e+00 0.000000e+00 4.404352e+00 1.501829e+00 0.000000e+00 1.501829e+00 3.508007e-01 0.000000e+00 0.000000e+00 0.000000e+00 0.000000e+00 4.181311e+00 1.550929e+00 0.000000e+00 1.550929e+00 5.638223e-01 0.000000e+00 0.000000e+00 0.000000e+00 0.000000e+00 1.741319e+00 1.280986e+00 0.000000e+00 1.280986e+00 1.663981e-01 0.000000e+00 0.000000e+00 0.000000e+00 0.000000e+00 -4.653139e-01 3.703550e-01 0.000000e+00 3.703550e-01 2.454779e-01 0.000000e+00 0.000000e+00 0.000000e+00 0.000000e+00 -5.347310e-01 -2.534198e-01 0.000000e+00 -2.534198e-01 6.887471e-02 0.000000e+00 0.000000e+00 0.000000e+00 0.000000e+00 -1.703107e-02 -1.853839e-01 0.000000e+00 -1.853839e-01 -2.147442e-01 0.000000e+00 0.000000e+00 0.000000e+00 0.000000e+00 1.393780e-01 8.462743e-02 0.000000e+00 8.462743e-02 -4.412460e-01 0.000000e+00 0.000000e+00 0.000000e+00 0.000000e+00 -1.687012e-02 2.639326e-01 0.000000e+00 2.639326e-01 -8.762496e-02 0.000000e+00 0.000000e+00 0.000000e+00 0.000000e+00 -8.602264e-02 6.554673e-02 0.000000e+00 6.554673e-02 2.026829e-01 0.000000e+00 0.000000e+00 0.000000e+00 0.000000e+00 -4.162150e-02 -9.877078e-02 0.000000e+00 -9.877078e-02 7.674201e-02 0.000000e+00 0.000000e+00 0.000000e+00 0.000000e+00 6.932359e-02 -9.130127e-02 0.000000e+00 -9.130127e-02 -4.679731e-03 0.000000e+00 0.000000e+00 0.000000e+00 0.000000e+00 6.833729e-02 4.848616e-02 0.000000e+00 4.848616e-02 -1.649548e-01 0.000000e+00 0.000000e+00 0.000000e+00 0.000000e+00 -9.046849e-01 7.558864e-01 0.000000e+00 7.558864e-01 -2.430045e-01 0.000000e+00 0.000000e+00 0.000000e+00 0.000000e+00 -3.410569e+00 1.503525e+00 0.000000e+00 1.503525e+00 -1.109498e-01 0.000000e+00 0.000000e+00 0.000000e+00 0.000000e+00 -6.481532e+00 1.526857e+00 0.000000e+00 1.526857e+00 1.685262e-01 0.000000e+00 0.000000e+00 0.000000e+00 0.000000e+00 -8.383007e+00 4.362087e-01 0.000000e+00 4.362087e-01 5.794233e-01 0.000000e+00 0.000000e+00 0.000000e+00 0.000000e+00 -6.633586e+00 -1.821384e+00 0.000000e+00 -1.821384e+00 5.356506e-01 0.000000e+00 0.000000e+00 0.000000e+00 0.000000e+00 -3.894696e+00 -2.247259e+00 0.000000e+00 -2.247259e+00 -1.085890e-01 0.000000e+00 0.000000e+00 0.000000e+00 0.000000e+00 -1.332847e+00 -1.578459e+00 0.000000e+00 -1.578459e+00 -1.035312e+00 0.000000e+00 0.000000e+00 0.000000e+00 0.000000e+00 -3.883069e-01 -2.173231e+00 0.000000e+00 -2.173231e+00 -3.459822e+00 0.000000e+00 0.000000e+00 0.000000e+00 0.000000e+00 2.634521e-01 3.939844e-01 0.000000e+00 3.939844e-01 -3.400107e-01 0.000000e+00 0.000000e+00 0.000000e+00 0.000000e+00 5.221678e-01 1.568855e-01 0.000000e+00 1.568855e-01 -3.269924e-01 0.000000e+00 0.000000e+00 0.000000e+00 0.000000e+00 6.242601e-01 -1.435859e-01 0.000000e+00 -1.435859e-01 -1.757268e-01 0.000000e+00 0.000000e+00 0.000000e+00 0.000000e+00 5.802443e-01 -3.555326e-01 0.000000e+00 -3.555326e-01 1.818273e-01 0.000000e+00 0.000000e+00 0.000000e+00 0.000000e+00 3.130441e-01 -2.978686e-01 0.000000e+00 -2.978686e-01 5.980314e-01 0.000000e+00 0.000000e+00 0.000000e+00 0.000000e+00 8.070182e-02 9.789965e-02 0.000000e+00 9.789965e-02 9.351562e-01 0.000000e+00 0.000000e+00 0.000000e+00 0.000000e+00 1.348878e-01 7.612600e-01 0.000000e+00 7.612600e-01 1.162133e+00 0.000000e+00 0.000000e+00 0.000000e+00 0.000000e+00 4.469854e-01 1.579113e+00 0.000000e+00 1.579113e+00 1.198014e+00 0.000000e+00 0.000000e+00 0.000000e+00 0.000000e+00 1.026584e+00 2.411103e+00 0.000000e+00 2.411103e+00 1.041679e+00 0.000000e+00 0.000000e+00 0.000000e+00 0.000000e+00 1.781970e+00 3.036314e+00 0.000000e+00 3.036314e+00 8.033815e-01 0.000000e+00 0.000000e+00 0.000000e+00 0.000000e+00 2.268242e+00 3.420939e+00 0.000000e+00 3.420939e+00 4.554472e-01 0.000000e+00 0.000000e+00 0.000000e+00 0.000000e+00 2.344639e+00 3.600525e+00 0.000000e+00 3.600525e+00 1.462307e-01 0.000000e+00 0.000000e+00 0.000000e+00 0.000000e+00 2.017914e+00 3.680176e+00 0.000000e+00 3.680176e+00 -1.621543e-02 0.000000e+00 0.000000e+00 0.000000e+00 0.000000e+00 1.357871e+00 3.705090e+00 0.000000e+00 3.705090e+00 -3.513937e-02 0.000000e+00 0.000000e+00 0.000000e+00 0.000000e+00 4.724841e-01 3.775535e+00 0.000000e+00 3.775535e+00 1.135851e-02 0.000000e+00 0.000000e+00 0.000000e+00 0.000000e+00 -3.909218e-01 3.915548e+00 0.000000e+00 3.915548e+00 -3.155741e-02 0.000000e+00 0.000000e+00 0.000000e+00 0.000000e+00 -9.599266e-01 4.044642e+00 0.000000e+00 4.044642e+00 -3.200742e-01 0.000000e+00 0.000000e+00 0.000000e+00 0.000000e+00 -1.143758e+00 3.999551e+00 0.000000e+00 3.999551e+00 -8.515073e-01 0.000000e+00 0.000000e+00 0.000000e+00 0.000000e+00 -9.705240e-01 3.673155e+00 0.000000e+00 3.673155e+00 -1.394482e+00 0.000000e+00 0.000000e+00 0.000000e+00 0.000000e+00 -6.344197e-01 3.072506e+00 0.000000e+00 3.072506e+00 -1.795333e+00 0.000000e+00 0.000000e+00 0.000000e+00 0.000000e+00 -2.709547e-01 2.358834e+00 0.000000e+00 2.358834e+00 -2.059371e+00 0.000000e+00 0.000000e+00 0.000000e+00 0.000000e+00 -1.813608e-02 1.535253e+00 0.000000e+00 1.535253e+00 -2.169465e+00 0.000000e+00 0.000000e+00 0.000000e+00 0.000000e+00 -6.582576e-04 7.625725e-01 0.000000e+00 7.625725e-01 -1.953217e+00 0.000000e+00 0.000000e+00 0.000000e+00 0.000000e+00 -1.840491e-01 2.251257e-01 0.000000e+00 2.251257e-01 -1.470051e+00 0.000000e+00 0.000000e+00 0.000000e+00 0.000000e+00 -3.658068e-01 7.629637e-02 0.000000e+00 7.629637e-02 -9.276832e-01 0.000000e+00 0.000000e+00 0.000000e+00 0.000000e+00 -4.051368e-01 1.992275e-01 0.000000e+00 1.992275e-01 -5.447906e-01 0.000000e+00 0.000000e+00 0.000000e+00 0.000000e+00 -2.665309e-01 3.692610e-01 0.000000e+00 3.692610e-01 -3.425230e-01 0.000000e+00 0.000000e+00 0.000000e+00 0.000000e+00 -2.697239e-02 4.634722e-01 0.000000e+00 4.634722e-01 -3.053929e-01 0.000000e+00 0.000000e+00 0.000000e+00 0.000000e+00 -9.429789e-01 -7.747014e-01 0.000000e+00 -7.747014e-01 -1.878079e+01 0.000000e+00 0.000000e+00 0.000000e+00 0.000000e+00 -1.397701e-01 -3.795166e-01 0.000000e+00 -3.795166e-01 -1.668503e+01 0.000000e+00 0.000000e+00 0.000000e+00 0.000000e+00 4.295015e-01 -3.028932e-01 0.000000e+00 -3.028932e-01 -1.482360e+01 0.000000e+00 0.000000e+00 0.000000e+00 0.000000e+00 9.299522e-01 -2.885915e-01 0.000000e+00 -2.885915e-01 -1.307931e+01 0.000000e+00 0.000000e+00 0.000000e+00 0.000000e+00 1.466780e+00 -3.224134e-01 0.000000e+00 -3.224134e-01 -1.143115e+01 0.000000e+00 0.000000e+00 0.000000e+00 0.000000e+00 2.084564e+00 -3.319170e-01 0.000000e+00 -3.319170e-01 -9.900076e+00 0.000000e+00 0.000000e+00 0.000000e+00 0.000000e+00 2.709653e+00 -3.433914e-01 0.000000e+00 -3.433914e-01 -8.471545e+00 0.000000e+00 0.000000e+00 0.000000e+00 0.000000e+00 3.420675e+00 -3.767621e-01 0.000000e+00 -3.767621e-01 -7.091131e+00 0.000000e+00 0.000000e+00 0.000000e+00 0.000000e+00 4.187303e+00 -4.107002e-01 0.000000e+00 -4.107002e-01 -5.757863e+00 0.000000e+00 0.000000e+00 0.000000e+00 0.000000e+00 5.006210e+00 -4.760761e-01 0.000000e+00 -4.760761e-01 -4.481288e+00 0.000000e+00 0.000000e+00 0.000000e+00 0.000000e+00 5.923751e+00 -5.015766e-01 0.000000e+00 -5.015766e-01 -3.198643e+00 0.000000e+00 0.000000e+00 0.000000e+00 0.000000e+00 6.887952e+00 -5.539670e-01 0.000000e+00 -5.539670e-01 -1.963176e+00 0.000000e+00 0.000000e+00 0.000000e+00 0.000000e+00 7.942981e+00 -6.092882e-01 0.000000e+00 -6.092882e-01 -6.886739e-01 0.000000e+00 0.000000e+00 0.000000e+00 0.000000e+00 9.122589e+00 -6.190128e-01 0.000000e+00 -6.190128e-01 6.557230e-01 0.000000e+00 0.000000e+00 0.000000e+00 0.000000e+00 1.034119e+01 -6.899841e-01 0.000000e+00 -6.899841e-01 2.060269e+00 0.000000e+00 0.000000e+00 0.000000e+00 0.000000e+00 1.174231e+01 -7.963013e-01 0.000000e+00 -7.963013e-01 3.664571e+00 0.000000e+00 0.000000e+00 0.000000e+00 0.000000e+00 1.327315e+01 -9.220530e-01 0.000000e+00 -9.220530e-01 5.312478e+00 0.000000e+00 0.000000e+00 0.000000e+00 0.000000e+00 1.504971e+01 -9.876537e-01 0.000000e+00 -9.876537e-01 7.193116e+00 0.000000e+00 0.000000e+00 0.000000e+00 0.000000e+00 1.705071e+01 -1.092653e+00 0.000000e+00 -1.092653e+00 9.360165e+00 0.000000e+00 0.000000e+00 0.000000e+00 0.000000e+00 1.941216e+01 -1.513772e+00 0.000000e+00 -1.513772e+00 1.197605e+01 0.000000e+00 0.000000e+00 0.000000e+00 0.000000e+00 2.249542e+01 -1.903319e+00 0.000000e+00 -1.903319e+00 1.522243e+01 0.000000e+00 0.000000e+00 0.000000e+00 0.000000e+00 2.657333e+01 -2.553203e+00 0.000000e+00 -2.553203e+00 1.976989e+01 0.000000e+00 0.000000e+00 0.000000e+00 0.000000e+00 3.136441e+01 -4.554130e+00 0.000000e+00 -4.554130e+00 2.698272e+01 0.000000e+00 0.000000e+00 0.000000e+00 0.000000e+00 3.503923e+01 -7.371164e+00 0.000000e+00 -7.371164e+00 4.214722e+01 0.000000e+00 0.000000e+00 0.000000e+00 0.000000e+00 1.152392e+01 2.103408e+00 0.000000e+00 2.103408e+00 1.951069e-01 0.000000e+00 0.000000e+00 0.000000e+00 0.000000e+00 8.069944e+00 1.060236e+00 0.000000e+00 1.060236e+00 1.277895e-01 0.000000e+00 0.000000e+00 0.000000e+00 0.000000e+00 6.031368e+00 9.407609e-01 0.000000e+00 9.407609e-01 -1.030534e-02 0.000000e+00 0.000000e+00 0.000000e+00 0.000000e+00 4.467406e+00 1.024873e+00 0.000000e+00 1.024873e+00 -9.769708e-02 0.000000e+00 0.000000e+00 0.000000e+00 0.000000e+00 3.988391e+00 1.651963e+00 0.000000e+00 1.651963e+00 5.610459e-01 0.000000e+00 0.000000e+00 0.000000e+00 0.000000e+00 3.000908e+00 1.422529e+00 0.000000e+00 1.422529e+00 2.100864e-01 0.000000e+00 0.000000e+00 0.000000e+00 0.000000e+00 5.053952e-01 9.603273e-01 0.000000e+00 9.603273e-01 2.646618e-01 0.000000e+00 0.000000e+00 0.000000e+00 0.000000e+00 -7.275702e-01 -3.441529e-02 0.000000e+00 -3.441529e-02 1.847974e-01 0.000000e+00 0.000000e+00 0.000000e+00 0.000000e+00 -2.284960e-01 -2.770373e-01 0.000000e+00 -2.770373e-01 -7.026972e-02 0.000000e+00 0.000000e+00 0.000000e+00 0.000000e+00 1.252363e-01 -1.008401e-01 0.000000e+00 -1.008401e-01 -4.141098e-01 0.000000e+00 0.000000e+00 0.000000e+00 0.000000e+00 7.040087e-02 2.219617e-01 0.000000e+00 2.219617e-01 -3.028044e-01 0.000000e+00 0.000000e+00 0.000000e+00 0.000000e+00 -9.288387e-02 1.947009e-01 0.000000e+00 1.947009e-01 7.823091e-02 0.000000e+00 0.000000e+00 0.000000e+00 0.000000e+00 -8.004423e-02 -3.614285e-02 0.000000e+00 -3.614285e-02 1.658522e-01 0.000000e+00 0.000000e+00 0.000000e+00 0.000000e+00 -4.910935e+00 1.645676e+00 0.000000e+00 1.645676e+00 -1.717260e-03 0.000000e+00 0.000000e+00 0.000000e+00 0.000000e+00 -2.132784e-01 3.660345e-01 0.000000e+00 3.660345e-01 -2.416484e-01 0.000000e+00 0.000000e+00 0.000000e+00 0.000000e+00 -2.012840e+00 1.160485e+00 0.000000e+00 1.160485e+00 -2.189486e-01 0.000000e+00 0.000000e+00 0.000000e+00 0.000000e+00 -7.712476e+00 1.153261e+00 0.000000e+00 1.153261e+00 3.476365e-01 0.000000e+00 0.000000e+00 0.000000e+00 0.000000e+00 -7.859474e+00 -8.357770e-01 0.000000e+00 -8.357770e-01 8.463062e-01 0.000000e+00 0.000000e+00 0.000000e+00 0.000000e+00 -1.497283e-01 -2.485091e+00 0.000000e+00 -2.485091e+00 -6.103604e+00 0.000000e+00 0.000000e+00 0.000000e+00 0.000000e+00 4.482163e-01 -5.554213e-01 0.000000e+00 -5.554213e-01 -1.534506e+01 0.000000e+00 0.000000e+00 0.000000e+00 0.000000e+00 8.374888e-01 -5.484591e-01 0.000000e+00 -5.484591e-01 -1.353358e+01 0.000000e+00 0.000000e+00 0.000000e+00 0.000000e+00 2.836423e+00 -7.649592e-01 0.000000e+00 -7.649592e-01 -8.063298e+00 0.000000e+00 0.000000e+00 0.000000e+00 0.000000e+00 2.232542e+00 -6.709963e-01 0.000000e+00 -6.709963e-01 -9.545243e+00 0.000000e+00 0.000000e+00 0.000000e+00 0.000000e+00 6.191809e-01 -5.537406e-01 0.000000e+00 -5.537406e-01 -1.441946e+01 0.000000e+00 0.000000e+00 0.000000e+00 0.000000e+00 2.518521e+00 -6.928167e-01 0.000000e+00 -6.928167e-01 -8.784703e+00 0.000000e+00 0.000000e+00 0.000000e+00 0.000000e+00 1.924059e+00 -6.999919e-01 0.000000e+00 -6.999919e-01 -1.025476e+01 0.000000e+00 0.000000e+00 0.000000e+00 0.000000e+00 6.065617e+00 -1.000692e+00 0.000000e+00 -1.000692e+00 -2.876753e+00 0.000000e+00 0.000000e+00 0.000000e+00 0.000000e+00 5.163402e+00 -9.892955e-01 0.000000e+00 -9.892955e-01 -4.156186e+00 0.000000e+00 0.000000e+00 0.000000e+00 0.000000e+00 2.460291e+01 -4.871546e+00 0.000000e+00 -4.871546e+00 2.149711e+01 0.000000e+00 0.000000e+00 0.000000e+00 0.000000e+00 5.643909e+00 -9.948649e-01 0.000000e+00 -9.948649e-01 -3.518026e+00 0.000000e+00 0.000000e+00 0.000000e+00 0.000000e+00 4.715695e+00 -9.576907e-01 0.000000e+00 -9.576907e-01 -4.803546e+00 0.000000e+00 0.000000e+00 0.000000e+00 0.000000e+00 8.103540e+00 -1.251594e+00 0.000000e+00 -1.251594e+00 -3.212542e-01 0.000000e+00 0.000000e+00 0.000000e+00 0.000000e+00 9.310520e+00 -1.276774e+00 0.000000e+00 -1.276774e+00 1.032004e+00 0.000000e+00 0.000000e+00 0.000000e+00 0.000000e+00 8.674833e+00 -1.276145e+00 0.000000e+00 -1.276145e+00 3.369084e-01 0.000000e+00 0.000000e+00 0.000000e+00 0.000000e+00 7.522329e+00 -1.214314e+00 0.000000e+00 -1.214314e+00 -9.988385e-01 0.000000e+00 0.000000e+00 0.000000e+00 0.000000e+00 1.118650e+01 -1.582685e+00 0.000000e+00 -1.582685e+00 3.298512e+00 0.000000e+00 0.000000e+00 0.000000e+00 0.000000e+00 1.525629e+01 -2.013624e+00 0.000000e+00 -2.013624e+00 7.960722e+00 0.000000e+00 0.000000e+00 0.000000e+00 0.000000e+00 1.266288e+01 -1.756078e+00 0.000000e+00 -1.756078e+00 5.041474e+00 0.000000e+00 0.000000e+00 0.000000e+00 0.000000e+00 1.424937e+01 -1.975003e+00 0.000000e+00 -1.975003e+00 6.946894e+00 0.000000e+00 0.000000e+00 0.000000e+00 0.000000e+00 2.188338e+01 -3.751349e+00 0.000000e+00 -3.751349e+00 1.681015e+01 0.000000e+00 0.000000e+00 0.000000e+00 0.000000e+00 1.909837e+01 -3.066612e+00 0.000000e+00 -3.066612e+00 1.302182e+01 0.000000e+00 0.000000e+00 0.000000e+00 0.000000e+00 1.337874e+01 -1.890255e+00 0.000000e+00 -1.890255e+00 5.949320e+00 0.000000e+00 0.000000e+00 0.000000e+00 0.000000e+00 2.033550e+01 -3.455374e+00 0.000000e+00 -3.455374e+00 1.480608e+01 0.000000e+00 0.000000e+00 0.000000e+00 0.000000e+00 1.791663e+01 -2.680086e+00 0.000000e+00 -2.680086e+00 1.136791e+01 0.000000e+00 0.000000e+00 0.000000e+00 0.000000e+00 2.400955e+01 -3.988702e+00 0.000000e+00 -3.988702e+00 1.880610e+01 0.000000e+00 0.000000e+00 0.000000e+00 0.000000e+00 7.730520e+00 2.175487e+00 0.000000e+00 2.175487e+00 3.848734e-01 0.000000e+00 0.000000e+00 0.000000e+00 0.000000e+00 2.192403e+01 -2.484234e+00 0.000000e+00 -2.484234e+00 4.473278e+01 0.000000e+00 0.000000e+00 0.000000e+00 0.000000e+00 5.759630e+00 1.702468e+00 0.000000e+00 1.702468e+00 -3.642554e-03 0.000000e+00 0.000000e+00 0.000000e+00 0.000000e+00 9.205039e+00 2.801961e+00 0.000000e+00 2.801961e+00 9.211362e-01 0.000000e+00 0.000000e+00 0.000000e+00 0.000000e+00 1.115114e+01 4.298745e+00 0.000000e+00 4.298745e+00 2.101521e+00 0.000000e+00 0.000000e+00 0.000000e+00 0.000000e+00 2.507853e+01 -6.327139e+00 0.000000e+00 -6.327139e+00 3.718087e+01 0.000000e+00 0.000000e+00 0.000000e+00 0.000000e+00 6.620570e+00 1.871718e+00 0.000000e+00 1.871718e+00 1.445256e-01 0.000000e+00 0.000000e+00 0.000000e+00 0.000000e+00 1.777117e+01 6.749029e+00 0.000000e+00 6.749029e+00 1.780208e+00 0.000000e+00 0.000000e+00 0.000000e+00 0.000000e+00 2.457114e+00 2.230717e+00 0.000000e+00 2.230717e+00 3.865015e-01 0.000000e+00 0.000000e+00 0.000000e+00 0.000000e+00 4.617548e+00 1.493049e+00 0.000000e+00 1.493049e+00 -6.428651e-02 0.000000e+00 0.000000e+00 0.000000e+00 0.000000e+00 3.259101e+00 2.057924e+00 0.000000e+00 2.057924e+00 5.026608e-01 0.000000e+00 0.000000e+00 0.000000e+00 0.000000e+00 -1.419705e-01 -1.338073e-02 0.000000e+00 -1.338073e-02 -2.607319e-01 0.000000e+00 0.000000e+00 0.000000e+00 0.000000e+00 1.555260e+00 2.152238e+00 0.000000e+00 2.152238e+00 5.291890e-01 0.000000e+00 0.000000e+00 0.000000e+00 0.000000e+00 -2.035534e-01 1.498585e-01 0.000000e+00 1.498585e-01 -9.213140e-02 0.000000e+00 0.000000e+00 0.000000e+00 0.000000e+00 2.404360e-01 2.320487e-01 0.000000e+00 2.320487e-01 -3.531176e-01 0.000000e+00 0.000000e+00 0.000000e+00 0.000000e+00 -1.208870e-01 -2.085617e-01 0.000000e+00 -2.085617e-01 3.302393e-01 0.000000e+00 0.000000e+00 0.000000e+00 0.000000e+00 -4.278900e-04 -3.714357e-01 0.000000e+00 -3.714357e-01 -1.883332e-03 0.000000e+00 0.000000e+00 0.000000e+00 0.000000e+00 2.809036e-02 -7.139740e-01 0.000000e+00 -7.139740e-01 -1.731581e+01 0.000000e+00 0.000000e+00 0.000000e+00 0.000000e+00 1.413781e-01 -2.770138e-01 0.000000e+00 -2.770138e-01 -2.121890e-01 0.000000e+00 0.000000e+00 0.000000e+00 0.000000e+00 3.349825e-01 -5.411399e-02 0.000000e+00 -5.411399e-02 -3.226703e-01 0.000000e+00 0.000000e+00 0.000000e+00 0.000000e+00 -2.257034e+00 2.216300e+00 0.000000e+00 2.216300e+00 -3.376663e-01 0.000000e+00 0.000000e+00 0.000000e+00 0.000000e+00 -1.895080e-01 3.939860e-02 0.000000e+00 3.939860e-02 -1.729937e-01 0.000000e+00 0.000000e+00 0.000000e+00 0.000000e+00 -1.330110e+00 1.645418e+00 0.000000e+00 1.645418e+00 -4.838705e-01 0.000000e+00 0.000000e+00 0.000000e+00 0.000000e+00 -3.177585e+00 2.698917e+00 0.000000e+00 2.698917e+00 -8.142754e-02 0.000000e+00 0.000000e+00 0.000000e+00 0.000000e+00 -7.321882e-02 9.236599e-03 0.000000e+00 9.236599e-03 -2.337816e-01 0.000000e+00 0.000000e+00 0.000000e+00 0.000000e+00 -5.051126e+00 2.266729e+00 0.000000e+00 2.266729e+00 6.347372e-01 0.000000e+00 0.000000e+00 0.000000e+00 0.000000e+00 -5.247639e+00 -2.501866e+00 0.000000e+00 -2.501866e+00 1.770242e+00 0.000000e+00 0.000000e+00 0.000000e+00 0.000000e+00 -6.160330e-01 1.008283e+00 0.000000e+00 1.008283e+00 -5.427230e-01 0.000000e+00 0.000000e+00 0.000000e+00 0.000000e+00 -4.214288e+00 2.647268e+00 0.000000e+00 2.647268e+00 2.621382e-01 0.000000e+00 0.000000e+00 0.000000e+00 0.000000e+00 -4.013084e+00 -3.536994e+00 0.000000e+00 -3.536994e+00 7.415757e-01 0.000000e+00 0.000000e+00 0.000000e+00 0.000000e+00 -6.857989e-01 -3.930124e+00 0.000000e+00 -3.930124e+00 -3.671528e+00 0.000000e+00 0.000000e+00 0.000000e+00 0.000000e+00 -2.469519e+00 -3.691082e+00 0.000000e+00 -3.691082e+00 -6.324141e-01 0.000000e+00 0.000000e+00 0.000000e+00 0.000000e+00 2.410557e-01 -5.938302e-01 0.000000e+00 -5.938302e-01 -1.629676e+01 0.000000e+00 0.000000e+00 0.000000e+00 0.000000e+00 1.192926e+01 -1.640227e+00 0.000000e+00 -1.640227e+00 4.138579e+00 0.000000e+00 0.000000e+00 0.000000e+00 0.000000e+00 2.337093e+01 1.270560e+01 0.000000e+00 1.270560e+01 4.334870e+01 0.000000e+00 0.000000e+00 0.000000e+00 0.000000e+00 -2.150284e-01 4.130405e-01 0.000000e+00 4.130405e-01 -5.111142e-01 0.000000e+00 0.000000e+00 0.000000e+00 0.000000e+00 1.453064e-01 -1.900335e+00 0.000000e+00 -1.900335e+00 -9.336356e+00 0.000000e+00 0.000000e+00 0.000000e+00 0.000000e+00 3.557145e+00 -7.790773e-01 0.000000e+00 -7.790773e-01 -6.742244e+00 0.000000e+00 0.000000e+00 0.000000e+00 0.000000e+00 3.902404e-01 -3.121235e-01 0.000000e+00 -3.121235e-01 -1.047298e-01 0.000000e+00 0.000000e+00 0.000000e+00 0.000000e+00 2.677371e-01 -3.920146e-01 0.000000e+00 -3.920146e-01 2.081629e-01 0.000000e+00 0.000000e+00 0.000000e+00 0.000000e+00 -1.679429e-01 2.531172e-01 0.000000e+00 2.531172e-01 5.404826e-01 0.000000e+00 0.000000e+00 0.000000e+00 0.000000e+00 7.660542e-01 1.639931e+00 0.000000e+00 1.639931e+00 7.158042e-01 0.000000e+00 0.000000e+00 0.000000e+00 0.000000e+00 2.301851e+00 2.906053e+00 0.000000e+00 2.906053e+00 4.862471e-01 0.000000e+00 0.000000e+00 0.000000e+00 0.000000e+00 2.552209e+00 3.495176e+00 0.000000e+00 3.495176e+00 1.031429e-01 0.000000e+00 0.000000e+00 0.000000e+00 0.000000e+00 9.940696e-01 3.771722e+00 0.000000e+00 3.771722e+00 1.735990e-01 0.000000e+00 0.000000e+00 0.000000e+00 0.000000e+00 -9.411392e-01 3.940750e+00 0.000000e+00 3.940750e+00 9.043279e-02 0.000000e+00 0.000000e+00 0.000000e+00 0.000000e+00 -1.448987e+00 3.873769e+00 0.000000e+00 3.873769e+00 -2.569695e-01 0.000000e+00 0.000000e+00 0.000000e+00 0.000000e+00 -1.536847e+00 3.595185e+00 0.000000e+00 3.595185e+00 -7.227094e-01 0.000000e+00 0.000000e+00 0.000000e+00 0.000000e+00 -1.233851e+00 3.119196e+00 0.000000e+00 3.119196e+00 -1.112037e+00 0.000000e+00 0.000000e+00 0.000000e+00 0.000000e+00 -3.895875e-01 1.731461e+00 0.000000e+00 1.731461e+00 -1.558924e+00 0.000000e+00 0.000000e+00 0.000000e+00 0.000000e+00 -1.408173e-01 1.014186e+00 0.000000e+00 1.014186e+00 -1.531628e+00 0.000000e+00 0.000000e+00 0.000000e+00 0.000000e+00 -1.549677e-01 3.947410e-01 0.000000e+00 3.947410e-01 -1.223218e+00 0.000000e+00 0.000000e+00 0.000000e+00 0.000000e+00 -3.190225e-01 1.211020e-01 0.000000e+00 1.211020e-01 -4.468277e-01 0.000000e+00 0.000000e+00 0.000000e+00 0.000000e+00 -2.486766e-01 2.580307e-01 0.000000e+00 2.580307e-01 -2.341644e-01 0.000000e+00 0.000000e+00 0.000000e+00 0.000000e+00 2.349516e+01 1.325449e+01 0.000000e+00 1.325449e+01 1.691806e+01 0.000000e+00 0.000000e+00 0.000000e+00 0.000000e+00 1.285408e+01 7.176811e+00 0.000000e+00 7.176811e+00 5.783921e+00 0.000000e+00 0.000000e+00 0.000000e+00 0.000000e+00 1.843445e-01 -3.495782e+00 0.000000e+00 -3.495782e+00 -7.346552e+00 0.000000e+00 0.000000e+00 0.000000e+00 0.000000e+00 1.553249e+01 1.098263e+01 0.000000e+00 1.098263e+01 1.275271e+01 0.000000e+00 0.000000e+00 0.000000e+00 0.000000e+00 -4.708271e-02 -1.106683e+00 0.000000e+00 -1.106683e+00 -1.976800e+01 0.000000e+00 0.000000e+00 0.000000e+00 0.000000e+00 1.307499e+00 -6.470188e-01 0.000000e+00 -6.470188e-01 -1.180509e+01 0.000000e+00 0.000000e+00 0.000000e+00 0.000000e+00 6.544909e+00 -1.080612e+00 0.000000e+00 -1.080612e+00 -2.249548e+00 0.000000e+00 0.000000e+00 0.000000e+00 0.000000e+00 3.242487e+00 -7.942127e-01 0.000000e+00 -7.942127e-01 -7.426741e+00 0.000000e+00 0.000000e+00 0.000000e+00 0.000000e+00 9.825495e+00 -1.372485e+00 0.000000e+00 -1.372485e+00 1.748309e+00 0.000000e+00 0.000000e+00 0.000000e+00 0.000000e+00 1.624839e+01 -1.916454e+00 0.000000e+00 -1.916454e+00 8.862244e+00 0.000000e+00 0.000000e+00 0.000000e+00 0.000000e+00 1.766096e+01 6.273038e+00 0.000000e+00 6.273038e+00 4.378619e+01 0.000000e+00 0.000000e+00 0.000000e+00 0.000000e+00 5.091460e+00 1.598134e+00 0.000000e+00 1.598134e+00 -1.023688e-01 0.000000e+00 0.000000e+00 0.000000e+00 0.000000e+00 2.564186e+01 -5.843128e+00 0.000000e+00 -5.843128e+00 2.534060e+01 0.000000e+00 0.000000e+00 0.000000e+00 0.000000e+00 -5.634705e+00 1.527469e+00 0.000000e+00 1.527469e+00 1.135599e+00 0.000000e+00 0.000000e+00 0.000000e+00 0.000000e+00 4.262549e+00 1.777802e+00 0.000000e+00 1.777802e+00 1.925768e-01 0.000000e+00 0.000000e+00 0.000000e+00 0.000000e+00 -2.603323e-01 -2.172980e+00 0.000000e+00 -2.172980e+00 -1.023254e+01 0.000000e+00 0.000000e+00 0.000000e+00 0.000000e+00 -1.846519e-01 -4.134642e+00 0.000000e+00 -4.134642e+00 -5.099205e+00 0.000000e+00 0.000000e+00 0.000000e+00 0.000000e+00 1.053103e+00 -5.842882e-01 0.000000e+00 -5.842882e-01 -1.262674e+01 0.000000e+00 0.000000e+00 0.000000e+00 0.000000e+00 -5.342341e+00 -1.152858e+00 0.000000e+00 -1.152858e+00 2.184282e+00 0.000000e+00 0.000000e+00 0.000000e+00 0.000000e+00 1.647951e+01 1.178064e+01 0.000000e+00 1.178064e+01 2.632095e+01 0.000000e+00 0.000000e+00 0.000000e+00 0.000000e+00 -1.295192e+00 -3.459140e+00 0.000000e+00 -3.459140e+00 -1.945014e+00 0.000000e+00 0.000000e+00 0.000000e+00 0.000000e+00 6.067943e-02 3.852552e-01 0.000000e+00 3.852552e-01 -2.632452e-01 0.000000e+00 0.000000e+00 0.000000e+00 0.000000e+00 3.972631e+00 -8.092974e-01 0.000000e+00 -8.092974e-01 -6.074515e+00 0.000000e+00 0.000000e+00 0.000000e+00 0.000000e+00 -1.139504e-01 3.732559e-01 0.000000e+00 3.732559e-01 -1.714990e-01 0.000000e+00 0.000000e+00 0.000000e+00 0.000000e+00 -2.363446e-01 9.954651e-02 0.000000e+00 9.954651e-02 -7.216147e-01 0.000000e+00 0.000000e+00 0.000000e+00 0.000000e+00 -7.805077e-01 2.466182e+00 0.000000e+00 2.466182e+00 -1.382805e+00 0.000000e+00 0.000000e+00 0.000000e+00 0.000000e+00 -2.035675e+00 3.028237e+00 0.000000e+00 3.028237e+00 -5.043929e-01 0.000000e+00 0.000000e+00 0.000000e+00 0.000000e+00 -6.203495e-02 3.870740e+00 0.000000e+00 3.870740e+00 2.149010e-01 0.000000e+00 0.000000e+00 0.000000e+00 0.000000e+00 1.954828e+00 3.662876e+00 0.000000e+00 3.662876e+00 9.400257e-02 0.000000e+00 0.000000e+00 0.000000e+00 0.000000e+00 2.704137e+00 3.203231e+00 0.000000e+00 3.203231e+00 2.562249e-01 0.000000e+00 0.000000e+00 0.000000e+00 0.000000e+00 1.548488e-01 9.380920e-01 0.000000e+00 9.380920e-01 6.844606e-01 0.000000e+00 0.000000e+00 0.000000e+00 0.000000e+00 -1.038669e-01 -9.089815e-01 0.000000e+00 -9.089815e-01 -1.847142e+01 0.000000e+00 0.000000e+00 0.000000e+00 0.000000e+00 1.605262e+00 -6.836188e-01 0.000000e+00 -6.836188e-01 -1.099903e+01 0.000000e+00 0.000000e+00 0.000000e+00 0.000000e+00 4.312715e+00 -8.877942e-01 0.000000e+00 -8.877942e-01 -5.424177e+00 0.000000e+00 0.000000e+00 0.000000e+00 0.000000e+00 7.017653e+00 -1.151174e+00 0.000000e+00 -1.151174e+00 -1.645656e+00 0.000000e+00 0.000000e+00 0.000000e+00 0.000000e+00 1.045883e+01 -1.496915e+00 0.000000e+00 -1.496915e+00 2.508631e+00 0.000000e+00 0.000000e+00 0.000000e+00 0.000000e+00 1.695260e+01 -2.316635e+00 0.000000e+00 -2.316635e+00 9.959272e+00 0.000000e+00 0.000000e+00 0.000000e+00 0.000000e+00 2.601616e+01 -6.630842e+00 0.000000e+00 -6.630842e+00 3.058565e+01 0.000000e+00 0.000000e+00 0.000000e+00 0.000000e+00 -5.896469e+00 3.288445e-01 0.000000e+00 3.288445e-01 1.741975e+00 0.000000e+00 0.000000e+00 0.000000e+00 0.000000e+00 1.442881e-01 -2.754889e+00 0.000000e+00 -2.754889e+00 -1.041167e+01 0.000000e+00 0.000000e+00 0.000000e+00 0.000000e+00 2.476645e-01 -3.747336e+00 0.000000e+00 -3.747336e+00 -7.978110e+00 0.000000e+00 0.000000e+00 0.000000e+00 0.000000e+00 -6.867190e-02 -1.118019e+00 0.000000e+00 -1.118019e+00 -1.351755e+01 0.000000e+00 0.000000e+00 0.000000e+00 0.000000e+00 6.274289e-01 -3.520988e+00 0.000000e+00 -3.520988e+00 -9.187876e+00 0.000000e+00 0.000000e+00 0.000000e+00 0.000000e+00 4.503465e-01 -2.383576e+00 0.000000e+00 -2.383576e+00 -1.202808e+01 0.000000e+00 0.000000e+00 0.000000e+00 0.000000e+00 6.238824e-01 -7.401717e-01 0.000000e+00 -7.401717e-01 -1.499600e+01 0.000000e+00 0.000000e+00 0.000000e+00 0.000000e+00 4.791717e+00 -1.526680e+00 0.000000e+00 -1.526680e+00 -4.450653e+00 0.000000e+00 0.000000e+00 0.000000e+00 0.000000e+00 1.702979e+01 -3.971276e+00 0.000000e+00 -3.971276e+00 1.232413e+01 0.000000e+00 0.000000e+00 0.000000e+00 0.000000e+00 7.583410e+00 -1.925503e+00 0.000000e+00 -1.925503e+00 -5.910522e-01 0.000000e+00 0.000000e+00 0.000000e+00 0.000000e+00 -3.734767e+00 1.576718e+00 0.000000e+00 1.576718e+00 2.567681e+00 0.000000e+00 0.000000e+00 0.000000e+00 0.000000e+00 1.435204e+01 -3.113971e+00 0.000000e+00 -3.113971e+00 7.985602e+00 0.000000e+00 0.000000e+00 0.000000e+00 0.000000e+00 6.636896e+00 3.037007e+00 0.000000e+00 3.037007e+00 7.210380e-01 0.000000e+00 0.000000e+00 0.000000e+00 0.000000e+00 2.986117e+00 -1.310965e+00 0.000000e+00 -1.310965e+00 -7.619282e+00 0.000000e+00 0.000000e+00 0.000000e+00 0.000000e+00 7.653962e+00 3.672439e+00 0.000000e+00 3.672439e+00 1.437163e+00 0.000000e+00 0.000000e+00 0.000000e+00 0.000000e+00 3.624245e+00 2.212123e+00 0.000000e+00 2.212123e+00 3.647168e-01 0.000000e+00 0.000000e+00 0.000000e+00 0.000000e+00 5.205171e+00 2.270114e+00 0.000000e+00 2.270114e+00 3.008639e-02 0.000000e+00 0.000000e+00 0.000000e+00 0.000000e+00 1.364727e+01 4.932864e+00 0.000000e+00 4.932864e+00 3.704213e+01 0.000000e+00 0.000000e+00 0.000000e+00 0.000000e+00 4.708353e+00 2.015280e+00 0.000000e+00 2.015280e+00 -1.460816e-02 0.000000e+00 0.000000e+00 0.000000e+00 0.000000e+00 8.943498e+00 4.663801e+00 0.000000e+00 4.663801e+00 2.650812e+00 0.000000e+00 0.000000e+00 0.000000e+00 0.000000e+00 1.610624e+01 -2.005956e+00 0.000000e+00 -2.005956e+00 3.698389e+01 0.000000e+00 0.000000e+00 0.000000e+00 0.000000e+00 5.897647e+00 2.585931e+00 0.000000e+00 2.585931e+00 2.950282e-01 0.000000e+00 0.000000e+00 0.000000e+00 0.000000e+00 1.154949e+01 9.430020e+00 0.000000e+00 9.430020e+00 2.134899e+01 0.000000e+00 0.000000e+00 0.000000e+00 0.000000e+00 -3.929246e+00 -2.117789e+00 0.000000e+00 -2.117789e+00 3.432748e+00 0.000000e+00 0.000000e+00 0.000000e+00 0.000000e+00 -1.392938e+00 2.451694e+00 0.000000e+00 2.451694e+00 -7.653931e-01 0.000000e+00 0.000000e+00 0.000000e+00 0.000000e+00 -3.355437e+00 2.629075e+00 0.000000e+00 2.629075e+00 1.546195e+00 0.000000e+00 0.000000e+00 0.000000e+00 0.000000e+00 1.360951e-01 -4.765770e+00 0.000000e+00 -4.765770e+00 -5.051246e+00 0.000000e+00 0.000000e+00 0.000000e+00 0.000000e+00 1.142184e+00 -9.004267e-01 0.000000e+00 -9.004267e-01 -1.226462e+01 0.000000e+00 0.000000e+00 0.000000e+00 0.000000e+00 2.020470e+00 -1.051272e+00 0.000000e+00 -1.051272e+00 -9.813794e+00 0.000000e+00 0.000000e+00 0.000000e+00 0.000000e+00 -2.528576e+00 -4.675379e+00 0.000000e+00 -4.675379e+00 4.141956e-01 0.000000e+00 0.000000e+00 0.000000e+00 0.000000e+00 2.921343e+00 2.676793e+00 0.000000e+00 2.676793e+00 4.068243e-01 0.000000e+00 0.000000e+00 0.000000e+00 0.000000e+00 9.824513e+00 6.264793e+00 0.000000e+00 6.264793e+00 5.673293e+00 0.000000e+00 0.000000e+00 0.000000e+00 0.000000e+00 -8.110374e-01 1.777139e+00 0.000000e+00 1.777139e+00 -9.582833e-01 0.000000e+00 0.000000e+00 0.000000e+00 0.000000e+00 -7.902296e-01 3.887844e+00 0.000000e+00 3.887844e+00 4.348435e-01 0.000000e+00 0.000000e+00 0.000000e+00 0.000000e+00 1.650343e+00 3.750768e+00 0.000000e+00 3.750768e+00 3.556915e-01 0.000000e+00 0.000000e+00 0.000000e+00 0.000000e+00 -6.533460e-01 -4.946939e+00 0.000000e+00 -4.946939e+00 -3.009765e+00 0.000000e+00 0.000000e+00 0.000000e+00 0.000000e+00 -1.452913e+00 -4.634547e+00 0.000000e+00 -4.634547e+00 -1.445023e+00 0.000000e+00 0.000000e+00 0.000000e+00 0.000000e+00 2.980859e+00 3.216851e+00 0.000000e+00 3.216851e+00 1.261371e-01 0.000000e+00 0.000000e+00 0.000000e+00 0.000000e+00 2.730137e+00 3.509515e+00 0.000000e+00 3.509515e+00 2.233688e-01 0.000000e+00 0.000000e+00 0.000000e+00 0.000000e+00 3.891418e-01 3.871764e+00 0.000000e+00 3.871764e+00 4.490761e-01 0.000000e+00 0.000000e+00 0.000000e+00 0.000000e+00 -1.705253e+00 3.795003e+00 0.000000e+00 3.795003e+00 1.997030e-01 0.000000e+00 0.000000e+00 0.000000e+00 0.000000e+00 -2.139396e+00 3.462982e+00 0.000000e+00 3.462982e+00 -1.827594e-01 0.000000e+00 0.000000e+00 0.000000e+00 0.000000e+00 -3.955928e-01 1.098788e+00 0.000000e+00 1.098788e+00 -1.058248e+00 0.000000e+00 0.000000e+00 0.000000e+00 0.000000e+00 -1.908925e-01 5.881184e-01 0.000000e+00 5.881184e-01 -1.002758e+00 0.000000e+00 0.000000e+00 0.000000e+00 0.000000e+00 8.551856e-01 -3.039007e+00 0.000000e+00 -3.039007e+00 -1.065608e+01 0.000000e+00 0.000000e+00 0.000000e+00 0.000000e+00 7.097416e-01 -4.537936e+00 0.000000e+00 -4.537936e+00 -6.524071e+00 0.000000e+00 0.000000e+00 0.000000e+00 0.000000e+00 -3.307957e+00 -3.855114e+00 0.000000e+00 -3.855114e+00 2.422165e+00 0.000000e+00 0.000000e+00 0.000000e+00 0.000000e+00 7.445211e-01 -7.765694e-01 0.000000e+00 -7.765694e-01 -1.385383e+01 0.000000e+00 0.000000e+00 0.000000e+00 0.000000e+00 1.041495e+01 -2.350414e+00 0.000000e+00 -2.350414e+00 2.970908e+00 0.000000e+00 0.000000e+00 0.000000e+00 0.000000e+00 4.375900e+00 -1.416169e+00 0.000000e+00 -1.416169e+00 -5.173381e+00 0.000000e+00 0.000000e+00 0.000000e+00 0.000000e+00 2.650816e+00 -1.115566e+00 0.000000e+00 -1.115566e+00 -8.446709e+00 0.000000e+00 0.000000e+00 0.000000e+00 0.000000e+00 6.155911e+00 -1.570642e+00 0.000000e+00 -1.570642e+00 -2.605846e+00 0.000000e+00 0.000000e+00 0.000000e+00 0.000000e+00 1.325603e+01 -3.025422e+00 0.000000e+00 -3.025422e+00 6.872242e+00 0.000000e+00 0.000000e+00 0.000000e+00 0.000000e+00 1.608586e+01 -3.547348e+00 0.000000e+00 -3.547348e+00 1.056191e+01 0.000000e+00 0.000000e+00 0.000000e+00 0.000000e+00 1.916221e+01 -5.459794e+00 0.000000e+00 -5.459794e+00 3.257234e+01 0.000000e+00 0.000000e+00 0.000000e+00 0.000000e+00 1.892511e+01 -4.999178e+00 0.000000e+00 -4.999178e+00 1.660618e+01 0.000000e+00 0.000000e+00 0.000000e+00 0.000000e+00 8.712807e+00 -1.946327e+00 0.000000e+00 -1.946327e+00 8.232214e-01 0.000000e+00 0.000000e+00 0.000000e+00 0.000000e+00 1.260868e+01 -2.755357e+00 0.000000e+00 -2.755357e+00 5.787321e+00 0.000000e+00 0.000000e+00 0.000000e+00 0.000000e+00 5.719244e+00 -1.492515e+00 0.000000e+00 -1.492515e+00 -3.167034e+00 0.000000e+00 0.000000e+00 0.000000e+00 0.000000e+00 2.071062e+01 -5.318146e+00 0.000000e+00 -5.318146e+00 1.938605e+01 0.000000e+00 0.000000e+00 0.000000e+00 0.000000e+00 9.569974e-01 -8.144843e-01 0.000000e+00 -8.144843e-01 -1.307282e+01 0.000000e+00 0.000000e+00 0.000000e+00 0.000000e+00 1.061897e+01 8.836710e+00 0.000000e+00 8.836710e+00 1.368608e+01 0.000000e+00 0.000000e+00 0.000000e+00 0.000000e+00 1.795633e+01 -4.545352e+00 0.000000e+00 -4.545352e+00 1.443200e+01 0.000000e+00 0.000000e+00 0.000000e+00 0.000000e+00 -3.112997e+00 3.168073e+00 0.000000e+00 3.168073e+00 7.652932e-01 0.000000e+00 0.000000e+00 0.000000e+00 0.000000e+00 1.413419e+00 -1.053155e+00 0.000000e+00 -1.053155e+00 -1.130511e+01 0.000000e+00 0.000000e+00 0.000000e+00 0.000000e+00 1.193925e+01 -2.526697e+00 0.000000e+00 -2.526697e+00 4.747970e+00 0.000000e+00 0.000000e+00 0.000000e+00 0.000000e+00 -1.787252e-01 1.788443e-01 0.000000e+00 1.788443e-01 -6.622541e-01 0.000000e+00 0.000000e+00 0.000000e+00 0.000000e+00 1.559339e+01 -2.955976e+00 0.000000e+00 -2.955976e+00 9.106878e+00 0.000000e+00 0.000000e+00 0.000000e+00 0.000000e+00 3.333426e+00 2.794166e+00 0.000000e+00 2.794166e+00 2.323891e-01 0.000000e+00 0.000000e+00 0.000000e+00 0.000000e+00 7.028104e+00 -1.843139e+00 0.000000e+00 -1.843139e+00 -1.288926e+00 0.000000e+00 0.000000e+00 0.000000e+00 0.000000e+00 1.114364e+01 -2.443021e+00 0.000000e+00 -2.443021e+00 3.834538e+00 0.000000e+00 0.000000e+00 0.000000e+00 0.000000e+00 -1.742407e+00 3.692414e+00 0.000000e+00 3.692414e+00 6.427610e-01 0.000000e+00 0.000000e+00 0.000000e+00 0.000000e+00 2.339870e+00 -9.677950e-01 0.000000e+00 -9.677950e-01 -9.147101e+00 0.000000e+00 0.000000e+00 0.000000e+00 0.000000e+00 5.536643e-01 -6.793886e-01 0.000000e+00 -6.793886e-01 -1.602740e+01 0.000000e+00 0.000000e+00 0.000000e+00 0.000000e+00 3.714731e+00 -1.215998e+00 0.000000e+00 -1.215998e+00 -6.348690e+00 0.000000e+00 0.000000e+00 0.000000e+00 0.000000e+00 1.762306e+00 -1.111346e+00 0.000000e+00 -1.111346e+00 -1.055313e+01 0.000000e+00 0.000000e+00 0.000000e+00 0.000000e+00 -4.000997e+00 -1.016088e-01 0.000000e+00 -1.016088e-01 3.381719e+00 0.000000e+00 0.000000e+00 0.000000e+00 0.000000e+00 9.374534e+00 -1.949954e+00 0.000000e+00 -1.949954e+00 1.437610e+00 0.000000e+00 0.000000e+00 0.000000e+00 0.000000e+00 2.107786e+01 -6.081534e+00 0.000000e+00 -6.081534e+00 2.343044e+01 0.000000e+00 0.000000e+00 0.000000e+00 0.000000e+00 8.388200e+00 7.042743e+00 0.000000e+00 7.042743e+00 1.007459e+01 0.000000e+00 0.000000e+00 0.000000e+00 0.000000e+00 6.313945e-01 -8.129017e-01 0.000000e+00 -8.129017e-01 -1.904074e+01 0.000000e+00 0.000000e+00 0.000000e+00 0.000000e+00 3.326657e+00 -1.144648e+00 0.000000e+00 -1.144648e+00 -6.991151e+00 0.000000e+00 0.000000e+00 0.000000e+00 0.000000e+00 4.348256e-01 -7.408382e-01 0.000000e+00 -7.408382e-01 -1.708493e+01 0.000000e+00 0.000000e+00 0.000000e+00 0.000000e+00 5.940826e-01 -2.328020e+00 0.000000e+00 -2.328020e+00 -1.322458e+01 0.000000e+00 0.000000e+00 0.000000e+00 0.000000e+00 4.270283e-01 -8.149442e-01 0.000000e+00 -8.149442e-01 -1.786264e+01 0.000000e+00 0.000000e+00 0.000000e+00 0.000000e+00 8.201462e+00 -1.956461e+00 0.000000e+00 -1.956461e+00 1.204727e-01 0.000000e+00 0.000000e+00 0.000000e+00 0.000000e+00 5.320290e+00 -1.564340e+00 0.000000e+00 -1.564340e+00 -3.739138e+00 0.000000e+00 0.000000e+00 0.000000e+00 0.000000e+00 -2.799242e+00 3.362194e+00 0.000000e+00 3.362194e+00 2.431529e-01 0.000000e+00 0.000000e+00 0.000000e+00 0.000000e+00 8.284350e-01 -1.863616e+00 0.000000e+00 -1.863616e+00 -1.443682e+01 0.000000e+00 0.000000e+00 0.000000e+00 0.000000e+00 1.094751e+00 -3.969722e+00 0.000000e+00 -3.969722e+00 -7.990034e+00 0.000000e+00 0.000000e+00 0.000000e+00 0.000000e+00 -3.606559e-01 -1.266444e+00 0.000000e+00 -1.266444e+00 -1.598131e+01 0.000000e+00 0.000000e+00 0.000000e+00 0.000000e+00 3.042094e-01 -1.705507e+00 0.000000e+00 -1.705507e+00 -1.406015e+01 0.000000e+00 0.000000e+00 0.000000e+00 0.000000e+00 1.648629e-01 -8.893385e-01 0.000000e+00 -8.893385e-01 -1.582652e+01 0.000000e+00 0.000000e+00 0.000000e+00 0.000000e+00 5.189317e-01 -1.232244e+00 0.000000e+00 -1.232244e+00 -1.471851e+01 0.000000e+00 0.000000e+00 0.000000e+00 0.000000e+00 2.205218e-01 -4.540547e-01 0.000000e+00 -4.540547e-01 -1.702488e+01 0.000000e+00 0.000000e+00 0.000000e+00 0.000000e+00 7.814714e-01 -1.846226e+00 0.000000e+00 -1.846226e+00 -1.280300e+01 0.000000e+00 0.000000e+00 0.000000e+00 0.000000e+00 5.382121e-01 -8.553943e-01 0.000000e+00 -8.553943e-01 -1.548748e+01 0.000000e+00 0.000000e+00 0.000000e+00 0.000000e+00 -3.959085e-01 2.168381e-01 0.000000e+00 2.168381e-01 -1.879671e+01 0.000000e+00 0.000000e+00 0.000000e+00 0.000000e+00 8.266573e-01 -4.283261e-01 0.000000e+00 -4.283261e-01 -1.921799e+01 0.000000e+00 0.000000e+00 0.000000e+00 0.000000e+00 8.894711e-01 -2.499025e+00 0.000000e+00 -2.499025e+00 -1.183787e+01 0.000000e+00 0.000000e+00 0.000000e+00 0.000000e+00 7.150179e-01 -6.534381e-01 0.000000e+00 -6.534381e-01 -1.741803e+01 0.000000e+00 0.000000e+00 0.000000e+00 0.000000e+00 4.108689e+00 -1.243882e+00 0.000000e+00 -1.243882e+00 -5.763546e+00 0.000000e+00 0.000000e+00 0.000000e+00 0.000000e+00 6.584271e+00 -1.707946e+00 0.000000e+00 -1.707946e+00 -1.950999e+00 0.000000e+00 0.000000e+00 0.000000e+00 0.000000e+00 -1.671218e+00 2.870274e+00 0.000000e+00 2.870274e+00 2.938670e+00 0.000000e+00 0.000000e+00 0.000000e+00 0.000000e+00 3.397601e+00 -1.626441e+00 0.000000e+00 -1.626441e+00 -6.751035e+00 0.000000e+00 0.000000e+00 0.000000e+00 0.000000e+00 9.731283e+00 -2.186539e+00 0.000000e+00 -2.186539e+00 2.126718e+00 0.000000e+00 0.000000e+00 0.000000e+00 0.000000e+00 2.056990e+01 -6.234472e+00 0.000000e+00 -6.234472e+00 2.757279e+01 0.000000e+00 0.000000e+00 0.000000e+00 0.000000e+00 4.054196e+00 2.425038e+00 0.000000e+00 2.425038e+00 1.534661e-01 0.000000e+00 0.000000e+00 0.000000e+00 0.000000e+00 5.581405e-01 -5.416162e+00 0.000000e+00 -5.416162e+00 -3.751360e+00 0.000000e+00 0.000000e+00 0.000000e+00 0.000000e+00 5.432613e+00 3.511233e+00 0.000000e+00 3.511233e+00 9.513934e-01 0.000000e+00 0.000000e+00 0.000000e+00 0.000000e+00 1.094569e+01 2.213906e+00 0.000000e+00 2.213906e+00 3.170957e+01 0.000000e+00 0.000000e+00 0.000000e+00 0.000000e+00 -1.462809e+00 3.508824e+00 0.000000e+00 3.508824e+00 1.486630e+00 0.000000e+00 0.000000e+00 0.000000e+00 0.000000e+00 -2.647164e-01 -5.570771e+00 0.000000e+00 -5.570771e+00 -2.129329e+00 0.000000e+00 0.000000e+00 0.000000e+00 0.000000e+00 1.633432e+01 -5.766537e+00 0.000000e+00 -5.766537e+00 1.852783e+01 0.000000e+00 0.000000e+00 0.000000e+00 0.000000e+00 1.123554e+01 7.087071e+00 0.000000e+00 7.087071e+00 2.906054e+01 0.000000e+00 0.000000e+00 0.000000e+00 0.000000e+00 3.619019e+00 3.019088e+00 0.000000e+00 3.019088e+00 1.309347e-01 0.000000e+00 0.000000e+00 0.000000e+00 0.000000e+00 6.925921e-01 -9.848325e-01 0.000000e+00 -9.848325e-01 -1.414753e+01 0.000000e+00 0.000000e+00 0.000000e+00 0.000000e+00 8.475408e-01 -1.105728e+00 0.000000e+00 -1.105728e+00 -1.629873e+01 0.000000e+00 0.000000e+00 0.000000e+00 0.000000e+00 7.484875e+00 5.569612e+00 0.000000e+00 5.569612e+00 5.017301e+00 0.000000e+00 0.000000e+00 0.000000e+00 0.000000e+00 7.861431e+00 6.166315e+00 0.000000e+00 6.166315e+00 1.977288e+01 0.000000e+00 0.000000e+00 0.000000e+00 0.000000e+00 8.028823e-01 -1.366440e+00 0.000000e+00 -1.366440e+00 -1.360498e+01 0.000000e+00 0.000000e+00 0.000000e+00 0.000000e+00 -1.306231e+00 -5.377067e+00 0.000000e+00 -5.377067e+00 -6.082022e-01 0.000000e+00 0.000000e+00 0.000000e+00 0.000000e+00 2.362095e+00 3.771417e+00 0.000000e+00 3.771417e+00 6.153014e-01 0.000000e+00 0.000000e+00 0.000000e+00 0.000000e+00 1.148922e+00 -1.761978e+00 0.000000e+00 -1.761978e+00 -1.183163e+01 0.000000e+00 0.000000e+00 0.000000e+00 0.000000e+00 5.824121e+00 4.055976e+00 0.000000e+00 4.055976e+00 1.861109e+00 0.000000e+00 0.000000e+00 0.000000e+00 0.000000e+00 6.099387e+00 -2.133236e+00 0.000000e+00 -2.133236e+00 -2.338683e+00 0.000000e+00 0.000000e+00 0.000000e+00 0.000000e+00 6.634830e+00 6.220203e+00 0.000000e+00 6.220203e+00 1.487253e+01 0.000000e+00 0.000000e+00 0.000000e+00 0.000000e+00 3.933127e+00 -1.752362e+00 0.000000e+00 -1.752362e+00 -5.800366e+00 0.000000e+00 0.000000e+00 0.000000e+00 0.000000e+00 -2.272614e+00 1.450350e+00 0.000000e+00 1.450350e+00 4.400540e+00 0.000000e+00 0.000000e+00 0.000000e+00 0.000000e+00 1.463378e+01 -4.678399e+00 0.000000e+00 -4.678399e+00 1.162047e+01 0.000000e+00 0.000000e+00 0.000000e+00 0.000000e+00 8.823526e+00 4.929767e+00 0.000000e+00 4.929767e+00 2.535373e+01 0.000000e+00 0.000000e+00 0.000000e+00 0.000000e+00 1.219806e+01 -3.736142e+00 0.000000e+00 -3.736142e+00 6.533044e+00 0.000000e+00 0.000000e+00 0.000000e+00 0.000000e+00 1.014071e+01 -3.224410e+00 0.000000e+00 -3.224410e+00 3.604041e+00 0.000000e+00 0.000000e+00 0.000000e+00 0.000000e+00 1.284222e+01 -2.506658e+00 0.000000e+00 -2.506658e+00 3.086184e+01 0.000000e+00 0.000000e+00 0.000000e+00 0.000000e+00 4.915527e+00 -2.188738e+00 0.000000e+00 -2.188738e+00 -3.964920e+00 0.000000e+00 0.000000e+00 0.000000e+00 0.000000e+00 6.582851e+00 4.729031e+00 0.000000e+00 4.729031e+00 3.196398e+00 0.000000e+00 0.000000e+00 0.000000e+00 0.000000e+00 3.629797e+00 3.398072e+00 0.000000e+00 3.398072e+00 3.839160e-01 0.000000e+00 0.000000e+00 0.000000e+00 0.000000e+00 5.537644e+00 -2.138100e+00 0.000000e+00 -2.138100e+00 -3.094448e+00 0.000000e+00 0.000000e+00 0.000000e+00 0.000000e+00 6.288534e+00 5.792454e+00 0.000000e+00 5.792454e+00 8.160444e+00 0.000000e+00 0.000000e+00 0.000000e+00 0.000000e+00 4.409285e+00 2.739350e+00 0.000000e+00 2.739350e+00 1.157660e-01 0.000000e+00 0.000000e+00 0.000000e+00 0.000000e+00 1.781692e+01 -5.937640e+00 0.000000e+00 -5.937640e+00 2.132832e+01 0.000000e+00 0.000000e+00 0.000000e+00 0.000000e+00 4.902369e+00 3.019229e+00 0.000000e+00 3.019229e+00 3.482002e-01 0.000000e+00 0.000000e+00 0.000000e+00 0.000000e+00 9.234351e-01 -1.149253e+00 0.000000e+00 -1.149253e+00 -1.292284e+01 0.000000e+00 0.000000e+00 0.000000e+00 0.000000e+00 1.564746e+01 -5.509134e+00 0.000000e+00 -5.509134e+00 1.572263e+01 0.000000e+00 0.000000e+00 0.000000e+00 0.000000e+00 8.266848e+00 -2.636676e+00 0.000000e+00 -2.636676e+00 6.614392e-01 0.000000e+00 0.000000e+00 0.000000e+00 0.000000e+00 1.178279e+01 -3.315286e+00 0.000000e+00 -3.315286e+00 5.427081e+00 0.000000e+00 0.000000e+00 0.000000e+00 0.000000e+00 4.357662e+00 -2.072665e+00 0.000000e+00 -2.072665e+00 -4.810016e+00 0.000000e+00 0.000000e+00 0.000000e+00 0.000000e+00 1.812588e+00 -1.479040e+00 0.000000e+00 -1.479040e+00 -9.888893e+00 0.000000e+00 0.000000e+00 0.000000e+00 0.000000e+00 6.944795e+00 -2.591452e+00 0.000000e+00 -2.591452e+00 -8.656431e-01 0.000000e+00 0.000000e+00 0.000000e+00 0.000000e+00 8.920809e-01 -3.447086e-01 0.000000e+00 -3.447086e-01 -2.088644e+01 0.000000e+00 0.000000e+00 0.000000e+00 0.000000e+00 1.231860e+00 -2.462429e+00 0.000000e+00 -2.462429e+00 -1.080923e+01 0.000000e+00 0.000000e+00 0.000000e+00 0.000000e+00 2.964949e+00 -1.921377e+00 0.000000e+00 -1.921377e+00 -7.375074e+00 0.000000e+00 0.000000e+00 0.000000e+00 0.000000e+00 2.257983e+00 -1.317322e+00 0.000000e+00 -1.317322e+00 -9.118658e+00 0.000000e+00 0.000000e+00 0.000000e+00 0.000000e+00 -2.707559e+00 -7.168395e-01 0.000000e+00 -7.168395e-01 5.178026e+00 0.000000e+00 0.000000e+00 0.000000e+00 0.000000e+00 7.597450e+00 -2.676543e+00 0.000000e+00 -2.676543e+00 -2.636086e-02 0.000000e+00 0.000000e+00 0.000000e+00 0.000000e+00 9.734654e-01 3.899325e+00 0.000000e+00 3.899325e+00 7.905390e-01 0.000000e+00 0.000000e+00 0.000000e+00 0.000000e+00 1.582499e+01 -5.038066e+00 0.000000e+00 -5.038066e+00 1.345716e+01 0.000000e+00 0.000000e+00 0.000000e+00 0.000000e+00 1.302844e+00 -1.328259e+00 0.000000e+00 -1.328259e+00 -1.186004e+01 0.000000e+00 0.000000e+00 0.000000e+00 0.000000e+00 8.803076e+00 -2.769793e+00 0.000000e+00 -2.769793e+00 1.535271e+00 0.000000e+00 0.000000e+00 0.000000e+00 0.000000e+00 -2.578589e+00 -2.907997e+00 0.000000e+00 -2.907997e+00 4.862690e+00 0.000000e+00 0.000000e+00 0.000000e+00 0.000000e+00 1.300633e+00 -3.243741e+00 0.000000e+00 -3.243741e+00 -9.479669e+00 0.000000e+00 0.000000e+00 0.000000e+00 0.000000e+00 6.442827e+00 -2.397914e+00 0.000000e+00 -2.397914e+00 -1.662317e+00 0.000000e+00 0.000000e+00 0.000000e+00 0.000000e+00 -1.554998e+00 -1.515184e+00 0.000000e+00 -1.515184e+00 7.074237e+00 0.000000e+00 0.000000e+00 0.000000e+00 0.000000e+00 2.628112e+00 -1.625328e+00 0.000000e+00 -1.625328e+00 -8.235767e+00 0.000000e+00 0.000000e+00 0.000000e+00 0.000000e+00 -1.995402e+00 -5.155476e+00 0.000000e+00 -5.155476e+00 1.697849e+00 0.000000e+00 0.000000e+00 0.000000e+00 0.000000e+00 9.468665e+00 -3.075870e+00 0.000000e+00 -3.075870e+00 2.596994e+00 0.000000e+00 0.000000e+00 0.000000e+00 0.000000e+00 1.438978e+01 -4.070063e+00 0.000000e+00 -4.070063e+00 9.568613e+00 0.000000e+00 0.000000e+00 0.000000e+00 0.000000e+00 1.239153e+00 -4.891945e+00 0.000000e+00 -4.891945e+00 -5.376681e+00 0.000000e+00 0.000000e+00 0.000000e+00 0.000000e+00 3.348263e+00 -2.200357e+00 0.000000e+00 -2.200357e+00 -6.372880e+00 0.000000e+00 0.000000e+00 0.000000e+00 0.000000e+00 3.169282e-01 -5.919885e+00 0.000000e+00 -5.919885e+00 -9.941337e-01 0.000000e+00 0.000000e+00 0.000000e+00 0.000000e+00 1.492228e+00 -1.612076e+00 0.000000e+00 -1.612076e+00 -1.075158e+01 0.000000e+00 0.000000e+00 0.000000e+00 0.000000e+00 3.975562e+00 4.137860e+00 0.000000e+00 4.137860e+00 2.022886e+00 0.000000e+00 0.000000e+00 0.000000e+00 0.000000e+00 4.961601e+00 5.060412e+00 0.000000e+00 5.060412e+00 5.806313e+00 0.000000e+00 0.000000e+00 0.000000e+00 0.000000e+00 1.093796e+01 -3.287676e+00 0.000000e+00 -3.287676e+00 4.572100e+00 0.000000e+00 0.000000e+00 0.000000e+00 0.000000e+00 -1.960679e+00 -4.503663e+00 0.000000e+00 -4.503663e+00 3.916093e+00 0.000000e+00 0.000000e+00 0.000000e+00 0.000000e+00 4.274358e+00 4.569564e+00 0.000000e+00 4.569564e+00 3.643125e+00 0.000000e+00 0.000000e+00 0.000000e+00 0.000000e+00 1.575621e+00 -2.297706e+00 0.000000e+00 -2.297706e+00 -1.001003e+01 0.000000e+00 0.000000e+00 0.000000e+00 0.000000e+00 -5.065862e-01 3.837515e+00 0.000000e+00 3.837515e+00 8.201320e-01 0.000000e+00 0.000000e+00 0.000000e+00 0.000000e+00 9.094954e+00 -3.949485e+00 0.000000e+00 -3.949485e+00 3.412322e+00 0.000000e+00 0.000000e+00 0.000000e+00 0.000000e+00 1.652338e+00 -3.100516e+00 0.000000e+00 -3.100516e+00 -8.644802e+00 0.000000e+00 0.000000e+00 0.000000e+00 0.000000e+00 1.735209e+00 -4.122331e+00 0.000000e+00 -4.122331e+00 -6.777612e+00 0.000000e+00 0.000000e+00 0.000000e+00 0.000000e+00 1.473284e+00 3.963032e+00 0.000000e+00 3.963032e+00 1.359970e+00 0.000000e+00 0.000000e+00 0.000000e+00 0.000000e+00 1.280051e+01 -4.156859e+00 0.000000e+00 -4.156859e+00 8.145970e+00 0.000000e+00 0.000000e+00 0.000000e+00 0.000000e+00 -5.965896e-02 3.080607e+00 0.000000e+00 3.080607e+00 4.807274e+00 0.000000e+00 0.000000e+00 0.000000e+00 0.000000e+00 2.924547e-01 3.743988e+00 0.000000e+00 3.743988e+00 2.502797e+00 0.000000e+00 0.000000e+00 0.000000e+00 0.000000e+00 2.472461e-01 3.917421e+00 0.000000e+00 3.917421e+00 1.280187e+00 0.000000e+00 0.000000e+00 0.000000e+00 0.000000e+00 1.284496e+01 -5.045278e+00 0.000000e+00 -5.045278e+00 1.047293e+01 0.000000e+00 0.000000e+00 0.000000e+00 0.000000e+00 -1.106994e+00 1.070204e+00 0.000000e+00 1.070204e+00 6.646225e+00 0.000000e+00 0.000000e+00 0.000000e+00 0.000000e+00 -1.237739e+00 -3.682764e+00 0.000000e+00 -3.682764e+00 6.297158e+00 0.000000e+00 0.000000e+00 0.000000e+00 0.000000e+00 9.923891e+00 -4.073233e+00 0.000000e+00 -4.073233e+00 4.548958e+00 0.000000e+00 0.000000e+00 0.000000e+00 0.000000e+00 2.462849e+00 -2.162104e+00 0.000000e+00 -2.162104e+00 -8.220386e+00 0.000000e+00 0.000000e+00 0.000000e+00 0.000000e+00 4.415569e+00 4.671108e+00 0.000000e+00 4.671108e+00 1.202038e+01 0.000000e+00 0.000000e+00 0.000000e+00 0.000000e+00 9.039036e+00 7.267113e-02 0.000000e+00 7.267113e-02 2.657651e+01 0.000000e+00 0.000000e+00 0.000000e+00 0.000000e+00 1.110985e+01 -4.654948e+00 0.000000e+00 -4.654948e+00 7.237002e+00 0.000000e+00 0.000000e+00 0.000000e+00 0.000000e+00 1.555738e+01 -4.962233e+00 0.000000e+00 -4.962233e+00 2.835880e+01 0.000000e+00 0.000000e+00 0.000000e+00 0.000000e+00 6.185691e+00 -3.145816e+00 0.000000e+00 -3.145816e+00 -1.300851e+00 0.000000e+00 0.000000e+00 0.000000e+00 0.000000e+00 1.629006e+01 -5.801280e+00 0.000000e+00 -5.801280e+00 2.477579e+01 0.000000e+00 0.000000e+00 0.000000e+00 0.000000e+00 3.168416e+00 3.901376e+00 0.000000e+00 3.901376e+00 1.135126e+00 0.000000e+00 0.000000e+00 0.000000e+00 0.000000e+00 1.895703e+00 -4.980293e+00 0.000000e+00 -4.980293e+00 -4.341984e+00 0.000000e+00 0.000000e+00 0.000000e+00 0.000000e+00 6.740814e+00 2.346057e+00 0.000000e+00 2.346057e+00 2.225709e+01 0.000000e+00 0.000000e+00 0.000000e+00 0.000000e+00 -7.310020e-01 -5.770114e+00 0.000000e+00 -5.770114e+00 4.264103e-01 0.000000e+00 0.000000e+00 0.000000e+00 0.000000e+00 1.372590e+00 -5.659523e+00 0.000000e+00 -5.659523e+00 -2.338884e+00 0.000000e+00 0.000000e+00 0.000000e+00 0.000000e+00 1.285751e+01 -5.801361e+00 0.000000e+00 -5.801361e+00 1.738648e+01 0.000000e+00 0.000000e+00 0.000000e+00 0.000000e+00 7.616699e+00 -3.509304e+00 0.000000e+00 -3.509304e+00 9.241726e-01 0.000000e+00 0.000000e+00 0.000000e+00 0.000000e+00 4.292058e+00 3.598588e+00 0.000000e+00 3.598588e+00 7.842427e-01 0.000000e+00 0.000000e+00 0.000000e+00 0.000000e+00 4.226777e+00 -2.909866e+00 0.000000e+00 -2.909866e+00 -4.441718e+00 0.000000e+00 0.000000e+00 0.000000e+00 0.000000e+00 8.479364e+00 -3.699599e+00 0.000000e+00 -3.699599e+00 2.150146e+00 0.000000e+00 0.000000e+00 0.000000e+00 0.000000e+00 1.289729e+01 -5.543353e+00 0.000000e+00 -5.543353e+00 1.345084e+01 0.000000e+00 0.000000e+00 0.000000e+00 0.000000e+00 6.811638e+00 -3.415608e+00 0.000000e+00 -3.415608e+00 -2.125489e-01 0.000000e+00 0.000000e+00 0.000000e+00 0.000000e+00 2.161788e+00 -1.693451e+00 0.000000e+00 -1.693451e+00 -9.020778e+00 0.000000e+00 0.000000e+00 0.000000e+00 0.000000e+00 -1.076205e+00 -5.514927e+00 0.000000e+00 -5.514927e+00 2.665787e+00 0.000000e+00 0.000000e+00 0.000000e+00 0.000000e+00 2.796941e+00 -2.513930e+00 0.000000e+00 -2.513930e+00 -7.115291e+00 0.000000e+00 0.000000e+00 0.000000e+00 0.000000e+00 1.857982e+00 -2.023591e+00 0.000000e+00 -2.023591e+00 -9.399028e+00 0.000000e+00 0.000000e+00 0.000000e+00 0.000000e+00 4.968581e+00 -2.892088e+00 0.000000e+00 -2.892088e+00 -3.236278e+00 0.000000e+00 0.000000e+00 0.000000e+00 0.000000e+00 4.963045e+00 3.413930e+00 0.000000e+00 3.413930e+00 1.716650e+01 0.000000e+00 0.000000e+00 0.000000e+00 0.000000e+00 1.358878e+01 -5.506164e+00 0.000000e+00 -5.506164e+00 2.109136e+01 0.000000e+00 0.000000e+00 0.000000e+00 0.000000e+00 5.746830e+00 -2.753592e+00 0.000000e+00 -2.753592e+00 -2.327414e+00 0.000000e+00 0.000000e+00 0.000000e+00 0.000000e+00 -4.025990e-01 -5.271914e+00 0.000000e+00 -5.271914e+00 4.540412e+00 0.000000e+00 0.000000e+00 0.000000e+00 0.000000e+00 2.353298e+00 -3.589034e+00 0.000000e+00 -3.589034e+00 -6.641866e+00 0.000000e+00 0.000000e+00 0.000000e+00 0.000000e+00 5.847948e+00 -3.921105e+00 0.000000e+00 -3.921105e+00 -7.441424e-01 0.000000e+00 0.000000e+00 0.000000e+00 0.000000e+00 1.145682e+00 -6.136952e+00 0.000000e+00 -6.136952e+00 4.389571e-01 0.000000e+00 0.000000e+00 0.000000e+00 0.000000e+00 2.508916e+00 -4.369333e+00 0.000000e+00 -4.369333e+00 -4.696033e+00 0.000000e+00 0.000000e+00 0.000000e+00 0.000000e+00 1.129215e+01 -5.009751e+00 0.000000e+00 -5.009751e+00 8.995509e+00 0.000000e+00 0.000000e+00 0.000000e+00 0.000000e+00 3.973133e+00 -2.308570e+00 0.000000e+00 -2.308570e+00 -5.441141e+00 0.000000e+00 0.000000e+00 0.000000e+00 0.000000e+00 -1.462264e-02 -5.947317e+00 0.000000e+00 -5.947317e+00 1.726231e+00 0.000000e+00 0.000000e+00 0.000000e+00 0.000000e+00 1.098817e+01 -4.062865e+00 0.000000e+00 -4.062865e+00 5.679449e+00 0.000000e+00 0.000000e+00 0.000000e+00 0.000000e+00 3.259204e+00 4.341786e+00 0.000000e+00 4.341786e+00 8.609493e+00 0.000000e+00 0.000000e+00 0.000000e+00 0.000000e+00 2.104817e+00 -2.721255e+00 0.000000e+00 -2.721255e+00 -8.163568e+00 0.000000e+00 0.000000e+00 0.000000e+00 0.000000e+00 7.797808e+00 -1.907695e+00 0.000000e+00 -1.907695e+00 2.247255e+01 0.000000e+00 0.000000e+00 0.000000e+00 0.000000e+00 1.030348e+01 -5.594931e+00 0.000000e+00 -5.594931e+00 1.120196e+01 0.000000e+00 0.000000e+00 0.000000e+00 0.000000e+00 9.632805e+00 -5.375590e+00 0.000000e+00 -5.375590e+00 8.093138e+00 0.000000e+00 0.000000e+00 0.000000e+00 0.000000e+00 -2.577402e-01 -2.467863e+00 0.000000e+00 -2.467863e+00 8.957634e+00 0.000000e+00 0.000000e+00 0.000000e+00 0.000000e+00 2.110579e+00 4.154150e+00 0.000000e+00 4.154150e+00 3.588126e+00 0.000000e+00 0.000000e+00 0.000000e+00 0.000000e+00 1.131018e+01 -3.809303e+00 0.000000e+00 -3.809303e+00 2.483922e+01 0.000000e+00 0.000000e+00 0.000000e+00 0.000000e+00 1.025278e+01 -5.627244e+00 0.000000e+00 -5.627244e+00 1.493444e+01 0.000000e+00 0.000000e+00 0.000000e+00 0.000000e+00 2.563494e+00 -5.261237e+00 0.000000e+00 -5.261237e+00 -2.481458e+00 0.000000e+00 0.000000e+00 0.000000e+00 0.000000e+00 4.320843e+00 -3.722135e+00 0.000000e+00 -3.722135e+00 -3.228810e+00 0.000000e+00 0.000000e+00 0.000000e+00 0.000000e+00 8.554029e+00 -4.742456e+00 0.000000e+00 -4.742456e+00 4.470142e+00 0.000000e+00 0.000000e+00 0.000000e+00 0.000000e+00 5.300705e+00 2.893916e-03 0.000000e+00 2.893916e-03 1.977331e+01 0.000000e+00 0.000000e+00 0.000000e+00 0.000000e+00 8.106980e+00 -5.564095e+00 0.000000e+00 -5.564095e+00 1.274391e+01 0.000000e+00 0.000000e+00 0.000000e+00 0.000000e+00 6.474346e+00 -4.223561e+00 0.000000e+00 -4.223561e+00 6.325650e-01 0.000000e+00 0.000000e+00 0.000000e+00 0.000000e+00 5.280876e+00 -3.484795e+00 0.000000e+00 -3.484795e+00 -2.114622e+00 0.000000e+00 0.000000e+00 0.000000e+00 0.000000e+00 3.149214e-01 -4.470486e+00 0.000000e+00 -4.470486e+00 7.332313e+00 0.000000e+00 0.000000e+00 0.000000e+00 0.000000e+00 2.316377e+00 4.155503e+00 0.000000e+00 4.155503e+00 2.019130e+00 0.000000e+00 0.000000e+00 0.000000e+00 0.000000e+00 9.691823e+00 -4.837575e+00 0.000000e+00 -4.837575e+00 5.993379e+00 0.000000e+00 0.000000e+00 0.000000e+00 0.000000e+00 3.311572e+00 -3.660074e+00 0.000000e+00 -3.660074e+00 -4.736965e+00 0.000000e+00 0.000000e+00 0.000000e+00 0.000000e+00 7.930467e-01 2.687821e+00 0.000000e+00 2.687821e+00 7.775966e+00 0.000000e+00 0.000000e+00 0.000000e+00 0.000000e+00 2.410149e+00 4.158944e+00 0.000000e+00 4.158944e+00 5.704510e+00 0.000000e+00 0.000000e+00 0.000000e+00 0.000000e+00 8.145639e+00 -4.534680e+00 0.000000e+00 -4.534680e+00 3.119837e+00 0.000000e+00 0.000000e+00 0.000000e+00 0.000000e+00 -1.494287e-01 2.173862e-01 0.000000e+00 2.173862e-01 9.170214e+00 0.000000e+00 0.000000e+00 0.000000e+00 0.000000e+00 3.530822e+00 -4.573712e+00 0.000000e+00 -4.573712e+00 -2.728799e+00 0.000000e+00 0.000000e+00 0.000000e+00 0.000000e+00 6.439501e+00 -3.112793e+00 0.000000e+00 -3.112793e+00 1.883773e+01 0.000000e+00 0.000000e+00 0.000000e+00 0.000000e+00 7.995282e+00 -5.724862e+00 0.000000e+00 -5.724862e+00 9.322250e+00 0.000000e+00 0.000000e+00 0.000000e+00 0.000000e+00 7.225622e+00 -4.390096e+00 0.000000e+00 -4.390096e+00 1.923315e+00 0.000000e+00 0.000000e+00 0.000000e+00 0.000000e+00 5.423378e+00 -4.730848e+00 0.000000e+00 -4.730848e+00 1.042133e-01 0.000000e+00 0.000000e+00 0.000000e+00 0.000000e+00 1.077123e+00 -5.651998e+00 0.000000e+00 -5.651998e+00 5.402831e+00 0.000000e+00 0.000000e+00 0.000000e+00 0.000000e+00 7.841913e+00 -5.416683e+00 0.000000e+00 -5.416683e+00 6.201698e+00 0.000000e+00 0.000000e+00 0.000000e+00 0.000000e+00 3.426001e+00 -2.905889e+00 0.000000e+00 -2.905889e+00 -5.656857e+00 0.000000e+00 0.000000e+00 0.000000e+00 0.000000e+00 9.189484e-01 -6.047710e+00 0.000000e+00 -6.047710e+00 3.233096e+00 0.000000e+00 0.000000e+00 0.000000e+00 0.000000e+00 4.775664e+00 -4.225793e+00 0.000000e+00 -4.225793e+00 -1.711900e+00 0.000000e+00 0.000000e+00 0.000000e+00 0.000000e+00 9.689624e+00 -4.677572e+00 0.000000e+00 -4.677572e+00 1.967420e+01 0.000000e+00 0.000000e+00 0.000000e+00 0.000000e+00 7.488270e+00 -4.895260e+00 0.000000e+00 -4.895260e+00 1.619654e+01 0.000000e+00 0.000000e+00 0.000000e+00 0.000000e+00 1.486013e+00 -3.773902e+00 0.000000e+00 -3.773902e+00 1.003270e+01 0.000000e+00 0.000000e+00 0.000000e+00 0.000000e+00 3.560934e+00 6.711077e-01 0.000000e+00 6.711077e-01 1.651283e+01 0.000000e+00 0.000000e+00 0.000000e+00 0.000000e+00 2.325126e+00 -5.904950e+00 0.000000e+00 -5.904950e+00 -2.096158e-01 0.000000e+00 0.000000e+00 0.000000e+00 0.000000e+00 3.474189e+00 -5.452769e+00 0.000000e+00 -5.452769e+00 -5.395781e-01 0.000000e+00 0.000000e+00 0.000000e+00 0.000000e+00 1.669946e+00 2.277135e+00 0.000000e+00 2.277135e+00 1.074355e+01 0.000000e+00 0.000000e+00 0.000000e+00 0.000000e+00 2.854177e+00 -3.105148e+00 0.000000e+00 -3.105148e+00 -6.495940e+00 0.000000e+00 0.000000e+00 0.000000e+00 0.000000e+00 1.108536e+00 -9.667471e-01 0.000000e+00 -9.667471e-01 1.167258e+01 0.000000e+00 0.000000e+00 0.000000e+00 0.000000e+00 5.982845e+00 -5.065887e+00 0.000000e+00 -5.065887e+00 1.786483e+00 0.000000e+00 0.000000e+00 0.000000e+00 0.000000e+00 2.384380e+00 -5.473015e+00 0.000000e+00 -5.473015e+00 7.281028e+00 0.000000e+00 0.000000e+00 0.000000e+00 0.000000e+00 6.928973e+00 -5.241093e+00 0.000000e+00 -5.241093e+00 3.677506e+00 0.000000e+00 0.000000e+00 0.000000e+00 0.000000e+00 2.000938e+00 -6.158750e+00 0.000000e+00 -6.158750e+00 1.940142e+00 0.000000e+00 0.000000e+00 0.000000e+00 0.000000e+00 3.911096e+00 -1.886279e+00 0.000000e+00 -1.886279e+00 1.666573e+01 0.000000e+00 0.000000e+00 0.000000e+00 0.000000e+00 3.380232e+00 -5.970553e+00 0.000000e+00 -5.970553e+00 2.118696e+00 0.000000e+00 0.000000e+00 0.000000e+00 0.000000e+00 6.603753e+00 -5.817255e+00 0.000000e+00 -5.817255e+00 7.256424e+00 0.000000e+00 0.000000e+00 0.000000e+00 0.000000e+00 2.891384e+00 -3.297849e+00 0.000000e+00 -3.297849e+00 1.312255e+01 0.000000e+00 0.000000e+00 0.000000e+00 0.000000e+00 6.342375e+00 -5.538263e+00 0.000000e+00 -5.538263e+00 1.078309e+01 0.000000e+00 0.000000e+00 0.000000e+00 0.000000e+00 5.035150e+00 -5.696758e+00 0.000000e+00 -5.696758e+00 3.078587e+00 0.000000e+00 0.000000e+00 0.000000e+00 0.000000e+00 4.347013e+00 -4.936371e+00 0.000000e+00 -4.936371e+00 -7.967174e-01 0.000000e+00 0.000000e+00 0.000000e+00 0.000000e+00 5.779771e+00 -5.756777e+00 0.000000e+00 -5.756777e+00 5.227597e+00 0.000000e+00 0.000000e+00 0.000000e+00 0.000000e+00 4.961138e+00 -3.787092e+00 0.000000e+00 -3.787092e+00 1.567148e+01 0.000000e+00 0.000000e+00 0.000000e+00 0.000000e+00 2.788063e+00 2.028379e+00 0.000000e+00 2.028379e+00 1.407384e+01 0.000000e+00 0.000000e+00 0.000000e+00 0.000000e+00 5.356012e+00 -4.817544e+00 0.000000e+00 -4.817544e+00 1.342626e+01 0.000000e+00 0.000000e+00 0.000000e+00 0.000000e+00 4.609228e+00 -5.449824e+00 0.000000e+00 -5.449824e+00 1.026638e+00 0.000000e+00 0.000000e+00 0.000000e+00 0.000000e+00 2.383450e+00 -8.300374e-01 0.000000e+00 -8.300374e-01 1.436665e+01 0.000000e+00 0.000000e+00 0.000000e+00 0.000000e+00 2.324267e+00 -6.068210e+00 0.000000e+00 -6.068210e+00 4.105741e+00 0.000000e+00 0.000000e+00 0.000000e+00 0.000000e+00 5.740923e+00 -5.808609e+00 0.000000e+00 -5.808609e+00 9.112039e+00 0.000000e+00 0.000000e+00 0.000000e+00 0.000000e+00 3.725017e+00 -5.041360e+00 0.000000e+00 -5.041360e+00 1.006616e+01 0.000000e+00 0.000000e+00 0.000000e+00 0.000000e+00 3.805880e+00 -5.986530e+00 0.000000e+00 -5.986530e+00 4.937805e+00 0.000000e+00 0.000000e+00 0.000000e+00 0.000000e+00 4.548869e+00 -5.847616e+00 0.000000e+00 -5.847616e+00 7.098530e+00 0.000000e+00 0.000000e+00 0.000000e+00 0.000000e+00 </DataArray>
 <DataArray type="Float64" Name="IST_StrainTensor" NumberOfComponents="9" format="ascii"> 1.195045e-06 3.084618e-06 0.000000e+00 3.084618e-06 -1.921971e-06 0.000000e+00 0.000000e+00 0.000000e+00 0.000000e+00 -3.123283e-07 -6.142643e-07 0.000000e+00 -6.142643e-07 -3.494897e-07 0.000000e+00 0.000000e+00 0.000000e+00 0.000000e+00 2.239144e-05 9.739944e-06 0.000000e+00 9.739944e-06 -3.196735e-06 0.000000e+00 0.000000e+00 0.000000e+00 0.000000e+00 2.263444e-07 -6.055887e-07 0.000000e+00 -6.055887e-07 1.280010e-07 0.000000e+00 0.000000e+00 0.000000e+00 0.000000e+00 1.293026e-05 5.143163e-06 0.000000e+00 5.143163e-06 -2.857514e-06 0.000000e+00 0.000000e+00 0.000000e+00 0.000000e+00 -2.135676e-06 -3.926302e-06 0.000000e+00 -3.926302e-06 -1.926196e-06 0.000000e+00 0.000000e+00 0.000000e+00 0.000000e+00 9.529685e-05 6.483168e-05 0.000000e+00 6.483168e-05 1.263329e-04 0.000000e+00 0.000000e+00 0.000000e+00 0.000000e+00 3.233427e-05 -5.153815e-06 0.000000e+00 -5.153815e-06 -1.025176e-04 0.000000e+00 0.000000e+00 0.000000e+00 0.000000e+00 -3.108806e-07 2.916960e-06 0.000000e+00 2.916960e-06 -1.521216e-06 0.000000e+00 0.000000e+00 0.000000e+00 0.000000e+00 -1.194696e-06 1.908298e-06 0.000000e+00 1.908298e-06 -1.849795e-06 0.000000e+00 0.000000e+00 0.000000e+00 0.000000e+00 -9.550015e-07 7.605798e-07 0.000000e+00 7.605798e-07 -3.347597e-06 0.000000e+00 0.000000e+00 0.000000e+00 0.000000e+00 6.873769e-07 5.532377e-07 0.000000e+00 5.532377e-07 -6.262731e-06 0.000000e+00 0.000000e+00 0.000000e+00 0.000000e+00 3.170890e-06 2.980675e-06 0.000000e+00 2.980675e-06 -9.722266e-06 0.000000e+00 0.000000e+00 0.000000e+00 0.000000e+00 4.403923e-06 7.336140e-06 0.000000e+00 7.336140e-06 -1.157873e-05 0.000000e+00 0.000000e+00 0.000000e+00 0.000000e+00 4.132414e-06 1.286278e-05 0.000000e+00 1.286278e-05 -1.168154e-05 0.000000e+00 0.000000e+00 0.000000e+00 0.000000e+00 2.516629e-06 1.764863e-05 0.000000e+00 1.764863e-05 -1.030390e-05 0.000000e+00 0.000000e+00 0.000000e+00 0.000000e+00 2.660143e-07 2.199185e-05 0.000000e+00 2.199185e-05 -8.091507e-06 0.000000e+00 0.000000e+00 0.000000e+00 0.000000e+00 -2.105410e-06 2.487799e-05 0.000000e+00 2.487799e-05 -5.088557e-06 0.000000e+00 0.000000e+00 0.000000e+00 0.000000e+00 -3.475291e-06 2.568438e-05 0.000000e+00 2.568438e-05 -1.984301e-06 0.000000e+00 0.000000e+00 0.000000e+00 0.000000e+00 -2.752236e-06 2.478231e-05 0.000000e+00 2.478231e-05 -2.551225e-07 0.000000e+00 0.000000e+00 0.000000e+00 0.000000e+00 3.474887e-07 2.340381e-05 0.000000e+00 2.340381e-05 -5.176556e-07 0.000000e+00 0.000000e+00 0.000000e+00 0.000000e+00 4.530011e-06 2.278229e-05 0.000000e+00 2.278229e-05 -1.890869e-06 0.000000e+00 0.000000e+00 0.000000e+00 0.000000e+00 7.997437e-06 2.289608e-05 0.000000e+00 2.289608e-05 -2.900400e-06 0.000000e+00 0.000000e+00 0.000000e+00 0.000000e+00 9.975815e-06 2.311871e-05 0.000000e+00 2.311871e-05 -3.024953e-06 0.000000e+00 0.000000e+00 0.000000e+00 0.000000e+00 1.002299e-05 2.281526e-05 0.000000e+00 2.281526e-05 -1.808730e-06 0.000000e+00 0.000000e+00 0.000000e+00 0.000000e+00 8.114274e-06 2.156800e-05 0.000000e+00 2.156800e-05 6.149954e-07 0.000000e+00 0.000000e+00 0.000000e+00 0.000000e+00 4.252138e-06 1.842885e-05 0.000000e+00 1.842885e-05 3.599441e-06 0.000000e+00 0.000000e+00 0.000000e+00 0.000000e+00 5.081289e-07 1.343588e-05 0.000000e+00 1.343588e-05 5.469151e-06 0.000000e+00 0.000000e+00 0.000000e+00 0.000000e+00 -1.135582e-06 7.867174e-06 0.000000e+00 7.867174e-06 6.648220e-06 0.000000e+00 0.000000e+00 0.000000e+00 0.000000e+00 -1.404221e-06 2.858490e-06 0.000000e+00 2.858490e-06 6.069868e-06 0.000000e+00 0.000000e+00 0.000000e+00 0.000000e+00 -3.433852e-07 -5.685233e-07 0.000000e+00 -5.685233e-07 4.493033e-06 0.000000e+00 0.000000e+00 0.000000e+00 0.000000e+00 2.045088e-06 -2.210076e-06 0.000000e+00 -2.210076e-06 1.485005e-06 0.000000e+00 0.000000e+00 0.000000e+00 0.000000e+00 3.549287e-06 -1.492167e-06 0.000000e+00 -1.492167e-06 -9.600579e-07 0.000000e+00 0.000000e+00 0.000000e+00 0.000000e+00 3.856487e-06 2.874917e-07 0.000000e+00 2.874917e-07 -2.295406e-06 0.000000e+00 0.000000e+00 0.000000e+00 0.000000e+00 2.911442e-06 2.060895e-06 0.000000e+00 2.060895e-06 -2.435206e-06 0.000000e+00 0.000000e+00 0.000000e+00 0.000000e+00 9.180002e-07 -7.162462e-06 0.000000e+00 -7.162462e-06 -9.381181e-06 0.000000e+00 0.000000e+00 0.000000e+00 0.000000e+00 9.065626e-06 -9.593498e-06 0.000000e+00 -9.593498e-06 -3.006644e-05 0.000000e+00 0.000000e+00 0.000000e+00 0.000000e+00 1.950454e-05 -7.512358e-06 0.000000e+00 -7.512358e-06 -6.051629e-05 0.000000e+00 0.000000e+00 0.000000e+00 0.000000e+00 2.789302e-05 -3.788619e-06 0.000000e+00 -3.788619e-06 -8.830634e-05 0.000000e+00 0.000000e+00 0.000000e+00 0.000000e+00 7.501153e-05 2.902950e-05 0.000000e+00 2.902950e-05 -1.204990e-05 0.000000e+00 0.000000e+00 0.000000e+00 0.000000e+00 3.907720e-05 1.388381e-06 0.000000e+00 1.388381e-06 -1.204355e-05 0.000000e+00 0.000000e+00 0.000000e+00 0.000000e+00 3.616283e-05 2.445463e-06 0.000000e+00 2.445463e-06 -1.059785e-05 0.000000e+00 0.000000e+00 0.000000e+00 0.000000e+00 3.293578e-05 2.599338e-06 0.000000e+00 2.599338e-06 -1.004224e-05 0.000000e+00 0.000000e+00 0.000000e+00 0.000000e+00 2.945979e-05 2.959958e-06 0.000000e+00 2.959958e-06 -9.037795e-06 0.000000e+00 0.000000e+00 0.000000e+00 0.000000e+00 2.574200e-05 3.348091e-06 0.000000e+00 3.348091e-06 -7.870128e-06 0.000000e+00 0.000000e+00 0.000000e+00 0.000000e+00 2.174509e-05 3.836924e-06 0.000000e+00 3.836924e-06 -6.723700e-06 0.000000e+00 0.000000e+00 0.000000e+00 0.000000e+00 1.690169e-05 4.395357e-06 0.000000e+00 4.395357e-06 -5.119049e-06 0.000000e+00 0.000000e+00 0.000000e+00 0.000000e+00 9.488551e-07 -5.370107e-07 0.000000e+00 -5.370107e-07 -3.627799e-07 0.000000e+00 0.000000e+00 0.000000e+00 0.000000e+00 1.406493e-06 -2.937711e-07 0.000000e+00 -2.937711e-07 -6.064997e-07 0.000000e+00 0.000000e+00 0.000000e+00 0.000000e+00 1.332988e-06 5.960349e-07 0.000000e+00 5.960349e-07 -9.225350e-07 0.000000e+00 0.000000e+00 0.000000e+00 0.000000e+00 -9.641809e-07 1.969001e-06 0.000000e+00 1.969001e-06 -3.230001e-07 0.000000e+00 0.000000e+00 0.000000e+00 0.000000e+00 -6.003738e-06 3.605238e-06 0.000000e+00 3.605238e-06 1.172204e-06 0.000000e+00 0.000000e+00 0.000000e+00 0.000000e+00 -1.375322e-05 5.115832e-06 0.000000e+00 5.115832e-06 3.661176e-06 0.000000e+00 0.000000e+00 0.000000e+00 0.000000e+00 -2.264410e-05 6.059057e-06 0.000000e+00 6.059057e-06 6.607651e-06 0.000000e+00 0.000000e+00 0.000000e+00 0.000000e+00 -3.286071e-05 6.245320e-06 0.000000e+00 6.245320e-06 9.988698e-06 0.000000e+00 0.000000e+00 0.000000e+00 0.000000e+00 -4.213211e-05 5.583417e-06 0.000000e+00 5.583417e-06 1.328116e-05 0.000000e+00 0.000000e+00 0.000000e+00 0.000000e+00 -4.898750e-05 3.863964e-06 0.000000e+00 3.863964e-06 1.591166e-05 0.000000e+00 0.000000e+00 0.000000e+00 0.000000e+00 -5.087365e-05 2.761630e-07 0.000000e+00 2.761630e-07 1.736685e-05 0.000000e+00 0.000000e+00 0.000000e+00 0.000000e+00 -4.474972e-05 -5.547332e-06 0.000000e+00 -5.547332e-06 1.568786e-05 0.000000e+00 0.000000e+00 0.000000e+00 0.000000e+00 -3.003392e-05 -8.725645e-06 0.000000e+00 -8.725645e-06 1.022606e-05 0.000000e+00 0.000000e+00 0.000000e+00 0.000000e+00 -1.138217e-05 -7.638036e-06 0.000000e+00 -7.638036e-06 2.068509e-06 0.000000e+00 0.000000e+00 0.000000e+00 0.000000e+00 1.837615e-05 9.259922e-06 0.000000e+00 9.259922e-06 -3.387991e-06 0.000000e+00 0.000000e+00 0.000000e+00 0.000000e+00 4.980826e-08 -6.871159e-07 0.000000e+00 -6.871159e-07 -7.691299e-07 0.000000e+00 0.000000e+00 0.000000e+00 0.000000e+00 7.785399e-07 -5.778551e-07 0.000000e+00 -5.778551e-07 -2.240398e-06 0.000000e+00 0.000000e+00 0.000000e+00 0.000000e+00 1.171628e-06 9.202538e-08 0.000000e+00 9.202538e-08 -2.867706e-06 0.000000e+00 0.000000e+00 0.000000e+00 0.000000e+00 9.080776e-07 7.732794e-07 0.000000e+00 7.732794e-07 -2.257532e-06 0.000000e+00 0.000000e+00 0.000000e+00 0.000000e+00 2.874710e-07 1.153375e-06 0.000000e+00 1.153375e-06 -7.340214e-07 0.000000e+00 0.000000e+00 0.000000e+00 0.000000e+00 -3.753708e-07 1.080203e-06 0.000000e+00 1.080203e-06 7.804602e-07 0.000000e+00 0.000000e+00 0.000000e+00 0.000000e+00 -7.839099e-07 5.784879e-07 0.000000e+00 5.784879e-07 1.919271e-06 0.000000e+00 0.000000e+00 0.000000e+00 0.000000e+00 -8.970408e-07 6.407366e-08 0.000000e+00 6.407366e-08 2.269202e-06 0.000000e+00 0.000000e+00 0.000000e+00 0.000000e+00 -6.957048e-07 -4.504158e-07 0.000000e+00 -4.504158e-07 1.725346e-06 0.000000e+00 0.000000e+00 0.000000e+00 0.000000e+00 -1.885137e-07 -6.364260e-07 0.000000e+00 -6.364260e-07 7.272584e-07 0.000000e+00 0.000000e+00 0.000000e+00 0.000000e+00 2.017088e-05 6.540444e-06 0.000000e+00 6.540444e-06 -5.062679e-06 0.000000e+00 0.000000e+00 0.000000e+00 0.000000e+00 1.137475e-05 4.908358e-06 0.000000e+00 4.908358e-06 -3.061423e-06 0.000000e+00 0.000000e+00 0.000000e+00 0.000000e+00 3.855894e-06 4.013128e-06 0.000000e+00 4.013128e-06 -6.127363e-07 0.000000e+00 0.000000e+00 0.000000e+00 0.000000e+00 -2.521734e-06 2.653038e-06 0.000000e+00 2.653038e-06 1.605358e-06 0.000000e+00 0.000000e+00 0.000000e+00 0.000000e+00 -5.838051e-06 7.322623e-07 0.000000e+00 7.322623e-07 2.580272e-06 0.000000e+00 0.000000e+00 0.000000e+00 0.000000e+00 -5.403317e-06 -7.623002e-07 0.000000e+00 -7.623002e-07 2.124407e-06 0.000000e+00 0.000000e+00 0.000000e+00 0.000000e+00 -3.072434e-06 -1.342633e-06 0.000000e+00 -1.342633e-06 1.002445e-06 0.000000e+00 0.000000e+00 0.000000e+00 0.000000e+00 -6.425220e-07 -1.020932e-06 0.000000e+00 -1.020932e-06 -1.742565e-07 0.000000e+00 0.000000e+00 0.000000e+00 0.000000e+00 1.276809e-05 -5.690111e-06 0.000000e+00 -5.690111e-06 -9.046333e-05 0.000000e+00 0.000000e+00 0.000000e+00 0.000000e+00 1.935577e-05 -4.197360e-06 0.000000e+00 -4.197360e-06 -8.865382e-05 0.000000e+00 0.000000e+00 0.000000e+00 0.000000e+00 2.128180e-05 -2.573198e-06 0.000000e+00 -2.573198e-06 -8.497423e-05 0.000000e+00 0.000000e+00 0.000000e+00 0.000000e+00 2.222002e-05 -1.839746e-06 0.000000e+00 -1.839746e-06 -8.089553e-05 0.000000e+00 0.000000e+00 0.000000e+00 0.000000e+00 2.277684e-05 -1.470268e-06 0.000000e+00 -1.470268e-06 -7.694768e-05 0.000000e+00 0.000000e+00 0.000000e+00 0.000000e+00 2.294802e-05 -1.278576e-06 0.000000e+00 -1.278576e-06 -7.295208e-05 0.000000e+00 0.000000e+00 0.000000e+00 0.000000e+00 2.303107e-05 -1.209334e-06 0.000000e+00 -1.209334e-06 -6.908396e-05 0.000000e+00 0.000000e+00 0.000000e+00 0.000000e+00 2.304092e-05 -1.155449e-06 0.000000e+00 -1.155449e-06 -6.536142e-05 0.000000e+00 0.000000e+00 0.000000e+00 0.000000e+00 2.311130e-05 -1.183669e-06 0.000000e+00 -1.183669e-06 -6.178909e-05 0.000000e+00 0.000000e+00 0.000000e+00 0.000000e+00 2.321284e-05 -1.210157e-06 0.000000e+00 -1.210157e-06 -5.828555e-05 0.000000e+00 0.000000e+00 0.000000e+00 0.000000e+00 2.350065e-05 -1.257408e-06 0.000000e+00 -1.257408e-06 -5.491465e-05 0.000000e+00 0.000000e+00 0.000000e+00 0.000000e+00 2.381415e-05 -1.233548e-06 0.000000e+00 -1.233548e-06 -5.163302e-05 0.000000e+00 0.000000e+00 0.000000e+00 0.000000e+00 2.423735e-05 -1.246767e-06 0.000000e+00 -1.246767e-06 -4.855303e-05 0.000000e+00 0.000000e+00 0.000000e+00 0.000000e+00 2.482556e-05 -1.267502e-06 0.000000e+00 -1.267502e-06 -4.575358e-05 0.000000e+00 0.000000e+00 0.000000e+00 0.000000e+00 2.542149e-05 -1.258840e-06 0.000000e+00 -1.258840e-06 -4.287436e-05 0.000000e+00 0.000000e+00 0.000000e+00 0.000000e+00 2.604496e-05 -1.333276e-06 0.000000e+00 -1.333276e-06 -3.997703e-05 0.000000e+00 0.000000e+00 0.000000e+00 0.000000e+00 2.687651e-05 -1.406811e-06 0.000000e+00 -1.406811e-06 -3.730753e-05 0.000000e+00 0.000000e+00 0.000000e+00 0.000000e+00 2.775638e-05 -1.445607e-06 0.000000e+00 -1.445607e-06 -3.472986e-05 0.000000e+00 0.000000e+00 0.000000e+00 0.000000e+00 2.878233e-05 -1.535347e-06 0.000000e+00 -1.535347e-06 -3.225082e-05 0.000000e+00 0.000000e+00 0.000000e+00 0.000000e+00 2.985112e-05 -1.579079e-06 0.000000e+00 -1.579079e-06 -2.982407e-05 0.000000e+00 0.000000e+00 0.000000e+00 0.000000e+00 3.096060e-05 -1.630377e-06 0.000000e+00 -1.630377e-06 -2.729533e-05 0.000000e+00 0.000000e+00 0.000000e+00 0.000000e+00 3.220351e-05 -1.703554e-06 0.000000e+00 -1.703554e-06 -2.485255e-05 0.000000e+00 0.000000e+00 0.000000e+00 0.000000e+00 3.358561e-05 -1.748199e-06 0.000000e+00 -1.748199e-06 -2.258748e-05 0.000000e+00 0.000000e+00 0.000000e+00 0.000000e+00 3.505546e-05 -1.798405e-06 0.000000e+00 -1.798405e-06 -2.039911e-05 0.000000e+00 0.000000e+00 0.000000e+00 0.000000e+00 3.659365e-05 -1.885527e-06 0.000000e+00 -1.885527e-06 -1.818243e-05 0.000000e+00 0.000000e+00 0.000000e+00 0.000000e+00 3.826076e-05 -1.964371e-06 0.000000e+00 -1.964371e-06 -1.594364e-05 0.000000e+00 0.000000e+00 0.000000e+00 0.000000e+00 3.992088e-05 -1.994068e-06 0.000000e+00 -1.994068e-06 -1.354551e-05 0.000000e+00 0.000000e+00 0.000000e+00 0.000000e+00 4.168720e-05 -2.065638e-06 0.000000e+00 -2.065638e-06 -1.107162e-05 0.000000e+00 0.000000e+00 0.000000e+00 0.000000e+00 4.359626e-05 -2.166342e-06 0.000000e+00 -2.166342e-06 -8.768675e-06 0.000000e+00 0.000000e+00 0.000000e+00 0.000000e+00 4.564336e-05 -2.246732e-06 0.000000e+00 -2.246732e-06 -6.455240e-06 0.000000e+00 0.000000e+00 0.000000e+00 0.000000e+00 4.771272e-05 -2.347765e-06 0.000000e+00 -2.347765e-06 -3.816931e-06 0.000000e+00 0.000000e+00 0.000000e+00 0.000000e+00 4.979999e-05 -2.512149e-06 0.000000e+00 -2.512149e-06 -9.709284e-07 0.000000e+00 0.000000e+00 0.000000e+00 0.000000e+00 5.209415e-05 -2.718806e-06 0.000000e+00 -2.718806e-06 1.862924e-06 0.000000e+00 0.000000e+00 0.000000e+00 0.000000e+00 5.469951e-05 -2.969071e-06 0.000000e+00 -2.969071e-06 4.552648e-06 0.000000e+00 0.000000e+00 0.000000e+00 0.000000e+00 5.756043e-05 -3.105875e-06 0.000000e+00 -3.105875e-06 7.299040e-06 0.000000e+00 0.000000e+00 0.000000e+00 0.000000e+00 6.049986e-05 -3.141926e-06 0.000000e+00 -3.141926e-06 1.055331e-05 0.000000e+00 0.000000e+00 0.000000e+00 0.000000e+00 6.354197e-05 -3.210158e-06 0.000000e+00 -3.210158e-06 1.418548e-05 0.000000e+00 0.000000e+00 0.000000e+00 0.000000e+00 6.690945e-05 -3.399231e-06 0.000000e+00 -3.399231e-06 1.781241e-05 0.000000e+00 0.000000e+00 0.000000e+00 0.000000e+00 7.035336e-05 -3.918309e-06 0.000000e+00 -3.918309e-06 2.184155e-05 0.000000e+00 0.000000e+00 0.000000e+00 0.000000e+00 7.455933e-05 -4.653074e-06 0.000000e+00 -4.653074e-06 2.611096e-05 0.000000e+00 0.000000e+00 0.000000e+00 0.000000e+00 7.927111e-05 -5.285129e-06 0.000000e+00 -5.285129e-06 3.076251e-05 0.000000e+00 0.000000e+00 0.000000e+00 0.000000e+00 8.473624e-05 -6.113850e-06 0.000000e+00 -6.113850e-06 3.596473e-05 0.000000e+00 0.000000e+00 0.000000e+00 0.000000e+00 9.126061e-05 -6.896383e-06 0.000000e+00 -6.896383e-06 4.220162e-05 0.000000e+00 0.000000e+00 0.000000e+00 0.000000e+00 9.879144e-05 -8.329881e-06 0.000000e+00 -8.329881e-06 4.978455e-05 0.000000e+00 0.000000e+00 0.000000e+00 0.000000e+00 1.076602e-04 -1.134484e-05 0.000000e+00 -1.134484e-05 5.864935e-05 0.000000e+00 0.000000e+00 0.000000e+00 0.000000e+00 1.191023e-04 -1.649731e-05 0.000000e+00 -1.649731e-05 7.007556e-05 0.000000e+00 0.000000e+00 0.000000e+00 0.000000e+00 1.341127e-04 -2.607791e-05 0.000000e+00 -2.607791e-05 8.657946e-05 0.000000e+00 0.000000e+00 0.000000e+00 0.000000e+00 1.515142e-04 -4.380794e-05 0.000000e+00 -4.380794e-05 1.149536e-04 0.000000e+00 0.000000e+00 0.000000e+00 0.000000e+00 1.613904e-04 -7.322710e-05 0.000000e+00 -7.322710e-05 1.763445e-04 0.000000e+00 0.000000e+00 0.000000e+00 0.000000e+00 2.235710e-05 -7.724696e-06 0.000000e+00 -7.724696e-06 -9.473292e-05 0.000000e+00 0.000000e+00 0.000000e+00 0.000000e+00 2.284083e-05 -3.093012e-06 0.000000e+00 -3.093012e-06 -8.355502e-05 0.000000e+00 0.000000e+00 0.000000e+00 0.000000e+00 2.324347e-05 -1.987897e-06 0.000000e+00 -1.987897e-06 -7.512377e-05 0.000000e+00 0.000000e+00 0.000000e+00 0.000000e+00 2.318700e-05 -1.783463e-06 0.000000e+00 -1.783463e-06 -6.734561e-05 0.000000e+00 0.000000e+00 0.000000e+00 0.000000e+00 2.310889e-05 -1.871300e-06 0.000000e+00 -1.871300e-06 -5.996570e-05 0.000000e+00 0.000000e+00 0.000000e+00 0.000000e+00 2.362074e-05 -2.058835e-06 0.000000e+00 -2.058835e-06 -5.319933e-05 0.000000e+00 0.000000e+00 0.000000e+00 0.000000e+00 2.450395e-05 -2.045356e-06 0.000000e+00 -2.045356e-06 -4.713312e-05 0.000000e+00 0.000000e+00 0.000000e+00 0.000000e+00 2.568401e-05 -2.214838e-06 0.000000e+00 -2.214838e-06 -4.137902e-05 0.000000e+00 0.000000e+00 0.000000e+00 0.000000e+00 2.725882e-05 -2.350245e-06 0.000000e+00 -2.350245e-06 -3.598497e-05 0.000000e+00 0.000000e+00 0.000000e+00 0.000000e+00 2.910761e-05 -2.745373e-06 0.000000e+00 -2.745373e-06 -3.094415e-05 0.000000e+00 0.000000e+00 0.000000e+00 0.000000e+00 3.148784e-05 -3.043171e-06 0.000000e+00 -3.043171e-06 -2.605017e-05 0.000000e+00 0.000000e+00 0.000000e+00 0.000000e+00 3.414727e-05 -3.197889e-06 0.000000e+00 -3.197889e-06 -2.142311e-05 0.000000e+00 0.000000e+00 0.000000e+00 0.000000e+00 3.718377e-05 -3.614872e-06 0.000000e+00 -3.614872e-06 -1.698767e-05 0.000000e+00 0.000000e+00 0.000000e+00 0.000000e+00 4.058794e-05 -3.886196e-06 0.000000e+00 -3.886196e-06 -1.227473e-05 0.000000e+00 0.000000e+00 0.000000e+00 0.000000e+00 4.433281e-05 -3.992255e-06 0.000000e+00 -3.992255e-06 -7.452803e-06 0.000000e+00 0.000000e+00 0.000000e+00 0.000000e+00 4.839196e-05 -4.606011e-06 0.000000e+00 -4.606011e-06 -2.227928e-06 0.000000e+00 0.000000e+00 0.000000e+00 0.000000e+00 5.302483e-05 -5.274723e-06 0.000000e+00 -5.274723e-06 3.476314e-06 0.000000e+00 0.000000e+00 0.000000e+00 0.000000e+00 5.832632e-05 -6.017999e-06 0.000000e+00 -6.017999e-06 9.404815e-06 0.000000e+00 0.000000e+00 0.000000e+00 0.000000e+00 6.474298e-05 -6.042451e-06 0.000000e+00 -6.042451e-06 1.631705e-05 0.000000e+00 0.000000e+00 0.000000e+00 0.000000e+00 7.126595e-05 -8.050953e-06 0.000000e+00 -8.050953e-06 2.442000e-05 0.000000e+00 0.000000e+00 0.000000e+00 0.000000e+00 7.985632e-05 -1.068220e-05 0.000000e+00 -1.068220e-05 3.450049e-05 0.000000e+00 0.000000e+00 0.000000e+00 0.000000e+00 9.209028e-05 -1.275527e-05 0.000000e+00 -1.275527e-05 4.722709e-05 0.000000e+00 0.000000e+00 0.000000e+00 0.000000e+00 1.046395e-04 -2.106665e-05 0.000000e+00 -2.106665e-05 6.757306e-05 0.000000e+00 0.000000e+00 0.000000e+00 0.000000e+00 1.136131e-04 -3.792265e-05 0.000000e+00 -3.792265e-05 1.089550e-04 0.000000e+00 0.000000e+00 0.000000e+00 0.000000e+00 7.435682e-05 -1.410262e-05 0.000000e+00 -1.410262e-05 2.190713e-04 0.000000e+00 0.000000e+00 0.000000e+00 0.000000e+00 4.480241e-05 8.444392e-06 0.000000e+00 8.444392e-06 -1.159168e-05 0.000000e+00 0.000000e+00 0.000000e+00 0.000000e+00 3.303509e-05 5.920883e-06 0.000000e+00 5.920883e-06 -9.788155e-06 0.000000e+00 0.000000e+00 0.000000e+00 0.000000e+00 2.492719e-05 5.972046e-06 0.000000e+00 5.972046e-06 -7.707723e-06 0.000000e+00 0.000000e+00 0.000000e+00 0.000000e+00 1.762587e-05 6.935936e-06 0.000000e+00 6.935936e-06 -5.130311e-06 0.000000e+00 0.000000e+00 0.000000e+00 0.000000e+00 2.047196e-05 9.297037e-06 0.000000e+00 9.297037e-06 -4.621452e-06 0.000000e+00 0.000000e+00 0.000000e+00 0.000000e+00 1.910555e-05 9.600989e-06 0.000000e+00 9.600989e-06 -3.288434e-06 0.000000e+00 0.000000e+00 0.000000e+00 0.000000e+00 8.054282e-06 7.929913e-06 0.000000e+00 7.929913e-06 -1.695226e-06 0.000000e+00 0.000000e+00 0.000000e+00 0.000000e+00 -2.566463e-06 2.292674e-06 0.000000e+00 2.292674e-06 1.833677e-06 0.000000e+00 0.000000e+00 0.000000e+00 0.000000e+00 -2.644731e-06 -1.568789e-06 0.000000e+00 -1.568789e-06 1.091876e-06 0.000000e+00 0.000000e+00 0.000000e+00 0.000000e+00 2.256771e-07 -1.147614e-06 0.000000e+00 -1.147614e-06 -9.982614e-07 0.000000e+00 0.000000e+00 0.000000e+00 0.000000e+00 1.294056e-06 5.238841e-07 0.000000e+00 5.238841e-07 -2.300283e-06 0.000000e+00 0.000000e+00 0.000000e+00 0.000000e+00 4.484461e-08 1.633869e-06 0.000000e+00 1.633869e-06 -3.931615e-07 0.000000e+00 0.000000e+00 0.000000e+00 0.000000e+00 -6.991786e-07 4.057655e-07 0.000000e+00 4.057655e-07 1.088046e-06 0.000000e+00 0.000000e+00 0.000000e+00 0.000000e+00 -3.078291e-07 -6.114382e-07 0.000000e+00 -6.114382e-07 4.248974e-07 0.000000e+00 0.000000e+00 0.000000e+00 0.000000e+00 3.367976e-07 -5.651983e-07 0.000000e+00 -5.651983e-07 -1.213181e-07 0.000000e+00 0.000000e+00 0.000000e+00 0.000000e+00 5.610654e-07 3.001524e-07 0.000000e+00 3.001524e-07 -8.831238e-07 0.000000e+00 0.000000e+00 0.000000e+00 0.000000e+00 -3.960874e-06 4.679297e-06 0.000000e+00 4.679297e-06 1.352428e-07 0.000000e+00 0.000000e+00 0.000000e+00 0.000000e+00 -1.608231e-05 9.307534e-06 0.000000e+00 9.307534e-06 4.343910e-06 0.000000e+00 0.000000e+00 0.000000e+00 0.000000e+00 -3.110519e-05 9.451973e-06 0.000000e+00 9.451973e-06 1.006184e-05 0.000000e+00 0.000000e+00 0.000000e+00 0.000000e+00 -4.074683e-05 2.700339e-06 0.000000e+00 2.700339e-06 1.473488e-05 0.000000e+00 0.000000e+00 0.000000e+00 0.000000e+00 -3.235372e-05 -1.127523e-05 0.000000e+00 -1.127523e-05 1.202727e-05 0.000000e+00 0.000000e+00 0.000000e+00 0.000000e+00 -1.839104e-05 -1.391160e-05 0.000000e+00 -1.391160e-05 5.046761e-06 0.000000e+00 0.000000e+00 0.000000e+00 0.000000e+00 -4.867873e-06 -9.771413e-06 0.000000e+00 -9.771413e-06 -3.025991e-06 0.000000e+00 0.000000e+00 0.000000e+00 0.000000e+00 3.093522e-06 -1.345334e-05 0.000000e+00 -1.345334e-05 -1.592062e-05 0.000000e+00 0.000000e+00 0.000000e+00 0.000000e+00 1.740263e-06 2.438951e-06 0.000000e+00 2.438951e-06 -1.995459e-06 0.000000e+00 0.000000e+00 0.000000e+00 0.000000e+00 2.953645e-06 9.711960e-07 0.000000e+00 9.711960e-07 -2.303061e-06 0.000000e+00 0.000000e+00 0.000000e+00 0.000000e+00 3.223705e-06 -8.888649e-07 0.000000e+00 -8.888649e-07 -1.728595e-06 0.000000e+00 0.000000e+00 0.000000e+00 0.000000e+00 2.503315e-06 -2.200916e-06 0.000000e+00 -2.200916e-06 3.692412e-08 0.000000e+00 0.000000e+00 0.000000e+00 0.000000e+00 6.363554e-07 -1.843949e-06 0.000000e+00 -1.843949e-06 2.400563e-06 0.000000e+00 0.000000e+00 0.000000e+00 0.000000e+00 -9.516430e-07 6.060455e-07 0.000000e+00 6.060455e-07 4.337836e-06 0.000000e+00 0.000000e+00 0.000000e+00 0.000000e+00 -1.017867e-06 4.712562e-06 0.000000e+00 4.712562e-06 5.341269e-06 0.000000e+00 0.000000e+00 0.000000e+00 0.000000e+00 4.170530e-07 9.775462e-06 0.000000e+00 9.775462e-06 5.066279e-06 0.000000e+00 0.000000e+00 0.000000e+00 0.000000e+00 3.400382e-06 1.492588e-05 0.000000e+00 1.492588e-05 3.493827e-06 0.000000e+00 0.000000e+00 0.000000e+00 0.000000e+00 7.337884e-06 1.879623e-05 0.000000e+00 1.879623e-05 1.279955e-06 0.000000e+00 0.000000e+00 0.000000e+00 0.000000e+00 1.015051e-05 2.117724e-05 0.000000e+00 2.117724e-05 -1.071550e-06 0.000000e+00 0.000000e+00 0.000000e+00 0.000000e+00 1.095604e-05 2.228897e-05 0.000000e+00 2.228897e-05 -2.653147e-06 0.000000e+00 0.000000e+00 0.000000e+00 0.000000e+00 9.632280e-06 2.278204e-05 0.000000e+00 2.278204e-05 -2.959951e-06 0.000000e+00 0.000000e+00 0.000000e+00 0.000000e+00 6.516249e-06 2.293627e-05 0.000000e+00 2.293627e-05 -2.107145e-06 0.000000e+00 0.000000e+00 0.000000e+00 0.000000e+00 2.233698e-06 2.337236e-05 0.000000e+00 2.337236e-05 -6.208891e-07 0.000000e+00 0.000000e+00 0.000000e+00 0.000000e+00 -1.816451e-06 2.423911e-05 0.000000e+00 2.423911e-05 4.081864e-07 0.000000e+00 0.000000e+00 0.000000e+00 0.000000e+00 -4.113830e-06 2.503826e-05 0.000000e+00 2.503826e-05 -1.528392e-07 0.000000e+00 0.000000e+00 0.000000e+00 0.000000e+00 -4.230029e-06 2.475913e-05 0.000000e+00 2.475913e-05 -2.420856e-06 0.000000e+00 0.000000e+00 0.000000e+00 0.000000e+00 -2.629426e-06 2.273858e-05 0.000000e+00 2.273858e-05 -5.253926e-06 0.000000e+00 0.000000e+00 0.000000e+00 0.000000e+00 -4.562850e-07 1.902028e-05 0.000000e+00 1.902028e-05 -7.642891e-06 0.000000e+00 0.000000e+00 0.000000e+00 0.000000e+00 1.651698e-06 1.460231e-05 0.000000e+00 1.460231e-05 -9.419450e-06 0.000000e+00 0.000000e+00 0.000000e+00 0.000000e+00 3.012873e-06 9.503950e-06 0.000000e+00 9.503950e-06 -1.030487e-05 0.000000e+00 0.000000e+00 0.000000e+00 0.000000e+00 2.787175e-06 4.720687e-06 0.000000e+00 4.720687e-06 -9.300092e-06 0.000000e+00 0.000000e+00 0.000000e+00 0.000000e+00 1.223648e-06 1.393635e-06 0.000000e+00 1.393635e-06 -6.737313e-06 0.000000e+00 0.000000e+00 0.000000e+00 0.000000e+00 -4.166755e-07 4.723109e-07 0.000000e+00 4.723109e-07 -3.894958e-06 0.000000e+00 0.000000e+00 0.000000e+00 0.000000e+00 -1.150951e-06 1.233313e-06 0.000000e+00 1.233313e-06 -2.015474e-06 0.000000e+00 0.000000e+00 0.000000e+00 0.000000e+00 -7.798763e-07 2.285901e-06 0.000000e+00 2.285901e-06 -1.250304e-06 0.000000e+00 0.000000e+00 0.000000e+00 0.000000e+00 3.078357e-07 2.869114e-06 0.000000e+00 2.869114e-06 -1.415720e-06 0.000000e+00 0.000000e+00 0.000000e+00 0.000000e+00 2.233933e-05 -4.795771e-06 0.000000e+00 -4.795771e-06 -8.808522e-05 0.000000e+00 0.000000e+00 0.000000e+00 0.000000e+00 2.317019e-05 -2.349389e-06 0.000000e+00 -2.349389e-06 -7.925287e-05 0.000000e+00 0.000000e+00 0.000000e+00 0.000000e+00 2.322182e-05 -1.875053e-06 0.000000e+00 -1.875053e-06 -7.120216e-05 0.000000e+00 0.000000e+00 0.000000e+00 0.000000e+00 2.311307e-05 -1.786519e-06 0.000000e+00 -1.786519e-06 -6.361092e-05 0.000000e+00 0.000000e+00 0.000000e+00 0.000000e+00 2.331488e-05 -1.995892e-06 0.000000e+00 -1.995892e-06 -5.652947e-05 0.000000e+00 0.000000e+00 0.000000e+00 0.000000e+00 2.406946e-05 -2.054724e-06 0.000000e+00 -2.054724e-06 -5.012117e-05 0.000000e+00 0.000000e+00 0.000000e+00 0.000000e+00 2.500532e-05 -2.125756e-06 0.000000e+00 -2.125756e-06 -4.421162e-05 0.000000e+00 0.000000e+00 0.000000e+00 0.000000e+00 2.641912e-05 -2.332337e-06 0.000000e+00 -2.332337e-06 -3.865397e-05 0.000000e+00 0.000000e+00 0.000000e+00 0.000000e+00 2.816506e-05 -2.542430e-06 0.000000e+00 -2.542430e-06 -3.340026e-05 0.000000e+00 0.000000e+00 0.000000e+00 0.000000e+00 3.024094e-05 -2.947138e-06 0.000000e+00 -2.947138e-06 -2.849120e-05 0.000000e+00 0.000000e+00 0.000000e+00 0.000000e+00 3.277783e-05 -3.104998e-06 0.000000e+00 -3.104998e-06 -2.369414e-05 0.000000e+00 0.000000e+00 0.000000e+00 0.000000e+00 3.560431e-05 -3.429319e-06 0.000000e+00 -3.429319e-06 -1.918839e-05 0.000000e+00 0.000000e+00 0.000000e+00 0.000000e+00 3.880754e-05 -3.771784e-06 0.000000e+00 -3.771784e-06 -1.462651e-05 0.000000e+00 0.000000e+00 0.000000e+00 0.000000e+00 4.250415e-05 -3.831984e-06 0.000000e+00 -3.831984e-06 -9.909780e-06 0.000000e+00 0.000000e+00 0.000000e+00 0.000000e+00 4.630054e-05 -4.271330e-06 0.000000e+00 -4.271330e-06 -4.962327e-06 0.000000e+00 0.000000e+00 0.000000e+00 0.000000e+00 5.068068e-05 -4.929484e-06 0.000000e+00 -4.929484e-06 6.756059e-07 0.000000e+00 0.000000e+00 0.000000e+00 0.000000e+00 5.561623e-05 -5.707947e-06 0.000000e+00 -5.707947e-06 6.335869e-06 0.000000e+00 0.000000e+00 0.000000e+00 0.000000e+00 6.138939e-05 -6.114047e-06 0.000000e+00 -6.114047e-06 1.275335e-05 0.000000e+00 0.000000e+00 0.000000e+00 0.000000e+00 6.782221e-05 -6.764040e-06 0.000000e+00 -6.764040e-06 2.021405e-05 0.000000e+00 0.000000e+00 0.000000e+00 0.000000e+00 7.533022e-05 -9.370967e-06 0.000000e+00 -9.370967e-06 2.929717e-05 0.000000e+00 0.000000e+00 0.000000e+00 0.000000e+00 8.537471e-05 -1.178245e-05 0.000000e+00 -1.178245e-05 4.035145e-05 0.000000e+00 0.000000e+00 0.000000e+00 0.000000e+00 9.829699e-05 -1.580554e-05 0.000000e+00 -1.580554e-05 5.618042e-05 0.000000e+00 0.000000e+00 0.000000e+00 0.000000e+00 1.108076e-04 -2.819223e-05 0.000000e+00 -2.819223e-05 8.368283e-05 0.000000e+00 0.000000e+00 0.000000e+00 0.000000e+00 1.066431e-04 -4.563102e-05 0.000000e+00 -4.563102e-05 1.506450e-04 0.000000e+00 0.000000e+00 0.000000e+00 0.000000e+00 5.459707e-05 1.302110e-05 0.000000e+00 1.302110e-05 -1.553366e-05 0.000000e+00 0.000000e+00 0.000000e+00 0.000000e+00 3.824575e-05 6.563368e-06 0.000000e+00 6.563368e-06 -1.091997e-05 0.000000e+00 0.000000e+00 0.000000e+00 0.000000e+00 2.873552e-05 5.823758e-06 0.000000e+00 5.823758e-06 -8.665313e-06 0.000000e+00 0.000000e+00 0.000000e+00 0.000000e+00 2.141293e-05 6.344451e-06 0.000000e+00 6.344451e-06 -6.847232e-06 0.000000e+00 0.000000e+00 0.000000e+00 0.000000e+00 1.819084e-05 1.022644e-05 0.000000e+00 1.022644e-05 -3.026054e-06 0.000000e+00 0.000000e+00 0.000000e+00 0.000000e+00 1.398991e-05 8.806134e-06 0.000000e+00 8.806134e-06 -3.286600e-06 0.000000e+00 0.000000e+00 0.000000e+00 0.000000e+00 2.028556e-06 5.944883e-06 0.000000e+00 5.944883e-06 5.383012e-07 0.000000e+00 0.000000e+00 0.000000e+00 0.000000e+00 -3.728616e-06 -2.130470e-07 0.000000e+00 -2.130470e-07 1.919373e-06 0.000000e+00 0.000000e+00 0.000000e+00 0.000000e+00 -9.876908e-07 -1.714993e-06 0.000000e+00 -1.714993e-06 -8.194846e-09 0.000000e+00 0.000000e+00 0.000000e+00 0.000000e+00 1.187949e-06 -6.242480e-07 0.000000e+00 -6.242480e-07 -2.150860e-06 0.000000e+00 0.000000e+00 0.000000e+00 0.000000e+00 7.678199e-07 1.374048e-06 0.000000e+00 1.374048e-06 -1.542498e-06 0.000000e+00 0.000000e+00 0.000000e+00 0.000000e+00 -5.540626e-07 1.205291e-06 0.000000e+00 1.205291e-06 5.052194e-07 0.000000e+00 0.000000e+00 0.000000e+00 0.000000e+00 -6.180947e-07 -2.237415e-07 0.000000e+00 -2.237415e-07 9.041212e-07 0.000000e+00 0.000000e+00 0.000000e+00 0.000000e+00 -2.338295e-05 1.018752e-05 0.000000e+00 1.018752e-05 7.007443e-06 0.000000e+00 0.000000e+00 0.000000e+00 0.000000e+00 -6.703996e-07 2.265928e-06 0.000000e+00 2.265928e-06 -8.460230e-07 0.000000e+00 0.000000e+00 0.000000e+00 0.000000e+00 -9.272168e-06 7.183956e-06 0.000000e+00 7.183956e-06 1.832873e-06 0.000000e+00 0.000000e+00 0.000000e+00 0.000000e+00 -3.722270e-05 7.139232e-06 0.000000e+00 7.139232e-06 1.267324e-05 0.000000e+00 0.000000e+00 0.000000e+00 0.000000e+00 -3.863508e-05 -5.173857e-06 0.000000e+00 -5.173857e-06 1.525785e-05 0.000000e+00 0.000000e+00 0.000000e+00 0.000000e+00 8.006442e-06 -1.538390e-05 0.000000e+00 -1.538390e-05 -2.885088e-05 0.000000e+00 0.000000e+00 0.000000e+00 0.000000e+00 2.405587e-05 -3.438323e-06 0.000000e+00 -3.438323e-06 -7.371201e-05 0.000000e+00 0.000000e+00 0.000000e+00 0.000000e+00 2.332172e-05 -3.395223e-06 0.000000e+00 -3.395223e-06 -6.564202e-05 0.000000e+00 0.000000e+00 0.000000e+00 0.000000e+00 2.502577e-05 -4.735462e-06 0.000000e+00 -4.735462e-06 -4.244869e-05 0.000000e+00 0.000000e+00 0.000000e+00 0.000000e+00 2.426722e-05 -4.153787e-06 0.000000e+00 -4.153787e-06 -4.864288e-05 0.000000e+00 0.000000e+00 0.000000e+00 0.000000e+00 2.354771e-05 -3.427918e-06 0.000000e+00 -3.427918e-06 -6.954865e-05 0.000000e+00 0.000000e+00 0.000000e+00 0.000000e+00 2.454253e-05 -4.288865e-06 0.000000e+00 -4.288865e-06 -4.542981e-05 0.000000e+00 0.000000e+00 0.000000e+00 0.000000e+00 2.381184e-05 -4.333283e-06 0.000000e+00 -4.333283e-06 -5.158084e-05 0.000000e+00 0.000000e+00 0.000000e+00 0.000000e+00 3.299354e-05 -6.194762e-06 0.000000e+00 -6.194762e-06 -2.236399e-05 0.000000e+00 0.000000e+00 0.000000e+00 0.000000e+00 3.052504e-05 -6.124210e-06 0.000000e+00 -6.124210e-06 -2.716765e-05 0.000000e+00 0.000000e+00 0.000000e+00 0.000000e+00 8.644655e-05 -3.015719e-05 0.000000e+00 -3.015719e-05 6.722018e-05 0.000000e+00 0.000000e+00 0.000000e+00 0.000000e+00 3.190151e-05 -6.158688e-06 0.000000e+00 -6.158688e-06 -2.481523e-05 0.000000e+00 0.000000e+00 0.000000e+00 0.000000e+00 2.931790e-05 -5.928562e-06 0.000000e+00 -5.928562e-06 -2.961073e-05 0.000000e+00 0.000000e+00 0.000000e+00 0.000000e+00 3.904722e-05 -7.747962e-06 0.000000e+00 -7.747962e-06 -1.310627e-05 0.000000e+00 0.000000e+00 0.000000e+00 0.000000e+00 4.286152e-05 -7.903836e-06 0.000000e+00 -7.903836e-06 -8.386438e-06 0.000000e+00 0.000000e+00 0.000000e+00 0.000000e+00 4.082743e-05 -7.899944e-06 0.000000e+00 -7.899944e-06 -1.078829e-05 0.000000e+00 0.000000e+00 0.000000e+00 0.000000e+00 3.724753e-05 -7.517182e-06 0.000000e+00 -7.517182e-06 -1.550256e-05 0.000000e+00 0.000000e+00 0.000000e+00 0.000000e+00 4.855690e-05 -9.797575e-06 0.000000e+00 -9.797575e-06 -2.735166e-07 0.000000e+00 0.000000e+00 0.000000e+00 0.000000e+00 6.127655e-05 -1.246529e-05 0.000000e+00 -1.246529e-05 1.611350e-05 0.000000e+00 0.000000e+00 0.000000e+00 0.000000e+00 5.309731e-05 -1.087096e-05 0.000000e+00 -1.087096e-05 5.917197e-06 0.000000e+00 0.000000e+00 0.000000e+00 0.000000e+00 5.793000e-05 -1.222621e-05 0.000000e+00 -1.222621e-05 1.272421e-05 0.000000e+00 0.000000e+00 0.000000e+00 0.000000e+00 8.019210e-05 -2.322264e-05 0.000000e+00 -2.322264e-05 4.878634e-05 0.000000e+00 0.000000e+00 0.000000e+00 0.000000e+00 7.234200e-05 -1.898379e-05 0.000000e+00 -1.898379e-05 3.472530e-05 0.000000e+00 0.000000e+00 0.000000e+00 0.000000e+00 5.520926e-05 -1.170158e-05 0.000000e+00 -1.170158e-05 9.217609e-06 0.000000e+00 0.000000e+00 0.000000e+00 0.000000e+00 7.568415e-05 -2.139041e-05 0.000000e+00 -2.139041e-05 4.145444e-05 0.000000e+00 0.000000e+00 0.000000e+00 0.000000e+00 6.907743e-05 -1.659101e-05 0.000000e+00 -1.659101e-05 2.853770e-05 0.000000e+00 0.000000e+00 0.000000e+00 0.000000e+00 8.746531e-05 -2.469197e-05 0.000000e+00 -2.469197e-05 5.525351e-05 0.000000e+00 0.000000e+00 0.000000e+00 0.000000e+00 3.626218e-05 1.346730e-05 0.000000e+00 1.346730e-05 -9.210869e-06 0.000000e+00 0.000000e+00 0.000000e+00 0.000000e+00 4.049617e-05 -1.537859e-05 0.000000e+00 -1.537859e-05 1.816932e-04 0.000000e+00 0.000000e+00 0.000000e+00 0.000000e+00 2.743201e-05 1.053909e-05 0.000000e+00 1.053909e-05 -8.245388e-06 0.000000e+00 0.000000e+00 0.000000e+00 0.000000e+00 4.251761e-05 1.734547e-05 0.000000e+00 1.734547e-05 -8.763693e-06 0.000000e+00 0.000000e+00 0.000000e+00 0.000000e+00 5.009848e-05 2.661128e-05 0.000000e+00 2.661128e-05 -5.922955e-06 0.000000e+00 0.000000e+00 0.000000e+00 0.000000e+00 6.630607e-05 -3.916800e-05 0.000000e+00 -3.916800e-05 1.412253e-04 0.000000e+00 0.000000e+00 0.000000e+00 0.000000e+00 3.132006e-05 1.158683e-05 0.000000e+00 1.158683e-05 -8.769740e-06 0.000000e+00 0.000000e+00 0.000000e+00 0.000000e+00 8.208145e-05 4.177970e-05 0.000000e+00 4.177970e-05 -1.691020e-05 0.000000e+00 0.000000e+00 0.000000e+00 0.000000e+00 1.114840e-05 1.380920e-05 0.000000e+00 1.380920e-05 -1.669679e-06 0.000000e+00 0.000000e+00 0.000000e+00 0.000000e+00 2.208016e-05 9.242685e-06 0.000000e+00 9.242685e-06 -6.902624e-06 0.000000e+00 0.000000e+00 0.000000e+00 0.000000e+00 1.480144e-05 1.273953e-05 0.000000e+00 1.273953e-05 -2.262236e-06 0.000000e+00 0.000000e+00 0.000000e+00 0.000000e+00 -3.035757e-07 -8.283308e-08 0.000000e+00 -8.283308e-08 -1.038765e-06 0.000000e+00 0.000000e+00 0.000000e+00 0.000000e+00 6.650016e-06 1.332338e-05 0.000000e+00 1.332338e-05 2.981476e-07 0.000000e+00 0.000000e+00 0.000000e+00 0.000000e+00 -8.376856e-07 9.276957e-07 0.000000e+00 9.276957e-07 -1.479304e-07 0.000000e+00 0.000000e+00 0.000000e+00 0.000000e+00 1.649387e-06 1.436492e-06 0.000000e+00 1.436492e-06 -2.024993e-06 0.000000e+00 0.000000e+00 0.000000e+00 0.000000e+00 -1.047423e-06 -1.291096e-06 0.000000e+00 -1.291096e-06 1.745264e-06 0.000000e+00 0.000000e+00 0.000000e+00 0.000000e+00 6.529032e-10 -2.299364e-06 0.000000e+00 -2.299364e-06 -8.356977e-09 0.000000e+00 0.000000e+00 0.000000e+00 0.000000e+00 2.487064e-05 -4.419839e-06 0.000000e+00 -4.419839e-06 -8.249637e-05 0.000000e+00 0.000000e+00 0.000000e+00 0.000000e+00 9.763564e-07 -1.714847e-06 0.000000e+00 -1.714847e-06 -1.212393e-06 0.000000e+00 0.000000e+00 0.000000e+00 0.000000e+00 2.056112e-06 -3.349914e-07 0.000000e+00 -3.349914e-07 -2.015072e-06 0.000000e+00 0.000000e+00 0.000000e+00 0.000000e+00 -1.026540e-05 1.371995e-05 0.000000e+00 1.371995e-05 1.616399e-06 0.000000e+00 0.000000e+00 0.000000e+00 0.000000e+00 -6.552854e-07 2.438961e-07 0.000000e+00 2.438961e-07 -5.530536e-07 0.000000e+00 0.000000e+00 0.000000e+00 0.000000e+00 -5.642611e-06 1.018592e-05 0.000000e+00 1.018592e-05 -4.039889e-07 0.000000e+00 0.000000e+00 0.000000e+00 0.000000e+00 -1.501503e-05 1.670758e-05 0.000000e+00 1.670758e-05 4.151657e-06 0.000000e+00 0.000000e+00 0.000000e+00 0.000000e+00 -1.468737e-08 5.717895e-08 0.000000e+00 5.717895e-08 -1.008647e-06 0.000000e+00 0.000000e+00 0.000000e+00 0.000000e+00 -2.495975e-05 1.403213e-05 0.000000e+00 1.403213e-05 1.023845e-05 0.000000e+00 0.000000e+00 0.000000e+00 0.000000e+00 -2.751768e-05 -1.548774e-05 0.000000e+00 -1.548774e-05 1.592635e-05 0.000000e+00 0.000000e+00 0.000000e+00 0.000000e+00 -2.158172e-06 6.241751e-06 0.000000e+00 6.241751e-06 -1.704348e-06 0.000000e+00 0.000000e+00 0.000000e+00 0.000000e+00 -2.044252e-05 1.638785e-05 0.000000e+00 1.638785e-05 7.268689e-06 0.000000e+00 0.000000e+00 0.000000e+00 0.000000e+00 -2.016932e-05 -2.189568e-05 0.000000e+00 -2.189568e-05 9.264290e-06 0.000000e+00 0.000000e+00 0.000000e+00 0.000000e+00 1.979331e-06 -2.432934e-05 0.000000e+00 -2.432934e-05 -1.650375e-05 0.000000e+00 0.000000e+00 0.000000e+00 0.000000e+00 -1.085616e-05 -2.284956e-05 0.000000e+00 -2.284956e-05 5.163883e-07 0.000000e+00 0.000000e+00 0.000000e+00 0.000000e+00 2.442897e-05 -3.676092e-06 0.000000e+00 -3.676092e-06 -7.794798e-05 0.000000e+00 0.000000e+00 0.000000e+00 0.000000e+00 5.089376e-05 -1.015378e-05 0.000000e+00 -1.015378e-05 2.665715e-06 0.000000e+00 0.000000e+00 0.000000e+00 0.000000e+00 4.936345e-05 7.865373e-05 0.000000e+00 7.865373e-05 1.730353e-04 0.000000e+00 0.000000e+00 0.000000e+00 0.000000e+00 -2.937815e-07 2.556917e-06 0.000000e+00 2.556917e-06 -2.126694e-06 0.000000e+00 0.000000e+00 0.000000e+00 0.000000e+00 1.402959e-05 -1.176398e-05 0.000000e+00 -1.176398e-05 -4.466642e-05 0.000000e+00 0.000000e+00 0.000000e+00 0.000000e+00 2.657056e-05 -4.822859e-06 0.000000e+00 -4.822859e-06 -3.718756e-05 0.000000e+00 0.000000e+00 0.000000e+00 0.000000e+00 2.007902e-06 -1.932193e-06 0.000000e+00 -1.932193e-06 -1.056199e-06 0.000000e+00 0.000000e+00 0.000000e+00 0.000000e+00 9.775629e-07 -2.426757e-06 0.000000e+00 -2.426757e-06 6.087706e-07 0.000000e+00 0.000000e+00 0.000000e+00 0.000000e+00 -1.571846e-06 1.566916e-06 0.000000e+00 1.566916e-06 2.813645e-06 0.000000e+00 0.000000e+00 0.000000e+00 0.000000e+00 2.625300e-06 1.015195e-05 0.000000e+00 1.015195e-05 2.314228e-06 0.000000e+00 0.000000e+00 0.000000e+00 0.000000e+00 1.026656e-05 1.798985e-05 0.000000e+00 1.798985e-05 -9.728964e-07 0.000000e+00 0.000000e+00 0.000000e+00 0.000000e+00 1.200603e-05 2.163680e-05 0.000000e+00 2.163680e-05 -3.154857e-06 0.000000e+00 0.000000e+00 0.000000e+00 0.000000e+00 4.485666e-06 2.334876e-05 0.000000e+00 2.334876e-05 -5.934376e-07 0.000000e+00 0.000000e+00 0.000000e+00 0.000000e+00 -4.610805e-06 2.439512e-05 0.000000e+00 2.439512e-05 1.775117e-06 0.000000e+00 0.000000e+00 0.000000e+00 0.000000e+00 -6.532841e-06 2.398048e-05 0.000000e+00 2.398048e-05 8.463176e-07 0.000000e+00 0.000000e+00 0.000000e+00 0.000000e+00 -6.285878e-06 2.225591e-05 0.000000e+00 2.225591e-05 -1.245978e-06 0.000000e+00 0.000000e+00 0.000000e+00 0.000000e+00 -4.286857e-06 1.930931e-05 0.000000e+00 1.930931e-05 -3.532768e-06 0.000000e+00 0.000000e+00 0.000000e+00 0.000000e+00 3.718549e-07 1.071857e-05 0.000000e+00 1.071857e-05 -6.866892e-06 0.000000e+00 0.000000e+00 0.000000e+00 0.000000e+00 1.517481e-06 6.278293e-06 0.000000e+00 6.278293e-06 -7.092299e-06 0.000000e+00 0.000000e+00 0.000000e+00 0.000000e+00 1.009513e-06 2.443635e-06 0.000000e+00 2.443635e-06 -5.603466e-06 0.000000e+00 0.000000e+00 0.000000e+00 0.000000e+00 -8.808292e-07 7.496790e-07 0.000000e+00 7.496790e-07 -1.672005e-06 0.000000e+00 0.000000e+00 0.000000e+00 0.000000e+00 -8.496538e-07 1.597333e-06 0.000000e+00 1.597333e-06 -7.598162e-07 0.000000e+00 0.000000e+00 0.000000e+00 0.000000e+00 8.771306e-05 8.205164e-05 0.000000e+00 8.205164e-05 4.699766e-05 0.000000e+00 0.000000e+00 0.000000e+00 0.000000e+00 5.294716e-05 4.442788e-05 0.000000e+00 4.442788e-05 9.179509e-06 0.000000e+00 0.000000e+00 0.000000e+00 0.000000e+00 1.137290e-05 -2.164055e-05 0.000000e+00 -2.164055e-05 -3.524693e-05 0.000000e+00 0.000000e+00 0.000000e+00 0.000000e+00 5.574608e-05 6.798773e-05 0.000000e+00 6.798773e-05 3.853792e-05 0.000000e+00 0.000000e+00 0.000000e+00 0.000000e+00 2.801580e-05 -6.850895e-06 0.000000e+00 -6.850895e-06 -9.406608e-05 0.000000e+00 0.000000e+00 0.000000e+00 0.000000e+00 2.309060e-05 -4.005355e-06 0.000000e+00 -4.005355e-06 -5.808255e-05 0.000000e+00 0.000000e+00 0.000000e+00 0.000000e+00 3.437987e-05 -6.689503e-06 0.000000e+00 -6.689503e-06 -2.006200e-05 0.000000e+00 0.000000e+00 0.000000e+00 0.000000e+00 2.605004e-05 -4.916555e-06 0.000000e+00 -4.916555e-06 -3.999756e-05 0.000000e+00 0.000000e+00 0.000000e+00 0.000000e+00 4.429049e-05 -8.496334e-06 0.000000e+00 -8.496334e-06 -5.711143e-06 0.000000e+00 0.000000e+00 0.000000e+00 0.000000e+00 6.471292e-05 -1.186376e-05 0.000000e+00 -1.186376e-05 1.898918e-05 0.000000e+00 0.000000e+00 0.000000e+00 0.000000e+00 2.154812e-05 3.883310e-05 0.000000e+00 3.883310e-05 1.832757e-04 0.000000e+00 0.000000e+00 0.000000e+00 0.000000e+00 2.439129e-05 9.893211e-06 0.000000e+00 9.893211e-06 -7.760986e-06 0.000000e+00 0.000000e+00 0.000000e+00 0.000000e+00 8.590326e-05 -3.617175e-05 0.000000e+00 -3.617175e-05 8.403828e-05 0.000000e+00 0.000000e+00 0.000000e+00 0.000000e+00 -2.845421e-05 9.455758e-06 0.000000e+00 9.455758e-06 1.345719e-05 0.000000e+00 0.000000e+00 0.000000e+00 0.000000e+00 2.002274e-05 1.100544e-05 0.000000e+00 1.100544e-05 -5.172324e-06 0.000000e+00 0.000000e+00 0.000000e+00 0.000000e+00 1.337824e-05 -1.345178e-05 0.000000e+00 -1.345178e-05 -4.835449e-05 0.000000e+00 0.000000e+00 0.000000e+00 0.000000e+00 6.405284e-06 -2.559541e-05 0.000000e+00 -2.559541e-05 -2.401814e-05 0.000000e+00 0.000000e+00 0.000000e+00 0.000000e+00 2.305297e-05 -3.617022e-06 0.000000e+00 -3.617022e-06 -6.163176e-05 0.000000e+00 0.000000e+00 0.000000e+00 0.000000e+00 -2.856012e-05 -7.136742e-06 0.000000e+00 -7.136742e-06 1.803326e-05 0.000000e+00 0.000000e+00 0.000000e+00 0.000000e+00 4.087250e-05 7.292780e-05 0.000000e+00 7.292780e-05 1.017957e-04 0.000000e+00 0.000000e+00 0.000000e+00 0.000000e+00 -3.388987e-06 -2.141373e-05 0.000000e+00 -2.141373e-05 -7.411700e-06 0.000000e+00 0.000000e+00 0.000000e+00 0.000000e+00 6.650142e-07 2.384913e-06 0.000000e+00 2.384913e-06 -1.340234e-06 0.000000e+00 0.000000e+00 0.000000e+00 0.000000e+00 2.759517e-05 -5.009936e-06 0.000000e+00 -5.009936e-06 -3.460145e-05 0.000000e+00 0.000000e+00 0.000000e+00 0.000000e+00 -2.976223e-07 2.310632e-06 0.000000e+00 2.310632e-06 -6.538755e-07 0.000000e+00 0.000000e+00 0.000000e+00 0.000000e+00 -9.457248e-08 6.162403e-07 0.000000e+00 6.162403e-07 -3.098625e-06 0.000000e+00 0.000000e+00 0.000000e+00 0.000000e+00 -1.741268e-06 1.526684e-05 0.000000e+00 1.526684e-05 -5.469773e-06 0.000000e+00 0.000000e+00 0.000000e+00 0.000000e+00 -8.973131e-06 1.874623e-05 0.000000e+00 1.874623e-05 5.062369e-07 0.000000e+00 0.000000e+00 0.000000e+00 0.000000e+00 -6.024060e-07 2.396172e-05 0.000000e+00 2.396172e-05 1.111960e-06 0.000000e+00 0.000000e+00 0.000000e+00 0.000000e+00 9.174414e-06 2.267495e-05 0.000000e+00 2.267495e-05 -2.344980e-06 0.000000e+00 0.000000e+00 0.000000e+00 0.000000e+00 1.251081e-05 1.982952e-05 0.000000e+00 1.982952e-05 -2.642935e-06 0.000000e+00 0.000000e+00 0.000000e+00 0.000000e+00 -2.404255e-07 5.807236e-06 0.000000e+00 5.807236e-06 3.038124e-06 0.000000e+00 0.000000e+00 0.000000e+00 0.000000e+00 2.589314e-05 -5.627028e-06 0.000000e+00 -5.627028e-06 -8.781075e-05 0.000000e+00 0.000000e+00 0.000000e+00 0.000000e+00 2.335701e-05 -4.231926e-06 0.000000e+00 -4.231926e-06 -5.466957e-05 0.000000e+00 0.000000e+00 0.000000e+00 0.000000e+00 2.828556e-05 -5.495869e-06 0.000000e+00 -5.495869e-06 -3.199044e-05 0.000000e+00 0.000000e+00 0.000000e+00 0.000000e+00 3.576833e-05 -7.126314e-06 0.000000e+00 -7.126314e-06 -1.786168e-05 0.000000e+00 0.000000e+00 0.000000e+00 0.000000e+00 4.622020e-05 -9.266615e-06 0.000000e+00 -9.266615e-06 -2.995325e-06 0.000000e+00 0.000000e+00 0.000000e+00 0.000000e+00 6.649915e-05 -1.434107e-05 0.000000e+00 -1.434107e-05 2.320710e-05 0.000000e+00 0.000000e+00 0.000000e+00 0.000000e+00 8.019268e-05 -4.104807e-05 0.000000e+00 -4.104807e-05 1.084800e-04 0.000000e+00 0.000000e+00 0.000000e+00 0.000000e+00 -3.056696e-05 2.035704e-06 0.000000e+00 2.035704e-06 1.671865e-05 0.000000e+00 0.000000e+00 0.000000e+00 0.000000e+00 1.556091e-05 -1.705408e-05 0.000000e+00 -1.705408e-05 -4.978553e-05 0.000000e+00 0.000000e+00 0.000000e+00 0.000000e+00 1.257665e-05 -2.319779e-05 0.000000e+00 -2.319779e-05 -3.834481e-05 0.000000e+00 0.000000e+00 0.000000e+00 0.000000e+00 1.898378e-05 -6.921071e-06 0.000000e+00 -6.921071e-06 -6.427120e-05 0.000000e+00 0.000000e+00 0.000000e+00 0.000000e+00 1.611329e-05 -2.179659e-05 0.000000e+00 -2.179659e-05 -4.464812e-05 0.000000e+00 0.000000e+00 0.000000e+00 0.000000e+00 1.932747e-05 -1.475547e-05 0.000000e+00 -1.475547e-05 -5.791990e-05 0.000000e+00 0.000000e+00 0.000000e+00 0.000000e+00 2.439373e-05 -4.582015e-06 0.000000e+00 -4.582015e-06 -7.230080e-05 0.000000e+00 0.000000e+00 0.000000e+00 0.000000e+00 2.917577e-05 -9.450879e-06 0.000000e+00 -9.450879e-06 -2.803889e-05 0.000000e+00 0.000000e+00 0.000000e+00 0.000000e+00 6.348834e-05 -2.458409e-05 0.000000e+00 -2.458409e-05 3.435806e-05 0.000000e+00 0.000000e+00 0.000000e+00 0.000000e+00 3.695584e-05 -1.191978e-05 0.000000e+00 -1.191978e-05 -1.364798e-05 0.000000e+00 0.000000e+00 0.000000e+00 0.000000e+00 -2.145272e-05 9.760634e-06 0.000000e+00 9.760634e-06 1.756244e-05 0.000000e+00 0.000000e+00 0.000000e+00 0.000000e+00 5.693504e-05 -1.927696e-05 0.000000e+00 -1.927696e-05 1.752377e-05 0.000000e+00 0.000000e+00 0.000000e+00 0.000000e+00 3.057421e-05 1.880052e-05 0.000000e+00 1.880052e-05 -6.047765e-06 0.000000e+00 0.000000e+00 0.000000e+00 0.000000e+00 2.510429e-05 -8.115495e-06 0.000000e+00 -8.115495e-06 -4.054817e-05 0.000000e+00 0.000000e+00 0.000000e+00 0.000000e+00 3.439435e-05 2.273415e-05 0.000000e+00 2.273415e-05 -4.090600e-06 0.000000e+00 0.000000e+00 0.000000e+00 0.000000e+00 1.673729e-05 1.369409e-05 0.000000e+00 1.369409e-05 -3.440747e-06 0.000000e+00 0.000000e+00 0.000000e+00 0.000000e+00 2.474355e-05 1.405309e-05 0.000000e+00 1.405309e-05 -7.292690e-06 0.000000e+00 0.000000e+00 0.000000e+00 0.000000e+00 1.206967e-05 3.053678e-05 0.000000e+00 3.053678e-05 1.568950e-04 0.000000e+00 0.000000e+00 0.000000e+00 0.000000e+00 2.244160e-05 1.247554e-05 0.000000e+00 1.247554e-05 -6.795782e-06 0.000000e+00 0.000000e+00 0.000000e+00 0.000000e+00 3.880121e-05 2.887115e-05 0.000000e+00 2.887115e-05 -1.535135e-07 0.000000e+00 0.000000e+00 0.000000e+00 0.000000e+00 2.386224e-05 -1.241782e-05 0.000000e+00 -1.241782e-05 1.531048e-04 0.000000e+00 0.000000e+00 0.000000e+00 0.000000e+00 2.766256e-05 1.600814e-05 0.000000e+00 1.600814e-05 -7.020313e-06 0.000000e+00 0.000000e+00 0.000000e+00 0.000000e+00 2.449901e-05 5.837631e-05 0.000000e+00 5.837631e-05 8.516260e-05 0.000000e+00 0.000000e+00 0.000000e+00 0.000000e+00 -2.361462e-05 -1.311012e-05 0.000000e+00 -1.311012e-05 2.195963e-05 0.000000e+00 0.000000e+00 0.000000e+00 0.000000e+00 -5.539622e-06 1.517715e-05 0.000000e+00 1.517715e-05 -1.654817e-06 0.000000e+00 0.000000e+00 0.000000e+00 0.000000e+00 -1.818712e-05 1.627523e-05 0.000000e+00 1.627523e-05 1.215632e-05 0.000000e+00 0.000000e+00 0.000000e+00 0.000000e+00 7.864138e-06 -2.950238e-05 0.000000e+00 -2.950238e-05 -2.424798e-05 0.000000e+00 0.000000e+00 0.000000e+00 0.000000e+00 2.295986e-05 -5.574070e-06 0.000000e+00 -5.574070e-06 -6.003466e-05 0.000000e+00 0.000000e+00 0.000000e+00 0.000000e+00 2.364099e-05 -6.507873e-06 0.000000e+00 -6.507873e-06 -4.961874e-05 0.000000e+00 0.000000e+00 0.000000e+00 0.000000e+00 -1.263255e-05 -2.894282e-05 0.000000e+00 -2.894282e-05 5.584611e-06 0.000000e+00 0.000000e+00 0.000000e+00 0.000000e+00 1.332998e-05 1.657062e-05 0.000000e+00 1.657062e-05 -2.236089e-06 0.000000e+00 0.000000e+00 0.000000e+00 0.000000e+00 3.867869e-05 3.878205e-05 0.000000e+00 3.878205e-05 1.298066e-05 0.000000e+00 0.000000e+00 0.000000e+00 0.000000e+00 -2.493107e-06 1.100134e-05 0.000000e+00 1.100134e-05 -3.404629e-06 0.000000e+00 0.000000e+00 0.000000e+00 0.000000e+00 -4.384203e-06 2.406760e-05 0.000000e+00 2.406760e-05 3.199583e-06 0.000000e+00 0.000000e+00 0.000000e+00 0.000000e+00 7.350644e-06 2.321904e-05 0.000000e+00 2.321904e-05 -6.638633e-07 0.000000e+00 0.000000e+00 0.000000e+00 0.000000e+00 1.188493e-06 -3.062391e-05 0.000000e+00 -3.062391e-05 -1.339886e-05 0.000000e+00 0.000000e+00 0.000000e+00 0.000000e+00 -4.854314e-06 -2.869006e-05 0.000000e+00 -2.869006e-05 -4.805471e-06 0.000000e+00 0.000000e+00 0.000000e+00 0.000000e+00 1.401437e-05 1.991384e-05 0.000000e+00 1.991384e-05 -3.657717e-06 0.000000e+00 0.000000e+00 0.000000e+00 0.000000e+00 1.268155e-05 2.172557e-05 0.000000e+00 2.172557e-05 -2.836534e-06 0.000000e+00 0.000000e+00 0.000000e+00 0.000000e+00 1.211519e-06 2.396807e-05 0.000000e+00 2.396807e-05 1.582541e-06 0.000000e+00 0.000000e+00 0.000000e+00 0.000000e+00 -8.405542e-06 2.349287e-05 0.000000e+00 2.349287e-05 3.387042e-06 0.000000e+00 0.000000e+00 0.000000e+00 0.000000e+00 -9.926516e-06 2.143751e-05 0.000000e+00 2.143751e-05 2.185997e-06 0.000000e+00 0.000000e+00 0.000000e+00 0.000000e+00 -3.719927e-07 6.802019e-06 0.000000e+00 6.802019e-06 -4.474143e-06 0.000000e+00 0.000000e+00 0.000000e+00 0.000000e+00 5.234999e-07 3.640733e-06 0.000000e+00 3.640733e-06 -4.502335e-06 0.000000e+00 0.000000e+00 0.000000e+00 0.000000e+00 1.929528e-05 -1.881290e-05 0.000000e+00 -1.881290e-05 -5.196493e-05 0.000000e+00 0.000000e+00 0.000000e+00 0.000000e+00 1.269982e-05 -2.809198e-05 0.000000e+00 -2.809198e-05 -3.208092e-05 0.000000e+00 0.000000e+00 0.000000e+00 0.000000e+00 -1.921241e-05 -2.386499e-05 0.000000e+00 -2.386499e-05 1.625977e-05 0.000000e+00 0.000000e+00 0.000000e+00 0.000000e+00 2.333653e-05 -4.807335e-06 0.000000e+00 -4.807335e-06 -6.703423e-05 0.000000e+00 0.000000e+00 0.000000e+00 0.000000e+00 4.535085e-05 -1.455018e-05 0.000000e+00 -1.455018e-05 -7.313211e-07 0.000000e+00 0.000000e+00 0.000000e+00 0.000000e+00 2.822816e-05 -8.766762e-06 0.000000e+00 -8.766762e-06 -3.088643e-05 0.000000e+00 0.000000e+00 0.000000e+00 0.000000e+00 2.468966e-05 -6.905884e-06 0.000000e+00 -6.905884e-06 -4.400931e-05 0.000000e+00 0.000000e+00 0.000000e+00 0.000000e+00 3.303650e-05 -9.723023e-06 0.000000e+00 -9.723023e-06 -2.120295e-05 0.000000e+00 0.000000e+00 0.000000e+00 0.000000e+00 5.330648e-05 -1.872881e-05 0.000000e+00 -1.872881e-05 1.378777e-05 0.000000e+00 0.000000e+00 0.000000e+00 0.000000e+00 6.151092e-05 -2.195977e-05 0.000000e+00 -2.195977e-05 2.731499e-05 0.000000e+00 0.000000e+00 0.000000e+00 0.000000e+00 4.471668e-05 -3.379872e-05 0.000000e+00 -3.379872e-05 1.277318e-04 0.000000e+00 0.000000e+00 0.000000e+00 0.000000e+00 6.639646e-05 -3.094729e-05 0.000000e+00 -3.094729e-05 5.204119e-05 0.000000e+00 0.000000e+00 0.000000e+00 0.000000e+00 4.031353e-05 -1.204869e-05 0.000000e+00 -1.204869e-05 -8.526765e-06 0.000000e+00 0.000000e+00 0.000000e+00 0.000000e+00 5.177373e-05 -1.705697e-05 0.000000e+00 -1.705697e-05 9.546271e-06 0.000000e+00 0.000000e+00 0.000000e+00 0.000000e+00 3.175883e-05 -9.239379e-06 0.000000e+00 -9.239379e-06 -2.325146e-05 0.000000e+00 0.000000e+00 0.000000e+00 0.000000e+00 7.092764e-05 -3.292186e-05 0.000000e+00 -3.292186e-05 6.272794e-05 0.000000e+00 0.000000e+00 0.000000e+00 0.000000e+00 2.323259e-05 -5.042046e-06 0.000000e+00 -5.042046e-06 -6.361869e-05 0.000000e+00 0.000000e+00 0.000000e+00 0.000000e+00 3.101497e-05 5.470344e-05 0.000000e+00 5.470344e-05 5.000184e-05 0.000000e+00 0.000000e+00 0.000000e+00 0.000000e+00 6.488921e-05 -2.813789e-05 0.000000e+00 -2.813789e-05 4.307190e-05 0.000000e+00 0.000000e+00 0.000000e+00 0.000000e+00 -1.591707e-05 1.961188e-05 0.000000e+00 1.961188e-05 8.091392e-06 0.000000e+00 0.000000e+00 0.000000e+00 0.000000e+00 2.288072e-05 -6.519530e-06 0.000000e+00 -6.519530e-06 -5.585301e-05 0.000000e+00 0.000000e+00 0.000000e+00 0.000000e+00 5.007077e-05 -1.564145e-05 0.000000e+00 -1.564145e-05 5.553303e-06 0.000000e+00 0.000000e+00 0.000000e+00 0.000000e+00 9.500510e-08 1.107132e-06 0.000000e+00 1.107132e-06 -2.898269e-06 0.000000e+00 0.000000e+00 0.000000e+00 0.000000e+00 6.124440e-05 -1.829890e-05 0.000000e+00 -1.829890e-05 2.108982e-05 0.000000e+00 0.000000e+00 0.000000e+00 0.000000e+00 1.554147e-05 1.729722e-05 0.000000e+00 1.729722e-05 -3.655423e-06 0.000000e+00 0.000000e+00 0.000000e+00 0.000000e+00 3.530849e-05 -1.140991e-05 0.000000e+00 -1.140991e-05 -1.617789e-05 0.000000e+00 0.000000e+00 0.000000e+00 0.000000e+00 4.758705e-05 -1.512347e-05 0.000000e+00 -1.512347e-05 2.340217e-06 0.000000e+00 0.000000e+00 0.000000e+00 0.000000e+00 -9.215408e-06 2.285780e-05 0.000000e+00 2.285780e-05 5.549920e-06 0.000000e+00 0.000000e+00 0.000000e+00 0.000000e+00 2.420952e-05 -5.991112e-06 0.000000e+00 -5.991112e-06 -4.690030e-05 0.000000e+00 0.000000e+00 0.000000e+00 0.000000e+00 2.553278e-05 -4.205739e-06 0.000000e+00 -4.205739e-06 -7.711188e-05 0.000000e+00 0.000000e+00 0.000000e+00 0.000000e+00 2.675875e-05 -7.527607e-06 0.000000e+00 -7.527607e-06 -3.553861e-05 0.000000e+00 0.000000e+00 0.000000e+00 0.000000e+00 2.346784e-05 -6.879759e-06 0.000000e+00 -6.879759e-06 -5.277060e-05 0.000000e+00 0.000000e+00 0.000000e+00 0.000000e+00 -2.388340e-05 -6.290071e-07 0.000000e+00 -6.290071e-07 2.181913e-05 0.000000e+00 0.000000e+00 0.000000e+00 0.000000e+00 4.258691e-05 -1.207114e-05 0.000000e+00 -1.207114e-05 -6.546429e-06 0.000000e+00 0.000000e+00 0.000000e+00 0.000000e+00 6.689870e-05 -3.764759e-05 0.000000e+00 -3.764759e-05 8.146229e-05 0.000000e+00 0.000000e+00 0.000000e+00 0.000000e+00 2.555154e-05 4.359793e-05 0.000000e+00 4.359793e-05 3.599108e-05 0.000000e+00 0.000000e+00 0.000000e+00 0.000000e+00 3.020770e-05 -5.032249e-06 0.000000e+00 -5.032249e-06 -9.157218e-05 0.000000e+00 0.000000e+00 0.000000e+00 0.000000e+00 2.582858e-05 -7.085918e-06 0.000000e+00 -7.085918e-06 -3.804356e-05 0.000000e+00 0.000000e+00 0.000000e+00 0.000000e+00 2.647764e-05 -4.586141e-06 0.000000e+00 -4.586141e-06 -8.197799e-05 0.000000e+00 0.000000e+00 0.000000e+00 0.000000e+00 2.172123e-05 -1.441155e-05 0.000000e+00 -1.441155e-05 -6.382290e-05 0.000000e+00 0.000000e+00 0.000000e+00 0.000000e+00 2.755153e-05 -5.044892e-06 0.000000e+00 -5.044892e-06 -8.567024e-05 0.000000e+00 0.000000e+00 0.000000e+00 0.000000e+00 3.888248e-05 -1.211143e-05 0.000000e+00 -1.211143e-05 -1.114269e-05 0.000000e+00 0.000000e+00 0.000000e+00 0.000000e+00 3.067634e-05 -9.684009e-06 0.000000e+00 -9.684009e-06 -2.540583e-05 0.000000e+00 0.000000e+00 0.000000e+00 0.000000e+00 -1.367708e-05 2.081358e-05 0.000000e+00 2.081358e-05 5.156787e-06 0.000000e+00 0.000000e+00 0.000000e+00 0.000000e+00 2.456896e-05 -1.153667e-05 0.000000e+00 -1.153667e-05 -6.993025e-05 0.000000e+00 0.000000e+00 0.000000e+00 0.000000e+00 1.662743e-05 -2.457447e-05 0.000000e+00 -2.457447e-05 -3.961171e-05 0.000000e+00 0.000000e+00 0.000000e+00 0.000000e+00 2.111303e-05 -7.839889e-06 0.000000e+00 -7.839889e-06 -7.558625e-05 0.000000e+00 0.000000e+00 0.000000e+00 0.000000e+00 2.153454e-05 -1.055790e-05 0.000000e+00 -1.055790e-05 -6.738768e-05 0.000000e+00 0.000000e+00 0.000000e+00 0.000000e+00 2.339438e-05 -5.505429e-06 0.000000e+00 -5.505429e-06 -7.559992e-05 0.000000e+00 0.000000e+00 0.000000e+00 0.000000e+00 2.349755e-05 -7.628175e-06 0.000000e+00 -7.628175e-06 -7.082950e-05 0.000000e+00 0.000000e+00 0.000000e+00 0.000000e+00 2.537136e-05 -2.810815e-06 0.000000e+00 -2.810815e-06 -8.138588e-05 0.000000e+00 0.000000e+00 0.000000e+00 0.000000e+00 2.201130e-05 -1.142902e-05 0.000000e+00 -1.142902e-05 -6.208307e-05 0.000000e+00 0.000000e+00 0.000000e+00 0.000000e+00 2.468789e-05 -5.295298e-06 0.000000e+00 -5.295298e-06 -7.451878e-05 0.000000e+00 0.000000e+00 0.000000e+00 0.000000e+00 2.496717e-05 1.342331e-06 0.000000e+00 1.342331e-06 -8.894257e-05 0.000000e+00 0.000000e+00 0.000000e+00 0.000000e+00 3.139073e-05 -2.651543e-06 0.000000e+00 -2.651543e-06 -9.269517e-05 0.000000e+00 0.000000e+00 0.000000e+00 0.000000e+00 2.114681e-05 -1.547015e-05 0.000000e+00 -1.547015e-05 -5.764146e-05 0.000000e+00 0.000000e+00 0.000000e+00 0.000000e+00 2.828775e-05 -4.045093e-06 0.000000e+00 -4.045093e-06 -8.396445e-05 0.000000e+00 0.000000e+00 0.000000e+00 0.000000e+00 2.779882e-05 -7.700220e-06 0.000000e+00 -7.700220e-06 -3.331502e-05 0.000000e+00 0.000000e+00 0.000000e+00 0.000000e+00 3.414081e-05 -1.057300e-05 0.000000e+00 -1.057300e-05 -1.869657e-05 0.000000e+00 0.000000e+00 0.000000e+00 0.000000e+00 -1.215628e-05 1.776836e-05 0.000000e+00 1.776836e-05 1.638112e-05 0.000000e+00 0.000000e+00 0.000000e+00 0.000000e+00 2.582339e-05 -1.006844e-05 0.000000e+00 -1.006844e-05 -3.700150e-05 0.000000e+00 0.000000e+00 0.000000e+00 0.000000e+00 4.330127e-05 -1.353572e-05 0.000000e+00 -1.353572e-05 -3.774605e-06 0.000000e+00 0.000000e+00 0.000000e+00 0.000000e+00 5.856222e-05 -3.859435e-05 0.000000e+00 -3.859435e-05 1.019134e-04 0.000000e+00 0.000000e+00 0.000000e+00 0.000000e+00 1.908646e-05 1.501214e-05 0.000000e+00 1.501214e-05 -5.060918e-06 0.000000e+00 0.000000e+00 0.000000e+00 0.000000e+00 8.016897e-06 -3.352862e-05 0.000000e+00 -3.352862e-05 -1.866096e-05 0.000000e+00 0.000000e+00 0.000000e+00 0.000000e+00 2.451045e-05 2.173620e-05 0.000000e+00 2.173620e-05 -3.230431e-06 0.000000e+00 0.000000e+00 0.000000e+00 0.000000e+00 6.822962e-06 1.370513e-05 0.000000e+00 1.370513e-05 1.353612e-04 0.000000e+00 0.000000e+00 0.000000e+00 0.000000e+00 -9.089514e-06 2.172129e-05 0.000000e+00 2.172129e-05 9.168916e-06 0.000000e+00 0.000000e+00 0.000000e+00 0.000000e+00 1.781344e-06 -3.448572e-05 0.000000e+00 -3.448572e-05 -9.761496e-06 0.000000e+00 0.000000e+00 0.000000e+00 0.000000e+00 5.131413e-05 -3.569761e-05 0.000000e+00 -3.569761e-05 6.489305e-05 0.000000e+00 0.000000e+00 0.000000e+00 0.000000e+00 1.198750e-05 4.387235e-05 0.000000e+00 4.387235e-05 1.223328e-04 0.000000e+00 0.000000e+00 0.000000e+00 0.000000e+00 1.704637e-05 1.868959e-05 0.000000e+00 1.868959e-05 -4.546528e-06 0.000000e+00 0.000000e+00 0.000000e+00 0.000000e+00 2.350882e-05 -6.096582e-06 0.000000e+00 -6.096582e-06 -6.835861e-05 0.000000e+00 0.000000e+00 0.000000e+00 0.000000e+00 2.731981e-05 -6.844981e-06 0.000000e+00 -6.844981e-06 -7.882378e-05 0.000000e+00 0.000000e+00 0.000000e+00 0.000000e+00 2.847469e-05 3.447855e-05 0.000000e+00 3.447855e-05 1.319923e-05 0.000000e+00 0.000000e+00 0.000000e+00 0.000000e+00 9.188414e-06 3.817243e-05 0.000000e+00 3.817243e-05 8.292596e-05 0.000000e+00 0.000000e+00 0.000000e+00 0.000000e+00 2.325893e-05 -8.458914e-06 0.000000e+00 -8.458914e-06 -6.593257e-05 0.000000e+00 0.000000e+00 0.000000e+00 0.000000e+00 -5.351288e-06 -3.328660e-05 0.000000e+00 -3.328660e-05 -1.030157e-06 0.000000e+00 0.000000e+00 0.000000e+00 0.000000e+00 1.036907e-05 2.334687e-05 0.000000e+00 2.334687e-05 -4.444149e-07 0.000000e+00 0.000000e+00 0.000000e+00 0.000000e+00 2.237339e-05 -1.090748e-05 0.000000e+00 -1.090748e-05 -5.798243e-05 0.000000e+00 0.000000e+00 0.000000e+00 0.000000e+00 2.507518e-05 2.510842e-05 0.000000e+00 2.510842e-05 5.422504e-07 0.000000e+00 0.000000e+00 0.000000e+00 0.000000e+00 3.238568e-05 -1.320575e-05 0.000000e+00 -1.320575e-05 -1.985000e-05 0.000000e+00 0.000000e+00 0.000000e+00 0.000000e+00 1.034796e-05 3.850602e-05 0.000000e+00 3.850602e-05 6.134322e-05 0.000000e+00 0.000000e+00 0.000000e+00 0.000000e+00 2.701542e-05 -1.084795e-05 0.000000e+00 -1.084795e-05 -3.323955e-05 0.000000e+00 0.000000e+00 0.000000e+00 0.000000e+00 -1.710846e-05 8.978358e-06 0.000000e+00 8.978358e-06 2.420154e-05 0.000000e+00 0.000000e+00 0.000000e+00 0.000000e+00 5.308401e-05 -2.896152e-05 0.000000e+00 -2.896152e-05 3.443015e-05 0.000000e+00 0.000000e+00 0.000000e+00 0.000000e+00 5.797173e-06 3.051760e-05 0.000000e+00 3.051760e-05 1.081270e-04 0.000000e+00 0.000000e+00 0.000000e+00 0.000000e+00 4.875306e-05 -2.312850e-05 0.000000e+00 -2.312850e-05 1.368394e-05 0.000000e+00 0.000000e+00 0.000000e+00 0.000000e+00 4.314044e-05 -1.996063e-05 0.000000e+00 -1.996063e-05 2.675379e-06 0.000000e+00 0.000000e+00 0.000000e+00 0.000000e+00 1.706507e-05 -1.551741e-05 0.000000e+00 -1.551741e-05 1.286151e-04 0.000000e+00 0.000000e+00 0.000000e+00 0.000000e+00 2.907144e-05 -1.354933e-05 0.000000e+00 -1.354933e-05 -2.590275e-05 0.000000e+00 0.000000e+00 0.000000e+00 0.000000e+00 2.678063e-05 2.927495e-05 0.000000e+00 2.927495e-05 5.816868e-06 0.000000e+00 0.000000e+00 0.000000e+00 0.000000e+00 1.673630e-05 2.103568e-05 0.000000e+00 2.103568e-05 -3.357253e-06 0.000000e+00 0.000000e+00 0.000000e+00 0.000000e+00 3.079037e-05 -1.323586e-05 0.000000e+00 -1.323586e-05 -2.264639e-05 0.000000e+00 0.000000e+00 0.000000e+00 0.000000e+00 1.828762e-05 3.585805e-05 0.000000e+00 3.585805e-05 2.987564e-05 0.000000e+00 0.000000e+00 0.000000e+00 0.000000e+00 2.083122e-05 1.695788e-05 0.000000e+00 1.695788e-05 -5.747712e-06 0.000000e+00 0.000000e+00 0.000000e+00 0.000000e+00 5.437343e-05 -3.675682e-05 0.000000e+00 -3.675682e-05 7.611068e-05 0.000000e+00 0.000000e+00 0.000000e+00 0.000000e+00 2.284719e-05 1.869046e-05 0.000000e+00 1.869046e-05 -5.345288e-06 0.000000e+00 0.000000e+00 0.000000e+00 0.000000e+00 2.285851e-05 -7.114421e-06 0.000000e+00 -7.114421e-06 -6.285654e-05 0.000000e+00 0.000000e+00 0.000000e+00 0.000000e+00 5.205084e-05 -3.410416e-05 0.000000e+00 -3.410416e-05 5.251614e-05 0.000000e+00 0.000000e+00 0.000000e+00 0.000000e+00 3.842103e-05 -1.632228e-05 0.000000e+00 -1.632228e-05 -8.660073e-06 0.000000e+00 0.000000e+00 0.000000e+00 0.000000e+00 4.835556e-05 -2.052320e-05 0.000000e+00 -2.052320e-05 9.010684e-06 0.000000e+00 0.000000e+00 0.000000e+00 0.000000e+00 2.762222e-05 -1.283078e-05 0.000000e+00 -1.283078e-05 -2.913007e-05 0.000000e+00 0.000000e+00 0.000000e+00 0.000000e+00 2.275836e-05 -9.155965e-06 0.000000e+00 -9.155965e-06 -4.967938e-05 0.000000e+00 0.000000e+00 0.000000e+00 0.000000e+00 3.430708e-05 -1.604232e-05 0.000000e+00 -1.604232e-05 -1.404325e-05 0.000000e+00 0.000000e+00 0.000000e+00 0.000000e+00 3.408577e-05 -2.133911e-06 0.000000e+00 -2.133911e-06 -1.007336e-04 0.000000e+00 0.000000e+00 0.000000e+00 0.000000e+00 2.130776e-05 -1.524361e-05 0.000000e+00 -1.524361e-05 -5.323233e-05 0.000000e+00 0.000000e+00 0.000000e+00 0.000000e+00 2.465462e-05 -1.189424e-05 0.000000e+00 -1.189424e-05 -3.935504e-05 0.000000e+00 0.000000e+00 0.000000e+00 0.000000e+00 2.377896e-05 -8.154851e-06 0.000000e+00 -8.154851e-06 -4.664787e-05 0.000000e+00 0.000000e+00 0.000000e+00 0.000000e+00 -2.029032e-05 -4.437578e-06 0.000000e+00 -4.437578e-06 2.852521e-05 0.000000e+00 0.000000e+00 0.000000e+00 0.000000e+00 3.621599e-05 -1.656908e-05 0.000000e+00 -1.656908e-05 -1.097903e-05 0.000000e+00 0.000000e+00 0.000000e+00 0.000000e+00 3.506208e-06 2.413868e-05 0.000000e+00 2.413868e-05 2.373806e-06 0.000000e+00 0.000000e+00 0.000000e+00 0.000000e+00 5.613257e-05 -3.118803e-05 0.000000e+00 -3.118803e-05 4.147457e-05 0.000000e+00 0.000000e+00 0.000000e+00 0.000000e+00 2.314693e-05 -8.222558e-06 0.000000e+00 -8.222558e-06 -5.833758e-05 0.000000e+00 0.000000e+00 0.000000e+00 0.000000e+00 3.972616e-05 -1.714634e-05 0.000000e+00 -1.714634e-05 -5.265010e-06 0.000000e+00 0.000000e+00 0.000000e+00 0.000000e+00 -1.922570e-05 -1.800189e-05 0.000000e+00 -1.800189e-05 2.683937e-05 0.000000e+00 0.000000e+00 0.000000e+00 0.000000e+00 1.973588e-05 -2.008030e-05 0.000000e+00 -2.008030e-05 -4.699933e-05 0.000000e+00 0.000000e+00 0.000000e+00 0.000000e+00 3.305487e-05 -1.484423e-05 0.000000e+00 -1.484423e-05 -1.711983e-05 0.000000e+00 0.000000e+00 0.000000e+00 0.000000e+00 -1.751080e-05 -9.379713e-06 0.000000e+00 -9.379713e-06 3.590827e-05 0.000000e+00 0.000000e+00 0.000000e+00 0.000000e+00 2.428020e-05 -1.006155e-05 0.000000e+00 -1.006155e-05 -4.297238e-05 0.000000e+00 0.000000e+00 0.000000e+00 0.000000e+00 -1.192741e-05 -3.191485e-05 0.000000e+00 -3.191485e-05 1.093557e-05 0.000000e+00 0.000000e+00 0.000000e+00 0.000000e+00 4.137889e-05 -1.904110e-05 0.000000e+00 -1.904110e-05 -1.160028e-06 0.000000e+00 0.000000e+00 0.000000e+00 0.000000e+00 5.485331e-05 -2.519563e-05 0.000000e+00 -2.519563e-05 2.500800e-05 0.000000e+00 0.000000e+00 0.000000e+00 0.000000e+00 1.358170e-05 -3.028347e-05 0.000000e+00 -3.028347e-05 -2.737346e-05 0.000000e+00 0.000000e+00 0.000000e+00 0.000000e+00 2.504822e-05 -1.362126e-05 0.000000e+00 -1.362126e-05 -3.513028e-05 0.000000e+00 0.000000e+00 0.000000e+00 0.000000e+00 2.929373e-06 -3.664690e-05 0.000000e+00 -3.664690e-05 -5.186725e-06 0.000000e+00 0.000000e+00 0.000000e+00 0.000000e+00 2.246525e-05 -9.979521e-06 0.000000e+00 -9.979521e-06 -5.332977e-05 0.000000e+00 0.000000e+00 0.000000e+00 0.000000e+00 1.604141e-05 2.561533e-05 0.000000e+00 2.561533e-05 3.953414e-06 0.000000e+00 0.000000e+00 0.000000e+00 0.000000e+00 1.533194e-05 3.132636e-05 0.000000e+00 3.132636e-05 2.056111e-05 0.000000e+00 0.000000e+00 0.000000e+00 0.000000e+00 4.555397e-05 -2.035228e-05 0.000000e+00 -2.035228e-05 6.146242e-06 0.000000e+00 0.000000e+00 0.000000e+00 0.000000e+00 -1.493098e-05 -2.787982e-05 0.000000e+00 -2.787982e-05 2.144903e-05 0.000000e+00 0.000000e+00 0.000000e+00 0.000000e+00 1.514962e-05 2.828778e-05 0.000000e+00 2.828778e-05 1.124199e-05 0.000000e+00 0.000000e+00 0.000000e+00 0.000000e+00 2.180300e-05 -1.422390e-05 0.000000e+00 -1.422390e-05 -4.991769e-05 0.000000e+00 0.000000e+00 0.000000e+00 0.000000e+00 -3.583932e-06 2.375604e-05 0.000000e+00 2.375604e-05 4.629085e-06 0.000000e+00 0.000000e+00 0.000000e+00 0.000000e+00 3.843456e-05 -2.444920e-05 0.000000e+00 -2.444920e-05 3.256359e-06 0.000000e+00 0.000000e+00 0.000000e+00 0.000000e+00 2.021799e-05 -1.919367e-05 0.000000e+00 -1.919367e-05 -4.352620e-05 0.000000e+00 0.000000e+00 0.000000e+00 0.000000e+00 1.794520e-05 -2.551919e-05 0.000000e+00 -2.551919e-05 -3.475321e-05 0.000000e+00 0.000000e+00 0.000000e+00 0.000000e+00 5.072822e-06 2.453306e-05 0.000000e+00 2.453306e-05 4.371358e-06 0.000000e+00 0.000000e+00 0.000000e+00 0.000000e+00 4.931771e-05 -2.573294e-05 0.000000e+00 -2.573294e-05 2.050389e-05 0.000000e+00 0.000000e+00 0.000000e+00 0.000000e+00 -7.151625e-06 1.907042e-05 0.000000e+00 1.907042e-05 2.297701e-05 0.000000e+00 0.000000e+00 0.000000e+00 0.000000e+00 -2.182782e-06 2.317707e-05 0.000000e+00 2.317707e-05 1.150029e-05 0.000000e+00 0.000000e+00 0.000000e+00 0.000000e+00 -6.514765e-07 2.425070e-05 0.000000e+00 2.425070e-05 5.742920e-06 0.000000e+00 0.000000e+00 0.000000e+00 0.000000e+00 4.620516e-05 -3.123267e-05 0.000000e+00 -3.123267e-05 3.152113e-05 0.000000e+00 0.000000e+00 0.000000e+00 0.000000e+00 -1.476601e-05 6.625071e-06 0.000000e+00 6.625071e-06 3.323011e-05 0.000000e+00 0.000000e+00 0.000000e+00 0.000000e+00 -1.488993e-05 -2.279807e-05 0.000000e+00 -2.279807e-05 3.175466e-05 0.000000e+00 0.000000e+00 0.000000e+00 0.000000e+00 4.075811e-05 -2.521525e-05 0.000000e+00 -2.521525e-05 7.484718e-06 0.000000e+00 0.000000e+00 0.000000e+00 0.000000e+00 2.347126e-05 -1.338445e-05 0.000000e+00 -1.338445e-05 -4.266305e-05 0.000000e+00 0.000000e+00 0.000000e+00 0.000000e+00 3.854552e-06 2.891638e-05 0.000000e+00 2.891638e-05 5.093193e-05 0.000000e+00 0.000000e+00 0.000000e+00 0.000000e+00 5.076594e-06 4.498689e-07 0.000000e+00 4.498689e-07 1.136419e-04 0.000000e+00 0.000000e+00 0.000000e+00 0.000000e+00 4.256547e-05 -2.881635e-05 0.000000e+00 -2.881635e-05 1.859070e-05 0.000000e+00 0.000000e+00 0.000000e+00 0.000000e+00 3.357018e-05 -3.071859e-05 0.000000e+00 -3.071859e-05 1.128171e-04 0.000000e+00 0.000000e+00 0.000000e+00 0.000000e+00 3.131403e-05 -1.947410e-05 0.000000e+00 -1.947410e-05 -1.503123e-05 0.000000e+00 0.000000e+00 0.000000e+00 0.000000e+00 4.217775e-05 -3.591269e-05 0.000000e+00 -3.591269e-05 9.470842e-05 0.000000e+00 0.000000e+00 0.000000e+00 0.000000e+00 1.346609e-05 2.415138e-05 0.000000e+00 2.415138e-05 8.790539e-07 0.000000e+00 0.000000e+00 0.000000e+00 0.000000e+00 1.522999e-05 -3.083038e-05 0.000000e+00 -3.083038e-05 -2.338426e-05 0.000000e+00 0.000000e+00 0.000000e+00 0.000000e+00 3.032718e-07 1.452321e-05 0.000000e+00 1.452321e-05 9.635640e-05 0.000000e+00 0.000000e+00 0.000000e+00 0.000000e+00 -4.090119e-06 -3.571975e-05 0.000000e+00 -3.571975e-05 3.074814e-06 0.000000e+00 0.000000e+00 0.000000e+00 0.000000e+00 9.877408e-06 -3.503515e-05 0.000000e+00 -3.503515e-05 -1.309839e-05 0.000000e+00 0.000000e+00 0.000000e+00 0.000000e+00 3.638842e-05 -3.591318e-05 0.000000e+00 -3.591318e-05 6.442489e-05 0.000000e+00 0.000000e+00 0.000000e+00 0.000000e+00 3.494975e-05 -2.172427e-05 0.000000e+00 -2.172427e-05 -6.480176e-06 0.000000e+00 0.000000e+00 0.000000e+00 0.000000e+00 1.931802e-05 2.227698e-05 0.000000e+00 2.227698e-05 -2.397022e-06 0.000000e+00 0.000000e+00 0.000000e+00 0.000000e+00 2.647282e-05 -1.801346e-05 0.000000e+00 -1.801346e-05 -2.718929e-05 0.000000e+00 0.000000e+00 0.000000e+00 0.000000e+00 3.730629e-05 -2.290228e-05 0.000000e+00 -2.290228e-05 -1.874588e-06 0.000000e+00 0.000000e+00 0.000000e+00 0.000000e+00 4.220018e-05 -3.431599e-05 0.000000e+00 -3.431599e-05 4.562692e-05 0.000000e+00 0.000000e+00 0.000000e+00 0.000000e+00 3.274001e-05 -2.114424e-05 0.000000e+00 -2.114424e-05 -1.074305e-05 0.000000e+00 0.000000e+00 0.000000e+00 0.000000e+00 2.318106e-05 -1.048327e-05 0.000000e+00 -1.048327e-05 -4.604436e-05 0.000000e+00 0.000000e+00 0.000000e+00 0.000000e+00 -8.933054e-06 -3.414003e-05 0.000000e+00 -3.414003e-05 1.423166e-05 0.000000e+00 0.000000e+00 0.000000e+00 0.000000e+00 2.348347e-05 -1.556243e-05 0.000000e+00 -1.556243e-05 -3.787797e-05 0.000000e+00 0.000000e+00 0.000000e+00 0.000000e+00 2.227472e-05 -1.252699e-05 0.000000e+00 -1.252699e-05 -4.741154e-05 0.000000e+00 0.000000e+00 0.000000e+00 0.000000e+00 2.828317e-05 -1.790340e-05 0.000000e+00 -1.790340e-05 -2.250882e-05 0.000000e+00 0.000000e+00 0.000000e+00 0.000000e+00 -8.900187e-07 2.113385e-05 0.000000e+00 2.113385e-05 7.465516e-05 0.000000e+00 0.000000e+00 0.000000e+00 0.000000e+00 3.457796e-05 -3.408577e-05 0.000000e+00 -3.408577e-05 8.102250e-05 0.000000e+00 0.000000e+00 0.000000e+00 0.000000e+00 3.069074e-05 -1.704605e-05 0.000000e+00 -1.704605e-05 -1.929268e-05 0.000000e+00 0.000000e+00 0.000000e+00 0.000000e+00 -8.403441e-06 -3.263566e-05 0.000000e+00 -3.263566e-05 2.219615e-05 0.000000e+00 0.000000e+00 0.000000e+00 0.000000e+00 2.069456e-05 -2.221783e-05 0.000000e+00 -2.221783e-05 -3.498979e-05 0.000000e+00 0.000000e+00 0.000000e+00 0.000000e+00 2.891043e-05 -2.427351e-05 0.000000e+00 -2.427351e-05 -1.189775e-05 0.000000e+00 0.000000e+00 0.000000e+00 0.000000e+00 4.828547e-06 -3.799066e-05 0.000000e+00 -3.799066e-05 4.535833e-07 0.000000e+00 0.000000e+00 0.000000e+00 0.000000e+00 1.865584e-05 -2.704825e-05 0.000000e+00 -2.704825e-05 -2.594623e-05 0.000000e+00 0.000000e+00 0.000000e+00 0.000000e+00 4.092139e-05 -3.101274e-05 0.000000e+00 -3.101274e-05 2.670412e-05 0.000000e+00 0.000000e+00 0.000000e+00 0.000000e+00 2.669274e-05 -1.429115e-05 0.000000e+00 -1.429115e-05 -3.158610e-05 0.000000e+00 0.000000e+00 0.000000e+00 0.000000e+00 -2.535676e-06 -3.681673e-05 0.000000e+00 -3.681673e-05 8.241038e-06 0.000000e+00 0.000000e+00 0.000000e+00 0.000000e+00 4.421114e-05 -2.515107e-05 0.000000e+00 -2.515107e-05 1.134760e-05 0.000000e+00 0.000000e+00 0.000000e+00 0.000000e+00 3.220745e-06 2.687772e-05 0.000000e+00 2.687772e-05 3.634158e-05 0.000000e+00 0.000000e+00 0.000000e+00 0.000000e+00 2.168518e-05 -1.684586e-05 0.000000e+00 -1.684586e-05 -4.188101e-05 0.000000e+00 0.000000e+00 0.000000e+00 0.000000e+00 5.028775e-06 -1.180954e-05 0.000000e+00 -1.180954e-05 9.587243e-05 0.000000e+00 0.000000e+00 0.000000e+00 0.000000e+00 3.306137e-05 -3.463529e-05 0.000000e+00 -3.463529e-05 3.862343e-05 0.000000e+00 0.000000e+00 0.000000e+00 0.000000e+00 3.430887e-05 -3.327746e-05 0.000000e+00 -3.327746e-05 2.477760e-05 0.000000e+00 0.000000e+00 0.000000e+00 0.000000e+00 -1.402395e-05 -1.527725e-05 0.000000e+00 -1.527725e-05 4.302360e-05 0.000000e+00 0.000000e+00 0.000000e+00 0.000000e+00 4.924482e-06 2.571616e-05 0.000000e+00 2.571616e-05 1.407120e-05 0.000000e+00 0.000000e+00 0.000000e+00 0.000000e+00 1.837340e-05 -2.358140e-05 0.000000e+00 -2.358140e-05 1.021246e-04 0.000000e+00 0.000000e+00 0.000000e+00 0.000000e+00 2.748786e-05 -3.483532e-05 0.000000e+00 -3.483532e-05 5.646956e-05 0.000000e+00 0.000000e+00 0.000000e+00 0.000000e+00 1.575205e-05 -3.256956e-05 0.000000e+00 -3.256956e-05 -1.547860e-05 0.000000e+00 0.000000e+00 0.000000e+00 0.000000e+00 2.518803e-05 -2.304179e-05 0.000000e+00 -2.304179e-05 -2.154792e-05 0.000000e+00 0.000000e+00 0.000000e+00 0.000000e+00 3.434755e-05 -2.935806e-05 0.000000e+00 -2.935806e-05 9.066348e-06 0.000000e+00 0.000000e+00 0.000000e+00 0.000000e+00 -3.006132e-06 1.791472e-08 0.000000e+00 1.791472e-08 8.658618e-05 0.000000e+00 0.000000e+00 0.000000e+00 0.000000e+00 2.039909e-05 -3.444440e-05 0.000000e+00 -3.444440e-05 4.910387e-05 0.000000e+00 0.000000e+00 0.000000e+00 0.000000e+00 2.992655e-05 -2.614585e-05 0.000000e+00 -2.614585e-05 -6.236851e-06 0.000000e+00 0.000000e+00 0.000000e+00 0.000000e+00 2.816791e-05 -2.157254e-05 0.000000e+00 -2.157254e-05 -1.761374e-05 0.000000e+00 0.000000e+00 0.000000e+00 0.000000e+00 -8.975107e-06 -2.767444e-05 0.000000e+00 -2.767444e-05 3.446589e-05 0.000000e+00 0.000000e+00 0.000000e+00 0.000000e+00 8.145894e-06 2.572454e-05 0.000000e+00 2.572454e-05 6.305796e-06 0.000000e+00 0.000000e+00 0.000000e+00 0.000000e+00 3.758957e-05 -2.994689e-05 0.000000e+00 -2.994689e-05 1.469444e-05 0.000000e+00 0.000000e+00 0.000000e+00 0.000000e+00 2.253648e-05 -2.265760e-05 0.000000e+00 -2.265760e-05 -2.728779e-05 0.000000e+00 0.000000e+00 0.000000e+00 0.000000e+00 -7.332110e-06 1.663889e-05 0.000000e+00 1.663889e-05 3.589549e-05 0.000000e+00 0.000000e+00 0.000000e+00 0.000000e+00 3.327601e-06 2.574585e-05 0.000000e+00 2.574585e-05 2.372126e-05 0.000000e+00 0.000000e+00 0.000000e+00 0.000000e+00 3.433185e-05 -2.807183e-05 0.000000e+00 -2.807183e-05 3.219740e-06 0.000000e+00 0.000000e+00 0.000000e+00 0.000000e+00 -1.381187e-05 1.345724e-06 0.000000e+00 1.345724e-06 4.388116e-05 0.000000e+00 0.000000e+00 0.000000e+00 0.000000e+00 2.071172e-05 -2.831346e-05 0.000000e+00 -2.831346e-05 -1.803831e-05 0.000000e+00 0.000000e+00 0.000000e+00 0.000000e+00 3.753250e-06 -1.926967e-05 0.000000e+00 -1.926967e-05 8.050417e-05 0.000000e+00 0.000000e+00 0.000000e+00 0.000000e+00 2.475527e-05 -3.543962e-05 0.000000e+00 -3.543962e-05 3.296983e-05 0.000000e+00 0.000000e+00 0.000000e+00 0.000000e+00 3.166013e-05 -2.717678e-05 0.000000e+00 -2.717678e-05 -1.163676e-06 0.000000e+00 0.000000e+00 0.000000e+00 0.000000e+00 2.567673e-05 -2.928620e-05 0.000000e+00 -2.928620e-05 -7.251429e-06 0.000000e+00 0.000000e+00 0.000000e+00 0.000000e+00 -2.589175e-06 -3.498856e-05 0.000000e+00 -3.498856e-05 2.418902e-05 0.000000e+00 0.000000e+00 0.000000e+00 0.000000e+00 2.848288e-05 -3.353185e-05 0.000000e+00 -3.353185e-05 1.832916e-05 0.000000e+00 0.000000e+00 0.000000e+00 0.000000e+00 2.439552e-05 -1.798883e-05 0.000000e+00 -1.798883e-05 -3.183170e-05 0.000000e+00 0.000000e+00 0.000000e+00 0.000000e+00 -2.427640e-07 -3.743820e-05 0.000000e+00 -3.743820e-05 1.408291e-05 0.000000e+00 0.000000e+00 0.000000e+00 0.000000e+00 2.518683e-05 -2.615967e-05 0.000000e+00 -2.615967e-05 -1.497428e-05 0.000000e+00 0.000000e+00 0.000000e+00 0.000000e+00 1.803507e-05 -2.895640e-05 0.000000e+00 -2.895640e-05 7.984433e-05 0.000000e+00 0.000000e+00 0.000000e+00 0.000000e+00 1.252051e-05 -3.030399e-05 0.000000e+00 -3.030399e-05 6.642886e-05 0.000000e+00 0.000000e+00 0.000000e+00 0.000000e+00 -7.256170e-06 -2.336225e-05 0.000000e+00 -2.336225e-05 4.565187e-05 0.000000e+00 0.000000e+00 0.000000e+00 0.000000e+00 -6.632933e-06 4.154476e-06 0.000000e+00 4.154476e-06 7.354548e-05 0.000000e+00 0.000000e+00 0.000000e+00 0.000000e+00 1.137148e-05 -3.655445e-05 0.000000e+00 -3.655445e-05 -4.319779e-06 0.000000e+00 0.000000e+00 0.000000e+00 0.000000e+00 1.731458e-05 -3.375524e-05 0.000000e+00 -3.375524e-05 -7.532546e-06 0.000000e+00 0.000000e+00 0.000000e+00 0.000000e+00 -7.395801e-06 1.409655e-05 0.000000e+00 1.409655e-05 4.877412e-05 0.000000e+00 0.000000e+00 0.000000e+00 0.000000e+00 2.287123e-05 -1.922234e-05 0.000000e+00 -1.922234e-05 -3.501044e-05 0.000000e+00 0.000000e+00 0.000000e+00 0.000000e+00 -1.139638e-05 -5.984625e-06 0.000000e+00 -5.984625e-06 5.400011e-05 0.000000e+00 0.000000e+00 0.000000e+00 0.000000e+00 2.593762e-05 -3.136025e-05 0.000000e+00 -3.136025e-05 -3.986182e-08 0.000000e+00 0.000000e+00 0.000000e+00 0.000000e+00 9.527210e-07 -3.388057e-05 0.000000e+00 -3.388057e-05 3.126531e-05 0.000000e+00 0.000000e+00 0.000000e+00 0.000000e+00 2.774153e-05 -3.244486e-05 0.000000e+00 -3.244486e-05 7.613399e-06 0.000000e+00 0.000000e+00 0.000000e+00 0.000000e+00 6.756644e-06 -3.812559e-05 0.000000e+00 -3.812559e-05 6.380289e-06 0.000000e+00 0.000000e+00 0.000000e+00 0.000000e+00 -5.183915e-06 -1.167697e-05 0.000000e+00 -1.167697e-05 7.377332e-05 0.000000e+00 0.000000e+00 0.000000e+00 0.000000e+00 1.306964e-05 -3.696057e-05 0.000000e+00 -3.696057e-05 5.260123e-06 0.000000e+00 0.000000e+00 0.000000e+00 0.000000e+00 2.108012e-05 -3.601158e-05 0.000000e+00 -3.601158e-05 2.512047e-05 0.000000e+00 0.000000e+00 0.000000e+00 0.000000e+00 -4.978001e-06 -2.041525e-05 0.000000e+00 -2.041525e-05 5.835778e-05 0.000000e+00 0.000000e+00 0.000000e+00 0.000000e+00 1.479737e-05 -3.428448e-05 0.000000e+00 -3.428448e-05 4.228751e-05 0.000000e+00 0.000000e+00 0.000000e+00 0.000000e+00 1.957892e-05 -3.526565e-05 0.000000e+00 -3.526565e-05 7.466869e-06 0.000000e+00 0.000000e+00 0.000000e+00 0.000000e+00 2.183823e-05 -3.055849e-05 0.000000e+00 -3.055849e-05 -1.000391e-05 0.000000e+00 0.000000e+00 0.000000e+00 0.000000e+00 2.005472e-05 -3.563719e-05 0.000000e+00 -3.563719e-05 1.663650e-05 0.000000e+00 0.000000e+00 0.000000e+00 0.000000e+00 1.236639e-06 -2.344391e-05 0.000000e+00 -2.344391e-05 6.753875e-05 0.000000e+00 0.000000e+00 0.000000e+00 0.000000e+00 -6.828997e-06 1.255663e-05 0.000000e+00 1.255663e-05 6.303534e-05 0.000000e+00 0.000000e+00 0.000000e+00 0.000000e+00 6.324446e-06 -2.982289e-05 0.000000e+00 -2.982289e-05 5.628313e-05 0.000000e+00 0.000000e+00 0.000000e+00 0.000000e+00 2.048208e-05 -3.373701e-05 0.000000e+00 -3.373701e-05 -1.695860e-06 0.000000e+00 0.000000e+00 0.000000e+00 0.000000e+00 -9.174026e-06 -5.138327e-06 0.000000e+00 -5.138327e-06 6.500770e-05 0.000000e+00 0.000000e+00 0.000000e+00 0.000000e+00 5.202595e-06 -3.756511e-05 0.000000e+00 -3.756511e-05 1.623077e-05 0.000000e+00 0.000000e+00 0.000000e+00 0.000000e+00 1.432053e-05 -3.595806e-05 0.000000e+00 -3.595806e-05 3.518934e-05 0.000000e+00 0.000000e+00 0.000000e+00 0.000000e+00 3.357944e-06 -3.120842e-05 0.000000e+00 -3.120842e-05 4.261265e-05 0.000000e+00 0.000000e+00 0.000000e+00 0.000000e+00 1.106923e-05 -3.705947e-05 0.000000e+00 -3.705947e-05 1.807638e-05 0.000000e+00 0.000000e+00 0.000000e+00 0.000000e+00 1.152052e-05 -3.619953e-05 0.000000e+00 -3.619953e-05 2.730414e-05 0.000000e+00 0.000000e+00 0.000000e+00 0.000000e+00 </DataArray>
</PointData>
<CellData Scalars="" Vectors="" Tensors="" >
</CellData>
</Piece>
</UnstructuredGrid>
</VTKFile>