<!-- TimeStep 10 Computed 2021-08-30 at 9:26:12 -->
<VTKFile type="UnstructuredGrid" version="0.1" byte_order="LittleEndian">
<UnstructuredGrid>
<Piece NumberOfPoints="78" NumberOfCells="126">
<Points>
 <DataArray type="Float64" NumberOfComponents="3" format="ascii"> 3.225000e-02 1.380000e-02 0.000000e+00 2.600000e-02 1.380000e-02 0.000000e+00 3.209060e-02 1.520260e-02 0.000000e+00 3.166140e-02 1.644790e-02 0.000000e+00 3.086510e-02 1.772340e-02 0.000000e+00 2.972250e-02 1.882050e-02 0.000000e+00 2.860520e-02 1.948120e-02 0.000000e+00 2.719700e-02 1.993430e-02 0.000000e+00 2.590380e-02 2.004930e-02 0.000000e+00 2.457020e-02 1.988430e-02 0.000000e+00 2.332460e-02 1.944840e-02 0.000000e+00 2.208010e-02 1.866800e-02 0.000000e+00 2.105550e-02 1.762290e-02 0.000000e+00 2.030070e-02 1.636520e-02 0.000000e+00 1.988720e-02 1.510250e-02 0.000000e+00 1.975010e-02 1.376650e-02 0.000000e+00 1.990830e-02 1.240220e-02 0.000000e+00 2.036540e-02 1.109550e-02 0.000000e+00 2.111820e-02 9.897330e-03 0.000000e+00 2.206020e-02 8.948140e-03 0.000000e+00 2.327140e-02 8.177090e-03 0.000000e+00 2.473380e-02 7.679600e-03 0.000000e+00 2.609570e-02 7.550730e-03 0.000000e+00 2.739940e-02 7.708680e-03 0.000000e+00 2.878200e-02 8.203300e-03 0.000000e+00 2.990320e-02 8.918690e-03 0.000000e+00 3.088920e-02 9.906670e-03 0.000000e+00 3.160900e-02 1.104290e-02 0.000000e+00 3.210220e-02 1.244870e-02 0.000000e+00 2.689410e-02 1.574970e-02 0.000000e+00 3.106790e-02 1.432440e-02 0.000000e+00 3.021000e-02 1.633720e-02 0.000000e+00 2.868670e-02 1.830730e-02 0.000000e+00 2.656540e-02 1.903210e-02 0.000000e+00 2.429600e-02 1.840150e-02 0.000000e+00 2.232580e-02 1.734910e-02 0.000000e+00 2.134550e-02 1.546840e-02 0.000000e+00 2.081790e-02 1.316830e-02 0.000000e+00 2.195310e-02 1.090900e-02 0.000000e+00 2.270470e-02 9.754310e-03 0.000000e+00 2.419530e-02 9.293850e-03 0.000000e+00 2.596150e-02 8.901100e-03 0.000000e+00 2.746210e-02 9.203070e-03 0.000000e+00 2.953140e-02 1.029530e-02 0.000000e+00 3.074800e-02 1.222540e-02 0.000000e+00 3.125210e-02 1.326260e-02 0.000000e+00 2.444140e-02 1.534830e-02 0.000000e+00 2.824200e-02 1.402670e-02 0.000000e+00 3.096270e-02 1.549140e-02 0.000000e+00 2.939720e-02 1.737550e-02 0.000000e+00 2.763300e-02 1.864220e-02 0.000000e+00 2.545180e-02 1.869780e-02 0.000000e+00 2.312740e-02 1.819900e-02 0.000000e+00 2.154420e-02 1.657830e-02 0.000000e+00 2.110020e-02 1.424480e-02 0.000000e+00 2.133320e-02 1.208860e-02 0.000000e+00 2.874870e-02 9.422340e-03 0.000000e+00 3.038980e-02 1.108190e-02 0.000000e+00 2.729730e-02 1.228700e-02 0.000000e+00 2.872080e-02 1.592370e-02 0.000000e+00 2.397910e-02 1.338880e-02 0.000000e+00 2.523880e-02 1.708240e-02 0.000000e+00 2.551550e-02 1.212080e-02 0.000000e+00 2.798220e-02 1.720250e-02 0.000000e+00 2.657570e-02 1.763870e-02 0.000000e+00 2.373000e-02 1.698530e-02 0.000000e+00 2.265470e-02 1.460460e-02 0.000000e+00 2.213900e-02 1.328690e-02 0.000000e+00 2.808660e-02 1.066920e-02 0.000000e+00 2.649870e-02 1.061530e-02 0.000000e+00 2.345290e-02 1.070040e-02 0.000000e+00 2.981740e-02 1.494790e-02 0.000000e+00 2.996380e-02 1.344750e-02 0.000000e+00 2.269780e-02 1.602380e-02 0.000000e+00 2.278200e-02 1.202440e-02 0.000000e+00 2.912730e-02 1.205350e-02 0.000000e+00 2.495000e-02 1.058630e-02 0.000000e+00 2.416560e-02 1.177860e-02 0.000000e+00 </DataArray>
</Points>
<Cells>
 <DataArray type="Int32" Name="connectivity" format="ascii"> 0 2 30  3 4 31  5 6 32  7 8 33  9 10 34  11 12 35  13 14 36  15 16 37  17 18 38  18 19 39  38 18 39  19 20 39  20 21 40  21 22 41  40 21 41  22 23 41  23 24 42  25 26 43  27 28 44  28 0 45  44 28 45  0 30 45  1 29 46  29 1 47  2 3 48  4 5 49  6 7 50  8 9 51  10 11 52  12 13 53  14 15 54  16 17 55  41 23 42  20 40 39  24 25 56  26 27 57  47 1 58  29 47 59  2 48 30  1 46 60  31 4 49  32 6 50  33 8 51  34 10 52  35 12 53  36 14 54  37 16 55  42 24 56  46 29 61  48 3 31  49 5 32  50 7 33  51 9 34  52 11 35  53 13 36  54 15 37  55 17 38  58 1 62  1 60 62  57 27 44  56 25 43  26 57 43  49 32 63  32 50 63  50 33 64  63 50 64  33 51 64  51 34 61  34 52 65  61 34 65  52 35 65  66 73 36  36 54 66  54 37 67  66 54 67  37 55 67  42 56 68  41 42 69  42 68 69  38 39 70  69 76 41  39 40 70  56 43 68  29 59 63  60 46 66  31 49 59  63 64 29  46 61 65  48 31 71  30 48 71  31 59 71  59 47 71  59 49 63  51 61 64  30 71 72  71 47 72  35 53 73  67 55 74  55 38 74  38 70 74  43 57 75  47 58 75  60 66 67  35 73 65  57 44 75  75 58 68  43 75 68  60 67 74  68 58 69  69 58 62  30 72 45  75 44 72  72 47 75  53 36 73  46 65 73  70 40 76  45 72 44  60 74 77  66 46 73  77 74 70  60 77 62  61 29 64  77 70 76  40 41 76  62 77 76  76 69 62  </DataArray>
 <DataArray type="Int32" Name="offsets" format="ascii"> 3 6 9 12 15 18 21 24 27 30 33 36 39 42 45 48 51 54 57 60 63 66 69 72 75 78 81 84 87 90 93 96 99 102 105 108 111 114 117 120 123 126 129 132 135 138 141 144 147 150 153 156 159 162 165 168 171 174 177 180 183 186 189 192 195 198 201 204 207 210 213 216 219 222 225 228 231 234 237 240 243 246 249 252 255 258 261 264 267 270 273 276 279 282 285 288 291 294 297 300 303 306 309 312 315 318 321 324 327 330 333 336 339 342 345 348 351 354 357 360 363 366 369 372 375 378 </DataArray>
 <DataArray type="UInt8" Name="types" format="ascii"> 5 5 5 5 5 5 5 5 5 5 5 5 5 5 5 5 5 5 5 5 5 5 5 5 5 5 5 5 5 5 5 5 5 5 5 5 5 5 5 5 5 5 5 5 5 5 5 5 5 5 5 5 5 5 5 5 5 5 5 5 5 5 5 5 5 5 5 5 5 5 5 5 5 5 5 5 5 5 5 5 5 5 5 5 5 5 5 5 5 5 5 5 5 5 5 5 5 5 5 5 5 5 5 5 5 5 5 5 5 5 5 5 5 5 5 5 5 5 5 5 5 5 5 5 5 5 </DataArray>
</Cells>
<PointData Scalars="" Vectors="DisplacementVector " Tensors="IST_StressTensor IST_StrainTensor " >
 <DataArray type="Float64" Name="DisplacementVector" NumberOfComponents="3" format="ascii"> -1.038081e-05 8.065135e-05 0.000000e+00 -1.051821e-05 7.000000e-05 0.000000e+00 -1.309787e-05 8.031086e-05 0.000000e+00 -1.552350e-05 7.943517e-05 0.000000e+00 -1.803370e-05 7.781360e-05 0.000000e+00 -2.023269e-05 7.546579e-05 0.000000e+00 -2.160124e-05 7.312068e-05 0.000000e+00 -2.257739e-05 7.009725e-05 0.000000e+00 -2.287038e-05 6.725232e-05 0.000000e+00 -2.259706e-05 6.425341e-05 0.000000e+00 -2.177822e-05 6.141610e-05 0.000000e+00 -2.027651e-05 5.853261e-05 0.000000e+00 -1.824427e-05 5.611806e-05 0.000000e+00 -1.578505e-05 5.431800e-05 0.000000e+00 -1.329616e-05 5.333005e-05 0.000000e+00 -1.064543e-05 5.301974e-05 0.000000e+00 -7.917679e-06 5.343263e-05 0.000000e+00 -5.274266e-06 5.457344e-05 0.000000e+00 -2.814701e-06 5.642346e-05 0.000000e+00 -8.368264e-07 5.870570e-05 0.000000e+00 7.809374e-07 6.158548e-05 0.000000e+00 1.799617e-06 6.495723e-05 0.000000e+00 2.051128e-06 6.801890e-05 0.000000e+00 1.704547e-06 7.084809e-05 0.000000e+00 6.602908e-07 7.377009e-05 0.000000e+00 -8.048922e-07 7.606345e-05 0.000000e+00 -2.782304e-06 7.803063e-05 0.000000e+00 -5.022333e-06 7.943883e-05 0.000000e+00 -7.763021e-06 8.038466e-05 0.000000e+00 -1.412188e-05 7.053036e-05 0.000000e+00 -1.140228e-05 7.829702e-05 0.000000e+00 -1.528644e-05 7.656132e-05 0.000000e+00 -1.920853e-05 7.342548e-05 0.000000e+00 -2.081026e-05 6.886900e-05 0.000000e+00 -1.971689e-05 6.380790e-05 0.000000e+00 -1.774005e-05 5.920124e-05 0.000000e+00 -1.403011e-05 5.685735e-05 0.000000e+00 -9.393307e-06 5.561855e-05 0.000000e+00 -4.766278e-06 5.845390e-05 0.000000e+00 -2.408844e-06 6.028432e-05 0.000000e+00 -1.431352e-06 6.387070e-05 0.000000e+00 -7.024899e-07 6.786007e-05 0.000000e+00 -1.385310e-06 7.112488e-05 0.000000e+00 -3.615241e-06 7.535190e-05 0.000000e+00 -7.379906e-06 7.771260e-05 0.000000e+00 -9.360693e-06 7.868307e-05 0.000000e+00 -1.391235e-05 6.483890e-05 0.000000e+00 -1.085470e-05 7.292537e-05 0.000000e+00 -1.365053e-05 7.806893e-05 0.000000e+00 -1.732774e-05 7.491239e-05 0.000000e+00 -1.995222e-05 7.119823e-05 0.000000e+00 -2.022776e-05 6.642770e-05 0.000000e+00 -1.937452e-05 6.108152e-05 0.000000e+00 -1.623571e-05 5.732969e-05 0.000000e+00 -1.156083e-05 5.627790e-05 0.000000e+00 -7.181572e-06 5.690685e-05 0.000000e+00 -1.856565e-06 7.378242e-05 0.000000e+00 -5.154449e-06 7.703868e-05 0.000000e+00 -7.728041e-06 7.136608e-05 0.000000e+00 -1.446183e-05 7.370382e-05 0.000000e+00 -9.629428e-06 6.361322e-05 0.000000e+00 -1.707933e-05 6.624030e-05 0.000000e+00 -7.050897e-06 6.775740e-05 0.000000e+00 -1.698112e-05 7.218762e-05 0.000000e+00 -1.803823e-05 6.918709e-05 0.000000e+00 -1.703192e-05 6.271002e-05 0.000000e+00 -1.227171e-05 6.012658e-05 0.000000e+00 -9.553457e-06 5.886810e-05 0.000000e+00 -4.418663e-06 7.259059e-05 0.000000e+00 -4.220710e-06 6.933403e-05 0.000000e+00 -4.253190e-06 6.216173e-05 0.000000e+00 -1.259329e-05 7.584480e-05 0.000000e+00 -9.744517e-06 7.616099e-05 0.000000e+00 -1.518791e-05 6.020235e-05 0.000000e+00 -6.935340e-06 6.051713e-05 0.000000e+00 -7.145959e-06 7.459037e-05 0.000000e+00 -4.006376e-06 6.586600e-05 0.000000e+00 -6.363406e-06 6.403254e-05 0.000000e+00 </DataArray>
 <DataArray type="Float64" Name="IST_StressTensor" NumberOfComponents="9" format="ascii"> 1.602570e+00 4.071046e+00 0.000000e+00 4.071046e+00 -3.437388e+00 0.000000e+00 0.000000e+00 0.000000e+00 0.000000e+00 3.464829e+00 1.790251e+01 0.000000e+00 1.790251e+01 -1.102420e+01 0.000000e+00 0.000000e+00 0.000000e+00 0.000000e+00 -1.725910e+00 3.661967e+00 0.000000e+00 3.661967e+00 -4.274596e+00 0.000000e+00 0.000000e+00 0.000000e+00 0.000000e+00 -4.626700e+00 1.749912e+00 0.000000e+00 1.749912e+00 -6.743460e+00 0.000000e+00 0.000000e+00 0.000000e+00 0.000000e+00 -5.392303e+00 -8.433610e-02 0.000000e+00 -8.433610e-02 -1.106570e+01 0.000000e+00 0.000000e+00 0.000000e+00 0.000000e+00 -4.233415e+00 -9.960007e-01 0.000000e+00 -9.960007e-01 -1.823999e+01 0.000000e+00 0.000000e+00 0.000000e+00 0.000000e+00 7.232575e-01 3.518438e+00 0.000000e+00 3.518438e+00 -2.655094e+01 0.000000e+00 0.000000e+00 0.000000e+00 0.000000e+00 2.147605e+00 1.043628e+01 0.000000e+00 1.043628e+01 -3.033493e+01 0.000000e+00 0.000000e+00 0.000000e+00 0.000000e+00 1.554213e+00 2.052699e+01 0.000000e+00 2.052699e+01 -3.109617e+01 0.000000e+00 0.000000e+00 0.000000e+00 0.000000e+00 -4.005302e-02 2.746521e+01 0.000000e+00 2.746521e+01 -2.817388e+01 0.000000e+00 0.000000e+00 0.000000e+00 0.000000e+00 -2.875785e+00 3.362025e+01 0.000000e+00 3.362025e+01 -2.496088e+01 0.000000e+00 0.000000e+00 0.000000e+00 0.000000e+00 -6.759407e+00 3.863098e+01 0.000000e+00 3.863098e+01 -1.765115e+01 0.000000e+00 0.000000e+00 0.000000e+00 0.000000e+00 -7.856831e+00 3.948472e+01 0.000000e+00 3.948472e+01 -1.030181e+01 0.000000e+00 0.000000e+00 0.000000e+00 0.000000e+00 -5.629560e+00 3.721440e+01 0.000000e+00 3.721440e+01 -4.708699e+00 0.000000e+00 0.000000e+00 0.000000e+00 0.000000e+00 6.537052e-01 3.469668e+01 0.000000e+00 3.469668e+01 -2.500446e+00 0.000000e+00 0.000000e+00 0.000000e+00 0.000000e+00 7.655771e+00 3.398577e+01 0.000000e+00 3.398577e+01 -1.842311e+00 0.000000e+00 0.000000e+00 0.000000e+00 0.000000e+00 1.433017e+01 3.462163e+01 0.000000e+00 3.462163e+01 -1.008779e+00 0.000000e+00 0.000000e+00 0.000000e+00 0.000000e+00 1.763798e+01 3.550877e+01 0.000000e+00 3.550877e+01 1.110320e+00 0.000000e+00 0.000000e+00 0.000000e+00 0.000000e+00 1.820343e+01 3.534641e+01 0.000000e+00 3.534641e+01 5.372125e+00 0.000000e+00 0.000000e+00 0.000000e+00 0.000000e+00 1.753110e+01 3.335768e+01 0.000000e+00 3.335768e+01 1.058589e+01 0.000000e+00 0.000000e+00 0.000000e+00 0.000000e+00 1.284222e+01 3.105346e+01 0.000000e+00 3.105346e+01 1.779976e+01 0.000000e+00 0.000000e+00 0.000000e+00 0.000000e+00 4.386304e+00 2.245906e+01 0.000000e+00 2.245906e+01 2.216068e+01 0.000000e+00 0.000000e+00 0.000000e+00 0.000000e+00 3.960810e+00 1.359798e+01 0.000000e+00 1.359798e+01 2.258611e+01 0.000000e+00 0.000000e+00 0.000000e+00 0.000000e+00 8.469510e-01 5.800338e+00 0.000000e+00 5.800338e+00 2.051385e+01 0.000000e+00 0.000000e+00 0.000000e+00 0.000000e+00 3.589623e+00 -1.253393e+00 0.000000e+00 -1.253393e+00 1.762154e+01 0.000000e+00 0.000000e+00 0.000000e+00 0.000000e+00 7.415062e+00 -4.484069e+00 0.000000e+00 -4.484069e+00 9.039422e+00 0.000000e+00 0.000000e+00 0.000000e+00 0.000000e+00 9.006841e+00 -3.230185e+00 0.000000e+00 -3.230185e+00 3.161431e+00 0.000000e+00 0.000000e+00 0.000000e+00 0.000000e+00 8.734924e+00 -1.948210e-01 0.000000e+00 -1.948210e-01 -1.286947e+00 0.000000e+00 0.000000e+00 0.000000e+00 0.000000e+00 6.269226e+00 2.654251e+00 0.000000e+00 2.654251e+00 -2.680327e+00 0.000000e+00 0.000000e+00 0.000000e+00 0.000000e+00 1.564226e+00 4.634894e+00 0.000000e+00 4.634894e+00 -7.635237e+01 0.000000e+00 0.000000e+00 0.000000e+00 0.000000e+00 -1.030218e-01 3.732064e+00 0.000000e+00 3.732064e+00 -4.159713e+00 0.000000e+00 0.000000e+00 0.000000e+00 0.000000e+00 -5.277013e+00 2.381200e-01 0.000000e+00 2.381200e-01 -9.652010e+00 0.000000e+00 0.000000e+00 0.000000e+00 0.000000e+00 -1.993678e+00 -9.378433e-01 0.000000e+00 -9.378433e-01 -2.629543e+01 0.000000e+00 0.000000e+00 0.000000e+00 0.000000e+00 3.804020e+00 1.558047e+01 0.000000e+00 1.558047e+01 -3.563772e+01 0.000000e+00 0.000000e+00 0.000000e+00 0.000000e+00 2.289936e+00 3.182010e+01 0.000000e+00 3.182010e+01 -3.051300e+01 0.000000e+00 0.000000e+00 0.000000e+00 0.000000e+00 -6.147815e+00 4.178215e+01 0.000000e+00 4.178215e+01 -1.545188e+01 0.000000e+00 0.000000e+00 0.000000e+00 0.000000e+00 -3.612519e+00 3.605153e+01 0.000000e+00 3.605153e+01 -4.505448e+00 0.000000e+00 0.000000e+00 0.000000e+00 0.000000e+00 1.163275e+01 3.426527e+01 0.000000e+00 3.426527e+01 -1.918240e+00 0.000000e+00 0.000000e+00 0.000000e+00 0.000000e+00 1.749027e+01 3.722036e+01 0.000000e+00 3.722036e+01 5.049137e+00 0.000000e+00 0.000000e+00 0.000000e+00 0.000000e+00 1.550213e+01 3.492513e+01 0.000000e+00 3.492513e+01 1.136987e+01 0.000000e+00 0.000000e+00 0.000000e+00 0.000000e+00 8.049983e+00 2.987542e+01 0.000000e+00 2.987542e+01 2.423072e+01 0.000000e+00 0.000000e+00 0.000000e+00 0.000000e+00 -1.638847e-01 1.583909e+01 0.000000e+00 1.583909e+01 2.863025e+01 0.000000e+00 0.000000e+00 0.000000e+00 0.000000e+00 8.428136e-01 2.731084e+00 0.000000e+00 2.731084e+00 2.575495e+01 0.000000e+00 0.000000e+00 0.000000e+00 0.000000e+00 9.190631e+00 -5.302384e+00 0.000000e+00 -5.302384e+00 6.776548e+00 0.000000e+00 0.000000e+00 0.000000e+00 0.000000e+00 9.006976e+00 1.203637e+00 0.000000e+00 1.203637e+00 -2.027713e+00 0.000000e+00 0.000000e+00 0.000000e+00 0.000000e+00 3.877249e+00 3.609171e+00 0.000000e+00 3.609171e+00 -3.181913e+00 0.000000e+00 0.000000e+00 0.000000e+00 0.000000e+00 2.217380e-01 4.800227e+01 0.000000e+00 4.800227e+01 -6.039158e+01 0.000000e+00 0.000000e+00 0.000000e+00 0.000000e+00 2.699565e+00 -1.815781e+01 0.000000e+00 -1.815781e+01 -1.062095e+01 0.000000e+00 0.000000e+00 0.000000e+00 0.000000e+00 -3.418783e+00 2.702350e+00 0.000000e+00 2.702350e+00 -5.816470e+00 0.000000e+00 0.000000e+00 0.000000e+00 0.000000e+00 -5.633131e+00 -2.153468e+00 0.000000e+00 -2.153468e+00 -1.618449e+01 0.000000e+00 0.000000e+00 0.000000e+00 0.000000e+00 5.463034e+00 5.454344e+00 0.000000e+00 5.454344e+00 -3.311338e+01 0.000000e+00 0.000000e+00 0.000000e+00 0.000000e+00 4.020140e+00 2.504961e+01 0.000000e+00 2.504961e+01 -3.392406e+01 0.000000e+00 0.000000e+00 0.000000e+00 0.000000e+00 -3.793070e+00 3.809968e+01 0.000000e+00 3.809968e+01 -2.491682e+01 0.000000e+00 0.000000e+00 0.000000e+00 0.000000e+00 -8.326430e+00 3.954421e+01 0.000000e+00 3.954421e+01 -8.514919e+00 0.000000e+00 0.000000e+00 0.000000e+00 0.000000e+00 4.407994e+00 3.419831e+01 0.000000e+00 3.419831e+01 -2.862237e+00 0.000000e+00 0.000000e+00 0.000000e+00 0.000000e+00 1.603484e+01 3.613164e+01 0.000000e+00 3.613164e+01 -1.669872e-01 0.000000e+00 0.000000e+00 0.000000e+00 0.000000e+00 6.262423e+00 -3.985002e+00 0.000000e+00 -3.985002e+00 1.703252e+01 0.000000e+00 0.000000e+00 0.000000e+00 0.000000e+00 1.039526e+01 -2.397338e+00 0.000000e+00 -2.397338e+00 1.613875e+00 0.000000e+00 0.000000e+00 0.000000e+00 0.000000e+00 8.353300e+00 -1.406021e+01 0.000000e+00 -1.406021e+01 5.382353e+01 0.000000e+00 0.000000e+00 0.000000e+00 0.000000e+00 -5.638685e+00 -7.154119e+00 0.000000e+00 -7.154119e+00 -1.679255e+01 0.000000e+00 0.000000e+00 0.000000e+00 0.000000e+00 8.592595e+00 5.701243e+01 0.000000e+00 5.701243e+01 1.414273e+01 0.000000e+00 0.000000e+00 0.000000e+00 0.000000e+00 1.357402e+01 3.150498e+01 0.000000e+00 3.150498e+01 -4.765077e+01 0.000000e+00 0.000000e+00 0.000000e+00 0.000000e+00 5.543676e+00 3.494271e+01 0.000000e+00 3.494271e+01 8.289435e+01 0.000000e+00 0.000000e+00 0.000000e+00 0.000000e+00 -1.824297e+00 -5.021783e+00 0.000000e+00 -5.021783e+00 -4.150676e+01 0.000000e+00 0.000000e+00 0.000000e+00 0.000000e+00 6.956313e+00 1.326172e+01 0.000000e+00 1.326172e+01 -5.237708e+01 0.000000e+00 0.000000e+00 0.000000e+00 0.000000e+00 -2.373966e+00 4.262168e+01 0.000000e+00 4.262168e+01 -3.626879e+01 0.000000e+00 0.000000e+00 0.000000e+00 0.000000e+00 -1.124208e+00 3.852758e+01 0.000000e+00 3.852758e+01 -4.985288e+00 0.000000e+00 0.000000e+00 0.000000e+00 0.000000e+00 1.268660e+01 3.784973e+01 0.000000e+00 3.784973e+01 -1.487411e+00 0.000000e+00 0.000000e+00 0.000000e+00 0.000000e+00 8.322174e+00 -6.962422e+00 0.000000e+00 -6.962422e+00 2.717631e+01 0.000000e+00 0.000000e+00 0.000000e+00 0.000000e+00 -5.791360e+00 7.418351e+00 0.000000e+00 7.418351e+00 4.680001e+01 0.000000e+00 0.000000e+00 0.000000e+00 0.000000e+00 1.373536e+01 3.964773e+01 0.000000e+00 3.964773e+01 1.631250e+01 0.000000e+00 0.000000e+00 0.000000e+00 0.000000e+00 -2.439511e+00 3.180472e-01 0.000000e+00 3.180472e-01 -8.271640e+00 0.000000e+00 0.000000e+00 0.000000e+00 0.000000e+00 3.498201e+00 1.369258e+00 0.000000e+00 1.369258e+00 -2.952103e+00 0.000000e+00 0.000000e+00 0.000000e+00 0.000000e+00 -1.028162e+01 4.527359e+01 0.000000e+00 4.527359e+01 -1.686244e+01 0.000000e+00 0.000000e+00 0.000000e+00 0.000000e+00 1.644786e+01 4.113934e+01 0.000000e+00 4.113934e+01 7.211733e+00 0.000000e+00 0.000000e+00 0.000000e+00 0.000000e+00 1.223404e+01 -5.844260e+00 0.000000e+00 -5.844260e+00 4.408581e+00 0.000000e+00 0.000000e+00 0.000000e+00 0.000000e+00 4.767507e+00 3.235578e+01 0.000000e+00 3.235578e+01 4.447573e+01 0.000000e+00 0.000000e+00 0.000000e+00 0.000000e+00 1.212067e+01 4.926634e+01 0.000000e+00 4.926634e+01 2.308586e+01 0.000000e+00 0.000000e+00 0.000000e+00 0.000000e+00 </DataArray>
 <DataArray type="Float64" Name="IST_StrainTensor" NumberOfComponents="9" format="ascii"> 1.254184e-05 2.520171e-05 0.000000e+00 2.520171e-05 -1.865790e-05 0.000000e+00 0.000000e+00 0.000000e+00 0.000000e+00 3.224804e-05 1.108250e-04 0.000000e+00 1.108250e-04 -5.744593e-05 0.000000e+00 0.000000e+00 0.000000e+00 0.000000e+00 -2.112056e-06 2.266932e-05 0.000000e+00 2.266932e-05 -1.788963e-05 0.000000e+00 0.000000e+00 0.000000e+00 0.000000e+00 -1.239839e-05 1.083279e-05 0.000000e+00 1.083279e-05 -2.550214e-05 0.000000e+00 0.000000e+00 0.000000e+00 0.000000e+00 -9.869499e-06 -5.220806e-07 0.000000e+00 -5.220806e-07 -4.499050e-05 0.000000e+00 0.000000e+00 0.000000e+00 0.000000e+00 5.898014e-06 -6.165718e-06 0.000000e+00 -6.165718e-06 -8.080938e-05 0.000000e+00 0.000000e+00 0.000000e+00 0.000000e+00 4.137399e-05 2.178081e-05 0.000000e+00 2.178081e-05 -1.274663e-04 0.000000e+00 0.000000e+00 0.000000e+00 0.000000e+00 5.356230e-05 6.460553e-05 0.000000e+00 6.460553e-05 -1.475200e-04 0.000000e+00 0.000000e+00 0.000000e+00 0.000000e+00 5.182411e-05 1.270718e-04 0.000000e+00 1.270718e-04 -1.502973e-04 0.000000e+00 0.000000e+00 0.000000e+00 0.000000e+00 4.005768e-05 1.700227e-04 0.000000e+00 1.700227e-04 -1.341041e-04 0.000000e+00 0.000000e+00 0.000000e+00 0.000000e+00 2.196419e-05 2.081253e-04 0.000000e+00 2.081253e-04 -1.147531e-04 0.000000e+00 0.000000e+00 0.000000e+00 0.000000e+00 -6.971727e-06 2.391441e-04 0.000000e+00 2.391441e-04 -7.439679e-05 0.000000e+00 0.000000e+00 0.000000e+00 0.000000e+00 -2.269661e-05 2.444292e-04 0.000000e+00 2.444292e-04 -3.783220e-05 0.000000e+00 0.000000e+00 0.000000e+00 0.000000e+00 -2.008071e-05 2.303749e-04 0.000000e+00 2.303749e-04 -1.438015e-05 0.000000e+00 0.000000e+00 0.000000e+00 0.000000e+00 6.684948e-06 2.147890e-04 0.000000e+00 2.147890e-04 -1.284075e-05 0.000000e+00 0.000000e+00 0.000000e+00 0.000000e+00 3.908793e-05 2.103881e-04 0.000000e+00 2.103881e-04 -1.970972e-05 0.000000e+00 0.000000e+00 0.000000e+00 0.000000e+00 6.968001e-05 2.143244e-04 0.000000e+00 2.143244e-04 -2.527538e-05 0.000000e+00 0.000000e+00 0.000000e+00 0.000000e+00 8.240420e-05 2.198162e-04 0.000000e+00 2.198162e-04 -1.990987e-05 0.000000e+00 0.000000e+00 0.000000e+00 0.000000e+00 7.900854e-05 2.188111e-04 0.000000e+00 2.188111e-04 -4.233523e-07 0.000000e+00 0.000000e+00 0.000000e+00 0.000000e+00 6.835874e-05 2.065000e-04 0.000000e+00 2.065000e-04 2.536457e-05 0.000000e+00 0.000000e+00 0.000000e+00 0.000000e+00 3.572520e-05 1.922357e-04 0.000000e+00 1.922357e-04 6.641473e-05 0.000000e+00 0.000000e+00 0.000000e+00 0.000000e+00 -1.077096e-05 1.390323e-04 0.000000e+00 1.390323e-04 9.926092e-05 0.000000e+00 0.000000e+00 0.000000e+00 0.000000e+00 -1.340487e-05 8.417796e-05 0.000000e+00 8.417796e-05 1.018946e-04 0.000000e+00 0.000000e+00 0.000000e+00 0.000000e+00 -2.527240e-05 3.590685e-05 0.000000e+00 3.590685e-05 9.647508e-05 0.000000e+00 0.000000e+00 0.000000e+00 0.000000e+00 -8.080191e-06 -7.759102e-06 0.000000e+00 -7.759102e-06 7.878408e-05 0.000000e+00 0.000000e+00 0.000000e+00 0.000000e+00 2.239636e-05 -2.775852e-05 0.000000e+00 -2.775852e-05 3.245192e-05 0.000000e+00 0.000000e+00 0.000000e+00 0.000000e+00 3.837339e-05 -1.999639e-05 0.000000e+00 -1.999639e-05 2.187519e-06 0.000000e+00 0.000000e+00 0.000000e+00 0.000000e+00 4.343337e-05 -1.206035e-06 0.000000e+00 -1.206035e-06 -1.860678e-05 0.000000e+00 0.000000e+00 0.000000e+00 0.000000e+00 3.368250e-05 1.643108e-05 0.000000e+00 1.643108e-05 -2.171950e-05 0.000000e+00 0.000000e+00 0.000000e+00 0.000000e+00 1.165235e-04 2.869220e-05 0.000000e+00 2.869220e-05 -3.658173e-04 0.000000e+00 0.000000e+00 0.000000e+00 0.000000e+00 5.451867e-06 2.310325e-05 0.000000e+00 2.310325e-05 -1.966098e-05 0.000000e+00 0.000000e+00 0.000000e+00 0.000000e+00 -1.134005e-05 1.474076e-06 0.000000e+00 1.474076e-06 -3.842336e-05 0.000000e+00 0.000000e+00 0.000000e+00 0.000000e+00 2.807119e-05 -5.805696e-06 0.000000e+00 -5.805696e-06 -1.223682e-04 0.000000e+00 0.000000e+00 0.000000e+00 0.000000e+00 6.902541e-05 9.645053e-05 0.000000e+00 9.645053e-05 -1.751377e-04 0.000000e+00 0.000000e+00 0.000000e+00 0.000000e+00 5.449446e-05 1.969816e-04 0.000000e+00 1.969816e-04 -1.485713e-04 0.000000e+00 0.000000e+00 0.000000e+00 0.000000e+00 -7.201196e-06 2.586514e-04 0.000000e+00 2.586514e-04 -6.479779e-05 0.000000e+00 0.000000e+00 0.000000e+00 0.000000e+00 -1.076612e-05 2.231761e-04 0.000000e+00 2.231761e-04 -1.629377e-05 0.000000e+00 0.000000e+00 0.000000e+00 0.000000e+00 5.813439e-05 2.121184e-04 0.000000e+00 2.121184e-04 -2.575269e-05 0.000000e+00 0.000000e+00 0.000000e+00 0.000000e+00 7.607396e-05 2.304118e-04 0.000000e+00 2.304118e-04 -9.425918e-07 0.000000e+00 0.000000e+00 0.000000e+00 0.000000e+00 5.757699e-05 2.162032e-04 0.000000e+00 2.162032e-04 3.199632e-05 0.000000e+00 0.000000e+00 0.000000e+00 0.000000e+00 3.717939e-06 1.849431e-04 0.000000e+00 1.849431e-04 1.038844e-04 0.000000e+00 0.000000e+00 0.000000e+00 0.000000e+00 -4.168076e-05 9.805148e-05 0.000000e+00 9.805148e-05 1.365687e-04 0.000000e+00 0.000000e+00 0.000000e+00 0.000000e+00 -3.277938e-05 1.690671e-05 0.000000e+00 1.690671e-05 1.214386e-04 0.000000e+00 0.000000e+00 0.000000e+00 0.000000e+00 3.408413e-05 -3.282428e-05 0.000000e+00 -3.282428e-05 1.913980e-05 0.000000e+00 0.000000e+00 0.000000e+00 0.000000e+00 4.578710e-05 7.451085e-06 0.000000e+00 7.451085e-06 -2.252288e-05 0.000000e+00 0.000000e+00 0.000000e+00 0.000000e+00 2.300868e-05 2.234249e-05 0.000000e+00 2.234249e-05 -2.069089e-05 0.000000e+00 0.000000e+00 0.000000e+00 0.000000e+00 8.732958e-05 2.971569e-04 0.000000e+00 2.971569e-04 -2.878957e-04 0.000000e+00 0.000000e+00 0.000000e+00 0.000000e+00 2.802786e-05 -1.124055e-04 0.000000e+00 -1.124055e-04 -5.443247e-05 0.000000e+00 0.000000e+00 0.000000e+00 0.000000e+00 -7.970676e-06 1.672884e-05 0.000000e+00 1.672884e-05 -2.281350e-05 0.000000e+00 0.000000e+00 0.000000e+00 0.000000e+00 -3.703736e-06 -1.333099e-05 0.000000e+00 -1.333099e-05 -6.902166e-05 0.000000e+00 0.000000e+00 0.000000e+00 0.000000e+00 7.331928e-05 3.376499e-05 0.000000e+00 3.376499e-05 -1.654871e-04 0.000000e+00 0.000000e+00 0.000000e+00 0.000000e+00 6.760647e-05 1.550690e-04 0.000000e+00 1.550690e-04 -1.672862e-04 0.000000e+00 0.000000e+00 0.000000e+00 0.000000e+00 1.753322e-05 2.358552e-04 0.000000e+00 2.358552e-04 -1.132329e-04 0.000000e+00 0.000000e+00 0.000000e+00 0.000000e+00 -2.748550e-05 2.447975e-04 0.000000e+00 2.447975e-04 -2.865233e-05 0.000000e+00 0.000000e+00 0.000000e+00 0.000000e+00 2.507936e-05 2.117038e-04 0.000000e+00 2.117038e-04 -1.992683e-05 0.000000e+00 0.000000e+00 0.000000e+00 0.000000e+00 7.659495e-05 2.236720e-04 0.000000e+00 2.236720e-04 -2.370210e-05 0.000000e+00 0.000000e+00 0.000000e+00 0.000000e+00 5.488887e-06 -2.466906e-05 0.000000e+00 -2.466906e-05 7.216093e-05 0.000000e+00 0.000000e+00 0.000000e+00 0.000000e+00 4.719570e-05 -1.484067e-05 0.000000e+00 -1.484067e-05 -7.165252e-06 0.000000e+00 0.000000e+00 0.000000e+00 0.000000e+00 -3.711313e-05 -8.703938e-05 0.000000e+00 -8.703938e-05 2.443692e-04 0.000000e+00 0.000000e+00 0.000000e+00 0.000000e+00 -2.861529e-06 -4.428741e-05 0.000000e+00 -4.428741e-05 -7.190925e-05 0.000000e+00 0.000000e+00 0.000000e+00 0.000000e+00 2.071322e-05 3.529341e-04 0.000000e+00 3.529341e-04 5.507120e-05 0.000000e+00 0.000000e+00 0.000000e+00 0.000000e+00 1.327107e-04 1.950308e-04 0.000000e+00 1.950308e-04 -2.462999e-04 0.000000e+00 0.000000e+00 0.000000e+00 0.000000e+00 -9.202204e-05 2.163120e-04 0.000000e+00 2.163120e-04 3.868155e-04 0.000000e+00 0.000000e+00 0.000000e+00 0.000000e+00 5.060824e-05 -3.108723e-05 0.000000e+00 -3.108723e-05 -1.950451e-04 0.000000e+00 0.000000e+00 0.000000e+00 0.000000e+00 1.079497e-04 8.209639e-05 0.000000e+00 8.209639e-05 -2.593523e-04 0.000000e+00 0.000000e+00 0.000000e+00 0.000000e+00 4.050796e-05 2.638485e-04 0.000000e+00 2.638485e-04 -1.693172e-04 0.000000e+00 0.000000e+00 0.000000e+00 0.000000e+00 1.768467e-06 2.385041e-04 0.000000e+00 2.385041e-04 -2.213345e-05 0.000000e+00 0.000000e+00 0.000000e+00 0.000000e+00 6.253724e-05 2.343078e-04 0.000000e+00 2.343078e-04 -2.520662e-05 0.000000e+00 0.000000e+00 0.000000e+00 0.000000e+00 8.061063e-07 -4.310071e-05 0.000000e+00 -4.310071e-05 1.175222e-04 0.000000e+00 0.000000e+00 0.000000e+00 0.000000e+00 -9.443506e-05 4.592313e-05 0.000000e+00 4.592313e-05 2.311306e-04 0.000000e+00 0.000000e+00 0.000000e+00 0.000000e+00 4.210292e-05 2.454383e-04 0.000000e+00 2.454383e-04 5.805664e-05 0.000000e+00 0.000000e+00 0.000000e+00 0.000000e+00 1.999113e-07 1.968864e-06 0.000000e+00 1.968864e-06 -3.590375e-05 0.000000e+00 0.000000e+00 0.000000e+00 0.000000e+00 2.087539e-05 8.476360e-06 0.000000e+00 8.476360e-06 -1.905506e-05 0.000000e+00 0.000000e+00 0.000000e+00 0.000000e+00 -2.487087e-05 2.802651e-04 0.000000e+00 2.802651e-04 -6.560932e-05 0.000000e+00 0.000000e+00 0.000000e+00 0.000000e+00 6.802065e-05 2.546721e-04 0.000000e+00 2.546721e-04 1.084465e-05 0.000000e+00 0.000000e+00 0.000000e+00 0.000000e+00 5.195936e-05 -3.617875e-05 0.000000e+00 -3.617875e-05 3.516041e-06 0.000000e+00 0.000000e+00 0.000000e+00 0.000000e+00 -4.083434e-05 2.002977e-04 0.000000e+00 2.002977e-04 2.049785e-04 0.000000e+00 0.000000e+00 0.000000e+00 0.000000e+00 2.473766e-05 3.049821e-04 0.000000e+00 3.049821e-04 9.261745e-05 0.000000e+00 0.000000e+00 0.000000e+00 0.000000e+00 </DataArray>
</PointData>
<CellData Scalars="" Vectors="" Tensors="" >
</CellData>
</Piece>
</UnstructuredGrid>
</VTKFile>