<!-- TimeStep 2 Computed 2021-08-30 at 9:26:11 -->
<VTKFile type="UnstructuredGrid" version="0.1" byte_order="LittleEndian">
<UnstructuredGrid>
<Piece NumberOfPoints="78" NumberOfCells="126">
<Points>
 <DataArray type="Float64" NumberOfComponents="3" format="ascii"> 3.225000e-02 1.380000e-02 0.000000e+00 2.600000e-02 1.380000e-02 0.000000e+00 3.209060e-02 1.520260e-02 0.000000e+00 3.166140e-02 1.644790e-02 0.000000e+00 3.086510e-02 1.772340e-02 0.000000e+00 2.972250e-02 1.882050e-02 0.000000e+00 2.860520e-02 1.948120e-02 0.000000e+00 2.719700e-02 1.993430e-02 0.000000e+00 2.590380e-02 2.004930e-02 0.000000e+00 2.457020e-02 1.988430e-02 0.000000e+00 2.332460e-02 1.944840e-02 0.000000e+00 2.208010e-02 1.866800e-02 0.000000e+00 2.105550e-02 1.762290e-02 0.000000e+00 2.030070e-02 1.636520e-02 0.000000e+00 1.988720e-02 1.510250e-02 0.000000e+00 1.975010e-02 1.376650e-02 0.000000e+00 1.990830e-02 1.240220e-02 0.000000e+00 2.036540e-02 1.109550e-02 0.000000e+00 2.111820e-02 9.897330e-03 0.000000e+00 2.206020e-02 8.948140e-03 0.000000e+00 2.327140e-02 8.177090e-03 0.000000e+00 2.473380e-02 7.679600e-03 0.000000e+00 2.609570e-02 7.550730e-03 0.000000e+00 2.739940e-02 7.708680e-03 0.000000e+00 2.878200e-02 8.203300e-03 0.000000e+00 2.990320e-02 8.918690e-03 0.000000e+00 3.088920e-02 9.906670e-03 0.000000e+00 3.160900e-02 1.104290e-02 0.000000e+00 3.210220e-02 1.244870e-02 0.000000e+00 2.689410e-02 1.574970e-02 0.000000e+00 3.106790e-02 1.432440e-02 0.000000e+00 3.021000e-02 1.633720e-02 0.000000e+00 2.868670e-02 1.830730e-02 0.000000e+00 2.656540e-02 1.903210e-02 0.000000e+00 2.429600e-02 1.840150e-02 0.000000e+00 2.232580e-02 1.734910e-02 0.000000e+00 2.134550e-02 1.546840e-02 0.000000e+00 2.081790e-02 1.316830e-02 0.000000e+00 2.195310e-02 1.090900e-02 0.000000e+00 2.270470e-02 9.754310e-03 0.000000e+00 2.419530e-02 9.293850e-03 0.000000e+00 2.596150e-02 8.901100e-03 0.000000e+00 2.746210e-02 9.203070e-03 0.000000e+00 2.953140e-02 1.029530e-02 0.000000e+00 3.074800e-02 1.222540e-02 0.000000e+00 3.125210e-02 1.326260e-02 0.000000e+00 2.444140e-02 1.534830e-02 0.000000e+00 2.824200e-02 1.402670e-02 0.000000e+00 3.096270e-02 1.549140e-02 0.000000e+00 2.939720e-02 1.737550e-02 0.000000e+00 2.763300e-02 1.864220e-02 0.000000e+00 2.545180e-02 1.869780e-02 0.000000e+00 2.312740e-02 1.819900e-02 0.000000e+00 2.154420e-02 1.657830e-02 0.000000e+00 2.110020e-02 1.424480e-02 0.000000e+00 2.133320e-02 1.208860e-02 0.000000e+00 2.874870e-02 9.422340e-03 0.000000e+00 3.038980e-02 1.108190e-02 0.000000e+00 2.729730e-02 1.228700e-02 0.000000e+00 2.872080e-02 1.592370e-02 0.000000e+00 2.397910e-02 1.338880e-02 0.000000e+00 2.523880e-02 1.708240e-02 0.000000e+00 2.551550e-02 1.212080e-02 0.000000e+00 2.798220e-02 1.720250e-02 0.000000e+00 2.657570e-02 1.763870e-02 0.000000e+00 2.373000e-02 1.698530e-02 0.000000e+00 2.265470e-02 1.460460e-02 0.000000e+00 2.213900e-02 1.328690e-02 0.000000e+00 2.808660e-02 1.066920e-02 0.000000e+00 2.649870e-02 1.061530e-02 0.000000e+00 2.345290e-02 1.070040e-02 0.000000e+00 2.981740e-02 1.494790e-02 0.000000e+00 2.996380e-02 1.344750e-02 0.000000e+00 2.269780e-02 1.602380e-02 0.000000e+00 2.278200e-02 1.202440e-02 0.000000e+00 2.912730e-02 1.205350e-02 0.000000e+00 2.495000e-02 1.058630e-02 0.000000e+00 2.416560e-02 1.177860e-02 0.000000e+00 </DataArray>
</Points>
<Cells>
 <DataArray type="Int32" Name="connectivity" format="ascii"> 0 2 30  3 4 31  5 6 32  7 8 33  9 10 34  11 12 35  13 14 36  15 16 37  17 18 38  18 19 39  38 18 39  19 20 39  20 21 40  21 22 41  40 21 41  22 23 41  23 24 42  25 26 43  27 28 44  28 0 45  44 28 45  0 30 45  1 29 46  29 1 47  2 3 48  4 5 49  6 7 50  8 9 51  10 11 52  12 13 53  14 15 54  16 17 55  41 23 42  20 40 39  24 25 56  26 27 57  47 1 58  29 47 59  2 48 30  1 46 60  31 4 49  32 6 50  33 8 51  34 10 52  35 12 53  36 14 54  37 16 55  42 24 56  46 29 61  48 3 31  49 5 32  50 7 33  51 9 34  52 11 35  53 13 36  54 15 37  55 17 38  58 1 62  1 60 62  57 27 44  56 25 43  26 57 43  49 32 63  32 50 63  50 33 64  63 50 64  33 51 64  51 34 61  34 52 65  61 34 65  52 35 65  66 73 36  36 54 66  54 37 67  66 54 67  37 55 67  42 56 68  41 42 69  42 68 69  38 39 70  69 76 41  39 40 70  56 43 68  29 59 63  60 46 66  31 49 59  63 64 29  46 61 65  48 31 71  30 48 71  31 59 71  59 47 71  59 49 63  51 61 64  30 71 72  71 47 72  35 53 73  67 55 74  55 38 74  38 70 74  43 57 75  47 58 75  60 66 67  35 73 65  57 44 75  75 58 68  43 75 68  60 67 74  68 58 69  69 58 62  30 72 45  75 44 72  72 47 75  53 36 73  46 65 73  70 40 76  45 72 44  60 74 77  66 46 73  77 74 70  60 77 62  61 29 64  77 70 76  40 41 76  62 77 76  76 69 62  </DataArray>
 <DataArray type="Int32" Name="offsets" format="ascii"> 3 6 9 12 15 18 21 24 27 30 33 36 39 42 45 48 51 54 57 60 63 66 69 72 75 78 81 84 87 90 93 96 99 102 105 108 111 114 117 120 123 126 129 132 135 138 141 144 147 150 153 156 159 162 165 168 171 174 177 180 183 186 189 192 195 198 201 204 207 210 213 216 219 222 225 228 231 234 237 240 243 246 249 252 255 258 261 264 267 270 273 276 279 282 285 288 291 294 297 300 303 306 309 312 315 318 321 324 327 330 333 336 339 342 345 348 351 354 357 360 363 366 369 372 375 378 </DataArray>
 <DataArray type="UInt8" Name="types" format="ascii"> 5 5 5 5 5 5 5 5 5 5 5 5 5 5 5 5 5 5 5 5 5 5 5 5 5 5 5 5 5 5 5 5 5 5 5 5 5 5 5 5 5 5 5 5 5 5 5 5 5 5 5 5 5 5 5 5 5 5 5 5 5 5 5 5 5 5 5 5 5 5 5 5 5 5 5 5 5 5 5 5 5 5 5 5 5 5 5 5 5 5 5 5 5 5 5 5 5 5 5 5 5 5 5 5 5 5 5 5 5 5 5 5 5 5 5 5 5 5 5 5 5 5 5 5 5 5 </DataArray>
</Cells>
<PointData Scalars="" Vectors="DisplacementVector " Tensors="IST_StressTensor IST_StrainTensor " >
 <DataArray type="Float64" Name="DisplacementVector" NumberOfComponents="3" format="ascii"> -1.153423e-06 8.961261e-06 0.000000e+00 -1.168690e-06 7.777778e-06 0.000000e+00 -1.455319e-06 8.923429e-06 0.000000e+00 -1.724833e-06 8.826130e-06 0.000000e+00 -2.003744e-06 8.645955e-06 0.000000e+00 -2.248076e-06 8.385088e-06 0.000000e+00 -2.400138e-06 8.124520e-06 0.000000e+00 -2.508599e-06 7.788583e-06 0.000000e+00 -2.541153e-06 7.472480e-06 0.000000e+00 -2.510784e-06 7.139268e-06 0.000000e+00 -2.419803e-06 6.824011e-06 0.000000e+00 -2.252946e-06 6.503623e-06 0.000000e+00 -2.027142e-06 6.235340e-06 0.000000e+00 -1.753895e-06 6.035334e-06 0.000000e+00 -1.477351e-06 5.925561e-06 0.000000e+00 -1.182826e-06 5.891082e-06 0.000000e+00 -8.797421e-07 5.936959e-06 0.000000e+00 -5.860295e-07 6.063715e-06 0.000000e+00 -3.127446e-07 6.269274e-06 0.000000e+00 -9.298071e-08 6.522856e-06 0.000000e+00 8.677082e-08 6.842831e-06 0.000000e+00 1.999574e-07 7.217470e-06 0.000000e+00 2.279031e-07 7.557655e-06 0.000000e+00 1.893942e-07 7.872010e-06 0.000000e+00 7.336564e-08 8.196677e-06 0.000000e+00 -8.943247e-08 8.451495e-06 0.000000e+00 -3.091448e-07 8.670070e-06 0.000000e+00 -5.580370e-07 8.826537e-06 0.000000e+00 -8.625579e-07 8.931629e-06 0.000000e+00 -1.569097e-06 7.836706e-06 0.000000e+00 -1.266919e-06 8.699669e-06 0.000000e+00 -1.698494e-06 8.506813e-06 0.000000e+00 -2.134281e-06 8.158387e-06 0.000000e+00 -2.312251e-06 7.652111e-06 0.000000e+00 -2.190765e-06 7.089767e-06 0.000000e+00 -1.971117e-06 6.577915e-06 0.000000e+00 -1.558901e-06 6.317484e-06 0.000000e+00 -1.043701e-06 6.179838e-06 0.000000e+00 -5.295865e-07 6.494878e-06 0.000000e+00 -2.676493e-07 6.698257e-06 0.000000e+00 -1.590392e-07 7.096745e-06 0.000000e+00 -7.805443e-08 7.540007e-06 0.000000e+00 -1.539233e-07 7.902765e-06 0.000000e+00 -4.016934e-07 8.372433e-06 0.000000e+00 -8.199896e-07 8.634733e-06 0.000000e+00 -1.040077e-06 8.742563e-06 0.000000e+00 -1.545816e-06 7.204322e-06 0.000000e+00 -1.206078e-06 8.102819e-06 0.000000e+00 -1.516726e-06 8.674325e-06 0.000000e+00 -1.925304e-06 8.323599e-06 0.000000e+00 -2.216913e-06 7.910915e-06 0.000000e+00 -2.247529e-06 7.380856e-06 0.000000e+00 -2.152724e-06 6.786835e-06 0.000000e+00 -1.803968e-06 6.369966e-06 0.000000e+00 -1.284536e-06 6.253100e-06 0.000000e+00 -7.979524e-07 6.322984e-06 0.000000e+00 -2.062850e-07 8.198047e-06 0.000000e+00 -5.727166e-07 8.559853e-06 0.000000e+00 -8.586712e-07 7.929565e-06 0.000000e+00 -1.606870e-06 8.189313e-06 0.000000e+00 -1.069936e-06 7.068136e-06 0.000000e+00 -1.897703e-06 7.360033e-06 0.000000e+00 -7.834330e-07 7.528600e-06 0.000000e+00 -1.886791e-06 8.020847e-06 0.000000e+00 -2.004248e-06 7.687454e-06 0.000000e+00 -1.892436e-06 6.967780e-06 0.000000e+00 -1.363524e-06 6.680732e-06 0.000000e+00 -1.061495e-06 6.540900e-06 0.000000e+00 -4.909626e-07 8.065621e-06 0.000000e+00 -4.689678e-07 7.703781e-06 0.000000e+00 -4.725766e-07 6.906859e-06 0.000000e+00 -1.399255e-06 8.427200e-06 0.000000e+00 -1.082724e-06 8.462333e-06 0.000000e+00 -1.687546e-06 6.689150e-06 0.000000e+00 -7.705933e-07 6.724126e-06 0.000000e+00 -7.939955e-07 8.287819e-06 0.000000e+00 -4.451529e-07 7.318445e-06 0.000000e+00 -7.070452e-07 7.114727e-06 0.000000e+00 </DataArray>
 <DataArray type="Float64" Name="IST_StressTensor" NumberOfComponents="9" format="ascii"> 1.780633e-01 4.523384e-01 0.000000e+00 4.523384e-01 -3.819320e-01 0.000000e+00 0.000000e+00 0.000000e+00 0.000000e+00 3.849810e-01 1.989167e+00 0.000000e+00 1.989167e+00 -1.224911e+00 0.000000e+00 0.000000e+00 0.000000e+00 0.000000e+00 -1.917678e-01 4.068853e-01 0.000000e+00 4.068853e-01 -4.749551e-01 0.000000e+00 0.000000e+00 0.000000e+00 0.000000e+00 -5.140778e-01 1.944347e-01 0.000000e+00 1.944347e-01 -7.492733e-01 0.000000e+00 0.000000e+00 0.000000e+00 0.000000e+00 -5.991448e-01 -9.370678e-03 0.000000e+00 -9.370678e-03 -1.229522e+00 0.000000e+00 0.000000e+00 0.000000e+00 0.000000e+00 -4.703795e-01 -1.106667e-01 0.000000e+00 -1.106667e-01 -2.026666e+00 0.000000e+00 0.000000e+00 0.000000e+00 0.000000e+00 8.036195e-02 3.909376e-01 0.000000e+00 3.909376e-01 -2.950104e+00 0.000000e+00 0.000000e+00 0.000000e+00 0.000000e+00 2.386228e-01 1.159586e+00 0.000000e+00 1.159586e+00 -3.370548e+00 0.000000e+00 0.000000e+00 0.000000e+00 0.000000e+00 1.726903e-01 2.280776e+00 0.000000e+00 2.280776e+00 -3.455130e+00 0.000000e+00 0.000000e+00 0.000000e+00 0.000000e+00 -4.450335e-03 3.051690e+00 0.000000e+00 3.051690e+00 -3.130431e+00 0.000000e+00 0.000000e+00 0.000000e+00 0.000000e+00 -3.195317e-01 3.735583e+00 0.000000e+00 3.735583e+00 -2.773431e+00 0.000000e+00 0.000000e+00 0.000000e+00 0.000000e+00 -7.510452e-01 4.292331e+00 0.000000e+00 4.292331e+00 -1.961239e+00 0.000000e+00 0.000000e+00 0.000000e+00 0.000000e+00 -8.729813e-01 4.387191e+00 0.000000e+00 4.387191e+00 -1.144646e+00 0.000000e+00 0.000000e+00 0.000000e+00 0.000000e+00 -6.255066e-01 4.134933e+00 0.000000e+00 4.134933e+00 -5.231888e-01 0.000000e+00 0.000000e+00 0.000000e+00 0.000000e+00 7.263391e-02 3.855187e+00 0.000000e+00 3.855187e+00 -2.778274e-01 0.000000e+00 0.000000e+00 0.000000e+00 0.000000e+00 8.506412e-01 3.776196e+00 0.000000e+00 3.776196e+00 -2.047012e-01 0.000000e+00 0.000000e+00 0.000000e+00 0.000000e+00 1.592241e+00 3.846847e+00 0.000000e+00 3.846847e+00 -1.120866e-01 0.000000e+00 0.000000e+00 0.000000e+00 0.000000e+00 1.959775e+00 3.945418e+00 0.000000e+00 3.945418e+00 1.233689e-01 0.000000e+00 0.000000e+00 0.000000e+00 0.000000e+00 2.022603e+00 3.927379e+00 0.000000e+00 3.927379e+00 5.969028e-01 0.000000e+00 0.000000e+00 0.000000e+00 0.000000e+00 1.947900e+00 3.706409e+00 0.000000e+00 3.706409e+00 1.176210e+00 0.000000e+00 0.000000e+00 0.000000e+00 0.000000e+00 1.426913e+00 3.450385e+00 0.000000e+00 3.450385e+00 1.977751e+00 0.000000e+00 0.000000e+00 0.000000e+00 0.000000e+00 4.873671e-01 2.495452e+00 0.000000e+00 2.495452e+00 2.462298e+00 0.000000e+00 0.000000e+00 0.000000e+00 0.000000e+00 4.400899e-01 1.510886e+00 0.000000e+00 1.510886e+00 2.509568e+00 0.000000e+00 0.000000e+00 0.000000e+00 0.000000e+00 9.410567e-02 6.444820e-01 0.000000e+00 6.444820e-01 2.279317e+00 0.000000e+00 0.000000e+00 0.000000e+00 0.000000e+00 3.988470e-01 -1.392659e-01 0.000000e+00 -1.392659e-01 1.957949e+00 0.000000e+00 0.000000e+00 0.000000e+00 0.000000e+00 8.238957e-01 -4.982299e-01 0.000000e+00 -4.982299e-01 1.004380e+00 0.000000e+00 0.000000e+00 0.000000e+00 0.000000e+00 1.000760e+00 -3.589095e-01 0.000000e+00 -3.589095e-01 3.512701e-01 0.000000e+00 0.000000e+00 0.000000e+00 0.000000e+00 9.705471e-01 -2.164678e-02 0.000000e+00 -2.164678e-02 -1.429941e-01 0.000000e+00 0.000000e+00 0.000000e+00 0.000000e+00 6.965807e-01 2.949168e-01 0.000000e+00 2.949168e-01 -2.978141e-01 0.000000e+00 0.000000e+00 0.000000e+00 0.000000e+00 1.738028e-01 5.149882e-01 0.000000e+00 5.149882e-01 -8.483596e+00 0.000000e+00 0.000000e+00 0.000000e+00 0.000000e+00 -1.144687e-02 4.146738e-01 0.000000e+00 4.146738e-01 -4.621903e-01 0.000000e+00 0.000000e+00 0.000000e+00 0.000000e+00 -5.863348e-01 2.645777e-02 0.000000e+00 2.645777e-02 -1.072446e+00 0.000000e+00 0.000000e+00 0.000000e+00 0.000000e+00 -2.215198e-01 -1.042048e-01 0.000000e+00 -1.042048e-01 -2.921714e+00 0.000000e+00 0.000000e+00 0.000000e+00 0.000000e+00 4.226689e-01 1.731163e+00 0.000000e+00 1.731163e+00 -3.959747e+00 0.000000e+00 0.000000e+00 0.000000e+00 0.000000e+00 2.544373e-01 3.535567e+00 0.000000e+00 3.535567e+00 -3.390333e+00 0.000000e+00 0.000000e+00 0.000000e+00 0.000000e+00 -6.830906e-01 4.642462e+00 0.000000e+00 4.642462e+00 -1.716876e+00 0.000000e+00 0.000000e+00 0.000000e+00 0.000000e+00 -4.013910e-01 4.005725e+00 0.000000e+00 4.005725e+00 -5.006053e-01 0.000000e+00 0.000000e+00 0.000000e+00 0.000000e+00 1.292528e+00 3.807253e+00 0.000000e+00 3.807253e+00 -2.131378e-01 0.000000e+00 0.000000e+00 0.000000e+00 0.000000e+00 1.943364e+00 4.135596e+00 0.000000e+00 4.135596e+00 5.610153e-01 0.000000e+00 0.000000e+00 0.000000e+00 0.000000e+00 1.722459e+00 3.880571e+00 0.000000e+00 3.880571e+00 1.263318e+00 0.000000e+00 0.000000e+00 0.000000e+00 0.000000e+00 8.944425e-01 3.319491e+00 0.000000e+00 3.319491e+00 2.692302e+00 0.000000e+00 0.000000e+00 0.000000e+00 0.000000e+00 -1.820942e-02 1.759898e+00 0.000000e+00 1.759898e+00 3.181139e+00 0.000000e+00 0.000000e+00 0.000000e+00 0.000000e+00 9.364595e-02 3.034537e-01 0.000000e+00 3.034537e-01 2.861661e+00 0.000000e+00 0.000000e+00 0.000000e+00 0.000000e+00 1.021181e+00 -5.891538e-01 0.000000e+00 -5.891538e-01 7.529498e-01 0.000000e+00 0.000000e+00 0.000000e+00 0.000000e+00 1.000775e+00 1.337374e-01 0.000000e+00 1.337374e-01 -2.253014e-01 0.000000e+00 0.000000e+00 0.000000e+00 0.000000e+00 4.308055e-01 4.010190e-01 0.000000e+00 4.010190e-01 -3.535459e-01 0.000000e+00 0.000000e+00 0.000000e+00 0.000000e+00 2.463755e-02 5.333586e+00 0.000000e+00 5.333586e+00 -6.710175e+00 0.000000e+00 0.000000e+00 0.000000e+00 0.000000e+00 2.999516e-01 -2.017535e+00 0.000000e+00 -2.017535e+00 -1.180106e+00 0.000000e+00 0.000000e+00 0.000000e+00 0.000000e+00 -3.798648e-01 3.002612e-01 0.000000e+00 3.002612e-01 -6.462745e-01 0.000000e+00 0.000000e+00 0.000000e+00 0.000000e+00 -6.259035e-01 -2.392742e-01 0.000000e+00 -2.392742e-01 -1.798277e+00 0.000000e+00 0.000000e+00 0.000000e+00 0.000000e+00 6.070038e-01 6.060383e-01 0.000000e+00 6.060383e-01 -3.679265e+00 0.000000e+00 0.000000e+00 0.000000e+00 0.000000e+00 4.466822e-01 2.783290e+00 0.000000e+00 2.783290e+00 -3.769340e+00 0.000000e+00 0.000000e+00 0.000000e+00 0.000000e+00 -4.214522e-01 4.233298e+00 0.000000e+00 4.233298e+00 -2.768536e+00 0.000000e+00 0.000000e+00 0.000000e+00 0.000000e+00 -9.251588e-01 4.393801e+00 0.000000e+00 4.393801e+00 -9.461021e-01 0.000000e+00 0.000000e+00 0.000000e+00 0.000000e+00 4.897771e-01 3.799812e+00 0.000000e+00 3.799812e+00 -3.180263e-01 0.000000e+00 0.000000e+00 0.000000e+00 0.000000e+00 1.781649e+00 4.014626e+00 0.000000e+00 4.014626e+00 -1.855414e-02 0.000000e+00 0.000000e+00 0.000000e+00 0.000000e+00 6.958248e-01 -4.427780e-01 0.000000e+00 -4.427780e-01 1.892503e+00 0.000000e+00 0.000000e+00 0.000000e+00 0.000000e+00 1.155029e+00 -2.663709e-01 0.000000e+00 -2.663709e-01 1.793194e-01 0.000000e+00 0.000000e+00 0.000000e+00 0.000000e+00 9.281445e-01 -1.562245e+00 0.000000e+00 -1.562245e+00 5.980392e+00 0.000000e+00 0.000000e+00 0.000000e+00 0.000000e+00 -6.265206e-01 -7.949021e-01 0.000000e+00 -7.949021e-01 -1.865839e+00 0.000000e+00 0.000000e+00 0.000000e+00 0.000000e+00 9.547328e-01 6.334714e+00 0.000000e+00 6.334714e+00 1.571415e+00 0.000000e+00 0.000000e+00 0.000000e+00 0.000000e+00 1.508224e+00 3.500553e+00 0.000000e+00 3.500553e+00 -5.294531e+00 0.000000e+00 0.000000e+00 0.000000e+00 0.000000e+00 6.159640e-01 3.882523e+00 0.000000e+00 3.882523e+00 9.210483e+00 0.000000e+00 0.000000e+00 0.000000e+00 0.000000e+00 -2.026996e-01 -5.579759e-01 0.000000e+00 -5.579759e-01 -4.611862e+00 0.000000e+00 0.000000e+00 0.000000e+00 0.000000e+00 7.729236e-01 1.473525e+00 0.000000e+00 1.473525e+00 -5.819676e+00 0.000000e+00 0.000000e+00 0.000000e+00 0.000000e+00 -2.637741e-01 4.735742e+00 0.000000e+00 4.735742e+00 -4.029866e+00 0.000000e+00 0.000000e+00 0.000000e+00 0.000000e+00 -1.249120e-01 4.280842e+00 0.000000e+00 4.280842e+00 -5.539209e-01 0.000000e+00 0.000000e+00 0.000000e+00 0.000000e+00 1.409622e+00 4.205525e+00 0.000000e+00 4.205525e+00 -1.652679e-01 0.000000e+00 0.000000e+00 0.000000e+00 0.000000e+00 9.246860e-01 -7.736024e-01 0.000000e+00 -7.736024e-01 3.019589e+00 0.000000e+00 0.000000e+00 0.000000e+00 0.000000e+00 -6.434845e-01 8.242612e-01 0.000000e+00 8.242612e-01 5.200001e+00 0.000000e+00 0.000000e+00 0.000000e+00 0.000000e+00 1.526152e+00 4.405304e+00 0.000000e+00 4.405304e+00 1.812500e+00 0.000000e+00 0.000000e+00 0.000000e+00 0.000000e+00 -2.710567e-01 3.533858e-02 0.000000e+00 3.533858e-02 -9.190711e-01 0.000000e+00 0.000000e+00 0.000000e+00 0.000000e+00 3.886890e-01 1.521398e-01 0.000000e+00 1.521398e-01 -3.280114e-01 0.000000e+00 0.000000e+00 0.000000e+00 0.000000e+00 -1.142402e+00 5.030398e+00 0.000000e+00 5.030398e+00 -1.873605e+00 0.000000e+00 0.000000e+00 0.000000e+00 0.000000e+00 1.827540e+00 4.571037e+00 0.000000e+00 4.571037e+00 8.013037e-01 0.000000e+00 0.000000e+00 0.000000e+00 0.000000e+00 1.359338e+00 -6.493622e-01 0.000000e+00 -6.493622e-01 4.898423e-01 0.000000e+00 0.000000e+00 0.000000e+00 0.000000e+00 5.297230e-01 3.595087e+00 0.000000e+00 3.595087e+00 4.941747e+00 0.000000e+00 0.000000e+00 0.000000e+00 0.000000e+00 1.346741e+00 5.474038e+00 0.000000e+00 5.474038e+00 2.565096e+00 0.000000e+00 0.000000e+00 0.000000e+00 0.000000e+00 </DataArray>
 <DataArray type="Float64" Name="IST_StrainTensor" NumberOfComponents="9" format="ascii"> 1.393538e-06 2.800190e-06 0.000000e+00 2.800190e-06 -2.073100e-06 0.000000e+00 0.000000e+00 0.000000e+00 0.000000e+00 3.583115e-06 1.231389e-05 0.000000e+00 1.231389e-05 -6.382881e-06 0.000000e+00 0.000000e+00 0.000000e+00 0.000000e+00 -2.346729e-07 2.518813e-06 0.000000e+00 2.518813e-06 -1.987737e-06 0.000000e+00 0.000000e+00 0.000000e+00 0.000000e+00 -1.377599e-06 1.203643e-06 0.000000e+00 1.203643e-06 -2.833571e-06 0.000000e+00 0.000000e+00 0.000000e+00 0.000000e+00 -1.096611e-06 -5.800896e-08 0.000000e+00 -5.800896e-08 -4.998944e-06 0.000000e+00 0.000000e+00 0.000000e+00 0.000000e+00 6.553349e-07 -6.850798e-07 0.000000e+00 -6.850798e-07 -8.978820e-06 0.000000e+00 0.000000e+00 0.000000e+00 0.000000e+00 4.597110e-06 2.420090e-06 0.000000e+00 2.420090e-06 -1.416292e-05 0.000000e+00 0.000000e+00 0.000000e+00 0.000000e+00 5.951367e-06 7.178392e-06 0.000000e+00 7.178392e-06 -1.639112e-05 0.000000e+00 0.000000e+00 0.000000e+00 0.000000e+00 5.758234e-06 1.411909e-05 0.000000e+00 1.411909e-05 -1.669970e-05 0.000000e+00 0.000000e+00 0.000000e+00 0.000000e+00 4.450853e-06 1.889141e-05 0.000000e+00 1.889141e-05 -1.490046e-05 0.000000e+00 0.000000e+00 0.000000e+00 0.000000e+00 2.440465e-06 2.312504e-05 0.000000e+00 2.312504e-05 -1.275034e-05 0.000000e+00 0.000000e+00 0.000000e+00 0.000000e+00 -7.746363e-07 2.657157e-05 0.000000e+00 2.657157e-05 -8.266310e-06 0.000000e+00 0.000000e+00 0.000000e+00 0.000000e+00 -2.521846e-06 2.715880e-05 0.000000e+00 2.715880e-05 -4.203578e-06 0.000000e+00 0.000000e+00 0.000000e+00 0.000000e+00 -2.231190e-06 2.559721e-05 0.000000e+00 2.559721e-05 -1.597794e-06 0.000000e+00 0.000000e+00 0.000000e+00 0.000000e+00 7.427720e-07 2.386544e-05 0.000000e+00 2.386544e-05 -1.426750e-06 0.000000e+00 0.000000e+00 0.000000e+00 0.000000e+00 4.343103e-06 2.337645e-05 0.000000e+00 2.337645e-05 -2.189969e-06 0.000000e+00 0.000000e+00 0.000000e+00 0.000000e+00 7.742223e-06 2.381382e-05 0.000000e+00 2.381382e-05 -2.808376e-06 0.000000e+00 0.000000e+00 0.000000e+00 0.000000e+00 9.156022e-06 2.442402e-05 0.000000e+00 2.442402e-05 -2.212208e-06 0.000000e+00 0.000000e+00 0.000000e+00 0.000000e+00 8.778727e-06 2.431235e-05 0.000000e+00 2.431235e-05 -4.703914e-08 0.000000e+00 0.000000e+00 0.000000e+00 0.000000e+00 7.595416e-06 2.294444e-05 0.000000e+00 2.294444e-05 2.818286e-06 0.000000e+00 0.000000e+00 0.000000e+00 0.000000e+00 3.969467e-06 2.135952e-05 0.000000e+00 2.135952e-05 7.379415e-06 0.000000e+00 0.000000e+00 0.000000e+00 0.000000e+00 -1.196773e-06 1.544803e-05 0.000000e+00 1.544803e-05 1.102899e-05 0.000000e+00 0.000000e+00 0.000000e+00 0.000000e+00 -1.489430e-06 9.353106e-06 0.000000e+00 9.353106e-06 1.132162e-05 0.000000e+00 0.000000e+00 0.000000e+00 0.000000e+00 -2.808045e-06 3.989650e-06 0.000000e+00 3.989650e-06 1.071945e-05 0.000000e+00 0.000000e+00 0.000000e+00 0.000000e+00 -8.977990e-07 -8.621224e-07 0.000000e+00 -8.621224e-07 8.753787e-06 0.000000e+00 0.000000e+00 0.000000e+00 0.000000e+00 2.488484e-06 -3.084280e-06 0.000000e+00 -3.084280e-06 3.605769e-06 0.000000e+00 0.000000e+00 0.000000e+00 0.000000e+00 4.263710e-06 -2.221821e-06 0.000000e+00 -2.221821e-06 2.430576e-07 0.000000e+00 0.000000e+00 0.000000e+00 0.000000e+00 4.825930e-06 -1.340039e-07 0.000000e+00 -1.340039e-07 -2.067420e-06 0.000000e+00 0.000000e+00 0.000000e+00 0.000000e+00 3.742500e-06 1.825675e-06 0.000000e+00 1.825675e-06 -2.413278e-06 0.000000e+00 0.000000e+00 0.000000e+00 0.000000e+00 1.294706e-05 3.188022e-06 0.000000e+00 3.188022e-06 -4.064637e-05 0.000000e+00 0.000000e+00 0.000000e+00 0.000000e+00 6.057629e-07 2.567028e-06 0.000000e+00 2.567028e-06 -2.184553e-06 0.000000e+00 0.000000e+00 0.000000e+00 0.000000e+00 -1.260006e-06 1.637862e-07 0.000000e+00 1.637862e-07 -4.269262e-06 0.000000e+00 0.000000e+00 0.000000e+00 0.000000e+00 3.119021e-06 -6.450774e-07 0.000000e+00 -6.450774e-07 -1.359647e-05 0.000000e+00 0.000000e+00 0.000000e+00 0.000000e+00 7.669490e-06 1.071673e-05 0.000000e+00 1.071673e-05 -1.945975e-05 0.000000e+00 0.000000e+00 0.000000e+00 0.000000e+00 6.054940e-06 2.188684e-05 0.000000e+00 2.188684e-05 -1.650793e-05 0.000000e+00 0.000000e+00 0.000000e+00 0.000000e+00 -8.001329e-07 2.873905e-05 0.000000e+00 2.873905e-05 -7.199754e-06 0.000000e+00 0.000000e+00 0.000000e+00 0.000000e+00 -1.196235e-06 2.479735e-05 0.000000e+00 2.479735e-05 -1.810419e-06 0.000000e+00 0.000000e+00 0.000000e+00 0.000000e+00 6.459377e-06 2.356871e-05 0.000000e+00 2.356871e-05 -2.861410e-06 0.000000e+00 0.000000e+00 0.000000e+00 0.000000e+00 8.452662e-06 2.560131e-05 0.000000e+00 2.560131e-05 -1.047324e-07 0.000000e+00 0.000000e+00 0.000000e+00 0.000000e+00 6.397443e-06 2.402258e-05 0.000000e+00 2.402258e-05 3.555147e-06 0.000000e+00 0.000000e+00 0.000000e+00 0.000000e+00 4.131043e-07 2.054923e-05 0.000000e+00 2.054923e-05 1.154271e-05 0.000000e+00 0.000000e+00 0.000000e+00 0.000000e+00 -4.631196e-06 1.089461e-05 0.000000e+00 1.089461e-05 1.517429e-05 0.000000e+00 0.000000e+00 0.000000e+00 0.000000e+00 -3.642154e-06 1.878523e-06 0.000000e+00 1.878523e-06 1.349318e-05 0.000000e+00 0.000000e+00 0.000000e+00 0.000000e+00 3.787125e-06 -3.647143e-06 0.000000e+00 -3.647143e-06 2.126645e-06 0.000000e+00 0.000000e+00 0.000000e+00 0.000000e+00 5.087455e-06 8.278983e-07 0.000000e+00 8.278983e-07 -2.502543e-06 0.000000e+00 0.000000e+00 0.000000e+00 0.000000e+00 2.556520e-06 2.482499e-06 0.000000e+00 2.482499e-06 -2.298988e-06 0.000000e+00 0.000000e+00 0.000000e+00 0.000000e+00 9.703286e-06 3.301744e-05 0.000000e+00 3.301744e-05 -3.198841e-05 0.000000e+00 0.000000e+00 0.000000e+00 0.000000e+00 3.114206e-06 -1.248950e-05 0.000000e+00 -1.248950e-05 -6.048052e-06 0.000000e+00 0.000000e+00 0.000000e+00 0.000000e+00 -8.856307e-07 1.858760e-06 0.000000e+00 1.858760e-06 -2.534834e-06 0.000000e+00 0.000000e+00 0.000000e+00 0.000000e+00 -4.115262e-07 -1.481221e-06 0.000000e+00 -1.481221e-06 -7.669074e-06 0.000000e+00 0.000000e+00 0.000000e+00 0.000000e+00 8.146587e-06 3.751665e-06 0.000000e+00 3.751665e-06 -1.838746e-05 0.000000e+00 0.000000e+00 0.000000e+00 0.000000e+00 7.511830e-06 1.722989e-05 0.000000e+00 1.722989e-05 -1.858736e-05 0.000000e+00 0.000000e+00 0.000000e+00 0.000000e+00 1.948136e-06 2.620613e-05 0.000000e+00 2.620613e-05 -1.258143e-05 0.000000e+00 0.000000e+00 0.000000e+00 0.000000e+00 -3.053944e-06 2.719972e-05 0.000000e+00 2.719972e-05 -3.183593e-06 0.000000e+00 0.000000e+00 0.000000e+00 0.000000e+00 2.786595e-06 2.352265e-05 0.000000e+00 2.352265e-05 -2.214093e-06 0.000000e+00 0.000000e+00 0.000000e+00 0.000000e+00 8.510550e-06 2.485245e-05 0.000000e+00 2.485245e-05 -2.633566e-06 0.000000e+00 0.000000e+00 0.000000e+00 0.000000e+00 6.098763e-07 -2.741007e-06 0.000000e+00 -2.741007e-06 8.017882e-06 0.000000e+00 0.000000e+00 0.000000e+00 0.000000e+00 5.243967e-06 -1.648963e-06 0.000000e+00 -1.648963e-06 -7.961391e-07 0.000000e+00 0.000000e+00 0.000000e+00 0.000000e+00 -4.123682e-06 -9.671042e-06 0.000000e+00 -9.671042e-06 2.715214e-05 0.000000e+00 0.000000e+00 0.000000e+00 0.000000e+00 -3.179477e-07 -4.920823e-06 0.000000e+00 -4.920823e-06 -7.989916e-06 0.000000e+00 0.000000e+00 0.000000e+00 0.000000e+00 2.301469e-06 3.921490e-05 0.000000e+00 3.921490e-05 6.119022e-06 0.000000e+00 0.000000e+00 0.000000e+00 0.000000e+00 1.474563e-05 2.167009e-05 0.000000e+00 2.167009e-05 -2.736666e-05 0.000000e+00 0.000000e+00 0.000000e+00 0.000000e+00 -1.022467e-05 2.403467e-05 0.000000e+00 2.403467e-05 4.297950e-05 0.000000e+00 0.000000e+00 0.000000e+00 0.000000e+00 5.623138e-06 -3.454137e-06 0.000000e+00 -3.454137e-06 -2.167168e-05 0.000000e+00 0.000000e+00 0.000000e+00 0.000000e+00 1.199441e-05 9.121821e-06 0.000000e+00 9.121821e-06 -2.881692e-05 0.000000e+00 0.000000e+00 0.000000e+00 0.000000e+00 4.500885e-06 2.931650e-05 0.000000e+00 2.931650e-05 -1.881302e-05 0.000000e+00 0.000000e+00 0.000000e+00 0.000000e+00 1.964963e-07 2.650045e-05 0.000000e+00 2.650045e-05 -2.459273e-06 0.000000e+00 0.000000e+00 0.000000e+00 0.000000e+00 6.948582e-06 2.603420e-05 0.000000e+00 2.603420e-05 -2.800736e-06 0.000000e+00 0.000000e+00 0.000000e+00 0.000000e+00 8.956737e-08 -4.788967e-06 0.000000e+00 -4.788967e-06 1.305802e-05 0.000000e+00 0.000000e+00 0.000000e+00 0.000000e+00 -1.049278e-05 5.102570e-06 0.000000e+00 5.102570e-06 2.568117e-05 0.000000e+00 0.000000e+00 0.000000e+00 0.000000e+00 4.678102e-06 2.727093e-05 0.000000e+00 2.727093e-05 6.450738e-06 0.000000e+00 0.000000e+00 0.000000e+00 0.000000e+00 2.221236e-08 2.187627e-07 0.000000e+00 2.187627e-07 -3.989305e-06 0.000000e+00 0.000000e+00 0.000000e+00 0.000000e+00 2.319488e-06 9.418177e-07 0.000000e+00 9.418177e-07 -2.117229e-06 0.000000e+00 0.000000e+00 0.000000e+00 0.000000e+00 -2.763430e-06 3.114056e-05 0.000000e+00 3.114056e-05 -7.289925e-06 0.000000e+00 0.000000e+00 0.000000e+00 0.000000e+00 7.557850e-06 2.829690e-05 0.000000e+00 2.829690e-05 1.204961e-06 0.000000e+00 0.000000e+00 0.000000e+00 0.000000e+00 5.773262e-06 -4.019862e-06 0.000000e+00 -4.019862e-06 3.906712e-07 0.000000e+00 0.000000e+00 0.000000e+00 0.000000e+00 -4.537149e-06 2.225530e-05 0.000000e+00 2.225530e-05 2.277538e-05 0.000000e+00 0.000000e+00 0.000000e+00 0.000000e+00 2.748629e-06 3.388690e-05 0.000000e+00 3.388690e-05 1.029083e-05 0.000000e+00 0.000000e+00 0.000000e+00 0.000000e+00 </DataArray>
</PointData>
<CellData Scalars="" Vectors="" Tensors="" >
</CellData>
</Piece>
</UnstructuredGrid>
</VTKFile>