<!-- TimeStep 4 Computed 2021-08-30 at 9:26:11 -->
<VTKFile type="UnstructuredGrid" version="0.1" byte_order="LittleEndian">
<UnstructuredGrid>
<Piece NumberOfPoints="658" NumberOfCells="1187">
<Points>
 <DataArray type="Float64" NumberOfComponents="3" format="ascii"> 3.225000e-02 1.380000e-02 0.000000e+00 3.850000e-02 2.000000e-03 0.000000e+00 1.790000e-02 2.000000e-03 0.000000e+00 3.850000e-02 3.000000e-02 0.000000e+00 1.610000e-02 5.000000e-04 0.000000e+00 -2.400000e-02 3.000000e-02 0.000000e+00 0.000000e+00 0.000000e+00 0.000000e+00 -2.400000e-02 0.000000e+00 0.000000e+00 3.209060e-02 1.520260e-02 0.000000e+00 3.166140e-02 1.644790e-02 0.000000e+00 3.086510e-02 1.772340e-02 0.000000e+00 2.972250e-02 1.882050e-02 0.000000e+00 2.860520e-02 1.948120e-02 0.000000e+00 2.719700e-02 1.993430e-02 0.000000e+00 2.590380e-02 2.004930e-02 0.000000e+00 2.457020e-02 1.988430e-02 0.000000e+00 2.332460e-02 1.944840e-02 0.000000e+00 2.208010e-02 1.866800e-02 0.000000e+00 2.105550e-02 1.762290e-02 0.000000e+00 2.030070e-02 1.636520e-02 0.000000e+00 1.988720e-02 1.510250e-02 0.000000e+00 1.975010e-02 1.376650e-02 0.000000e+00 1.990830e-02 1.240220e-02 0.000000e+00 2.036540e-02 1.109550e-02 0.000000e+00 2.111820e-02 9.897330e-03 0.000000e+00 2.206020e-02 8.948140e-03 0.000000e+00 2.327140e-02 8.177090e-03 0.000000e+00 2.473380e-02 7.679600e-03 0.000000e+00 2.609570e-02 7.550730e-03 0.000000e+00 2.739940e-02 7.708680e-03 0.000000e+00 2.878200e-02 8.203300e-03 0.000000e+00 2.990320e-02 8.918690e-03 0.000000e+00 3.088920e-02 9.906670e-03 0.000000e+00 3.160900e-02 1.104290e-02 0.000000e+00 3.210220e-02 1.244870e-02 0.000000e+00 -2.400000e-02 2.335620e-02 0.000000e+00 -2.400000e-02 1.701100e-02 0.000000e+00 -2.400000e-02 1.072240e-02 0.000000e+00 -2.400000e-02 4.857510e-03 0.000000e+00 2.555380e-03 7.935950e-05 0.000000e+00 4.875910e-03 1.514260e-04 0.000000e+00 6.963700e-03 2.162640e-04 0.000000e+00 8.859870e-03 2.751510e-04 0.000000e+00 1.057630e-02 3.284580e-04 0.000000e+00 1.216970e-02 3.779410e-04 0.000000e+00 1.361520e-02 4.228320e-04 0.000000e+00 1.491400e-02 4.631670e-04 0.000000e+00 3.513720e-02 3.000000e-02 0.000000e+00 3.240430e-02 3.000000e-02 0.000000e+00 2.925060e-02 3.000000e-02 0.000000e+00 2.634890e-02 3.000000e-02 0.000000e+00 2.370540e-02 3.000000e-02 0.000000e+00 2.076670e-02 3.000000e-02 0.000000e+00 1.724780e-02 3.000000e-02 0.000000e+00 1.387080e-02 3.000000e-02 0.000000e+00 1.012770e-02 3.000000e-02 0.000000e+00 5.994200e-03 3.000000e-02 0.000000e+00 1.449760e-03 3.000000e-02 0.000000e+00 -3.587440e-03 3.000000e-02 0.000000e+00 -1.004840e-02 3.000000e-02 0.000000e+00 -1.697880e-02 3.000000e-02 0.000000e+00 1.699120e-02 1.242700e-03 0.000000e+00 3.850000e-02 5.026050e-03 0.000000e+00 3.850000e-02 7.576210e-03 0.000000e+00 3.850000e-02 9.994300e-03 0.000000e+00 3.850000e-02 1.226100e-02 0.000000e+00 3.850000e-02 1.414740e-02 0.000000e+00 3.850000e-02 1.624580e-02 0.000000e+00 3.850000e-02 1.834310e-02 0.000000e+00 3.850000e-02 2.066490e-02 0.000000e+00 3.850000e-02 2.323650e-02 0.000000e+00 3.850000e-02 2.633950e-02 0.000000e+00 1.914730e-02 2.000000e-03 0.000000e+00 2.068130e-02 2.000000e-03 0.000000e+00 2.253900e-02 2.000000e-03 0.000000e+00 2.480250e-02 2.000000e-03 0.000000e+00 2.727520e-02 2.000000e-03 0.000000e+00 3.001300e-02 2.000000e-03 0.000000e+00 3.284600e-02 2.000000e-03 0.000000e+00 3.556410e-02 2.000000e-03 0.000000e+00 -2.352000e-02 0.000000e+00 0.000000e+00 -2.304000e-02 0.000000e+00 0.000000e+00 -2.256000e-02 0.000000e+00 0.000000e+00 -2.208000e-02 0.000000e+00 0.000000e+00 -2.160000e-02 0.000000e+00 0.000000e+00 -2.112000e-02 0.000000e+00 0.000000e+00 -2.064000e-02 0.000000e+00 0.000000e+00 -2.016000e-02 0.000000e+00 0.000000e+00 -1.968000e-02 0.000000e+00 0.000000e+00 -1.920000e-02 0.000000e+00 0.000000e+00 -1.872000e-02 0.000000e+00 0.000000e+00 -1.824000e-02 0.000000e+00 0.000000e+00 -1.776000e-02 0.000000e+00 0.000000e+00 -1.728000e-02 0.000000e+00 0.000000e+00 -1.680000e-02 0.000000e+00 0.000000e+00 -1.632000e-02 0.000000e+00 0.000000e+00 -1.584000e-02 0.000000e+00 0.000000e+00 -1.536000e-02 0.000000e+00 0.000000e+00 -1.488000e-02 0.000000e+00 0.000000e+00 -1.440000e-02 0.000000e+00 0.000000e+00 -1.392000e-02 0.000000e+00 0.000000e+00 -1.344000e-02 0.000000e+00 0.000000e+00 -1.296000e-02 0.000000e+00 0.000000e+00 -1.248000e-02 0.000000e+00 0.000000e+00 -1.200000e-02 0.000000e+00 0.000000e+00 -1.152000e-02 0.000000e+00 0.000000e+00 -1.104000e-02 0.000000e+00 0.000000e+00 -1.056000e-02 0.000000e+00 0.000000e+00 -1.008000e-02 0.000000e+00 0.000000e+00 -9.600000e-03 0.000000e+00 0.000000e+00 -9.120000e-03 0.000000e+00 0.000000e+00 -8.640000e-03 0.000000e+00 0.000000e+00 -8.160000e-03 0.000000e+00 0.000000e+00 -7.680000e-03 0.000000e+00 0.000000e+00 -7.200000e-03 0.000000e+00 0.000000e+00 -6.720000e-03 0.000000e+00 0.000000e+00 -6.240000e-03 0.000000e+00 0.000000e+00 -5.760000e-03 0.000000e+00 0.000000e+00 -5.280000e-03 0.000000e+00 0.000000e+00 -4.800000e-03 0.000000e+00 0.000000e+00 -4.320000e-03 0.000000e+00 0.000000e+00 -3.840000e-03 0.000000e+00 0.000000e+00 -3.360000e-03 0.000000e+00 0.000000e+00 -2.880000e-03 0.000000e+00 0.000000e+00 -2.400000e-03 0.000000e+00 0.000000e+00 -1.920000e-03 0.000000e+00 0.000000e+00 -1.440000e-03 0.000000e+00 0.000000e+00 -9.600000e-04 0.000000e+00 0.000000e+00 -4.800000e-04 0.000000e+00 0.000000e+00 -2.340000e-02 5.208130e-04 0.000000e+00 -2.232960e-02 4.618260e-04 0.000000e+00 -2.136950e-02 4.810430e-04 0.000000e+00 -2.041540e-02 4.927590e-04 0.000000e+00 -1.945300e-02 4.966680e-04 0.000000e+00 -1.848070e-02 4.958900e-04 0.000000e+00 -1.751710e-02 4.691530e-04 0.000000e+00 -1.656600e-02 4.678350e-04 0.000000e+00 -1.561650e-02 4.775930e-04 0.000000e+00 -1.465390e-02 4.891080e-04 0.000000e+00 -1.370270e-02 4.971550e-04 0.000000e+00 -1.272340e-02 4.842530e-04 0.000000e+00 -1.178010e-02 4.967790e-04 0.000000e+00 -1.080540e-02 4.845440e-04 0.000000e+00 -9.864580e-03 4.765300e-04 0.000000e+00 -8.865750e-03 4.840670e-04 0.000000e+00 -7.905730e-03 5.011730e-04 0.000000e+00 -6.950840e-03 4.922920e-04 0.000000e+00 -6.019280e-03 4.246020e-04 0.000000e+00 -5.025350e-03 4.728720e-04 0.000000e+00 -4.065420e-03 4.835660e-04 0.000000e+00 -3.128960e-03 4.451670e-04 0.000000e+00 -2.171430e-03 4.762830e-04 0.000000e+00 -1.187460e-03 5.232410e-04 0.000000e+00 -1.169200e-04 6.148440e-04 0.000000e+00 5.857940e-03 1.696520e-03 0.000000e+00 9.466970e-03 1.890640e-03 0.000000e+00 1.285950e-02 1.842540e-03 0.000000e+00 1.567970e-02 1.589100e-03 0.000000e+00 1.654450e-02 2.586790e-03 0.000000e+00 1.870650e-02 3.039180e-03 0.000000e+00 2.161510e-02 3.508730e-03 0.000000e+00 2.644280e-02 3.572340e-03 0.000000e+00 3.127720e-02 3.918880e-03 0.000000e+00 3.629790e-02 5.896780e-03 0.000000e+00 3.653930e-02 1.078160e-02 0.000000e+00 3.658270e-02 1.517420e-02 0.000000e+00 3.649690e-02 1.966800e-02 0.000000e+00 3.564140e-02 2.453050e-02 0.000000e+00 3.471780e-02 2.738170e-02 0.000000e+00 3.097490e-02 2.763820e-02 0.000000e+00 2.500050e-02 2.778260e-02 0.000000e+00 1.911390e-02 2.734780e-02 0.000000e+00 1.195580e-02 2.690690e-02 0.000000e+00 3.452650e-03 2.633780e-02 0.000000e+00 -7.324260e-03 2.613160e-02 0.000000e+00 -1.270890e-02 2.610200e-02 0.000000e+00 -1.842590e-02 2.481480e-02 0.000000e+00 -2.078380e-02 2.023790e-02 0.000000e+00 3.351880e-02 1.299650e-02 0.000000e+00 3.321610e-02 1.125410e-02 0.000000e+00 3.240270e-02 9.708370e-03 0.000000e+00 3.124550e-02 8.531210e-03 0.000000e+00 2.994440e-02 7.484320e-03 0.000000e+00 2.846950e-02 6.692040e-03 0.000000e+00 2.682410e-02 6.398290e-03 0.000000e+00 2.522120e-02 6.457060e-03 0.000000e+00 2.358330e-02 6.768300e-03 0.000000e+00 2.202220e-02 7.395140e-03 0.000000e+00 2.065990e-02 8.488800e-03 0.000000e+00 1.961080e-02 9.755280e-03 0.000000e+00 1.888420e-02 1.131290e-02 0.000000e+00 1.849530e-02 1.294410e-02 0.000000e+00 1.849360e-02 1.454180e-02 0.000000e+00 1.881370e-02 1.618350e-02 0.000000e+00 1.956540e-02 1.777080e-02 0.000000e+00 2.064850e-02 1.913430e-02 0.000000e+00 2.199860e-02 2.018520e-02 0.000000e+00 2.351120e-02 2.085000e-02 0.000000e+00 2.512340e-02 2.121420e-02 0.000000e+00 2.667170e-02 2.118690e-02 0.000000e+00 2.831550e-02 2.085570e-02 0.000000e+00 2.991870e-02 2.021780e-02 0.000000e+00 3.132950e-02 1.919600e-02 0.000000e+00 3.236480e-02 1.776990e-02 0.000000e+00 3.311520e-02 1.621600e-02 0.000000e+00 3.347840e-02 1.467100e-02 0.000000e+00 -2.284400e-02 4.893670e-04 0.000000e+00 -2.185120e-02 4.651270e-04 0.000000e+00 -2.087950e-02 4.954800e-04 0.000000e+00 -1.992730e-02 4.905700e-04 0.000000e+00 -1.896440e-02 5.146960e-04 0.000000e+00 -1.799490e-02 4.750100e-04 0.000000e+00 -1.705020e-02 4.652250e-04 0.000000e+00 -1.607800e-02 4.701420e-04 0.000000e+00 -1.512950e-02 4.852050e-04 0.000000e+00 -1.419440e-02 4.972290e-04 0.000000e+00 -1.320410e-02 4.845360e-04 0.000000e+00 -1.225140e-02 4.886650e-04 0.000000e+00 -1.130790e-02 4.924130e-04 0.000000e+00 -1.033120e-02 4.774360e-04 0.000000e+00 -9.365120e-03 4.775410e-04 0.000000e+00 -8.389860e-03 4.925440e-04 0.000000e+00 -7.442720e-03 5.065380e-04 0.000000e+00 -6.466490e-03 4.625650e-04 0.000000e+00 -5.527350e-03 4.204680e-04 0.000000e+00 -4.553670e-03 4.855930e-04 0.000000e+00 -3.599350e-03 4.758930e-04 0.000000e+00 -2.637330e-03 4.397930e-04 0.000000e+00 -1.676010e-03 4.983490e-04 0.000000e+00 -6.774770e-04 5.559640e-04 0.000000e+00 4.116400e-03 1.544720e-03 0.000000e+00 7.691210e-03 1.775840e-03 0.000000e+00 1.126030e-02 1.890640e-03 0.000000e+00 1.429970e-02 1.759220e-03 0.000000e+00 1.756480e-02 3.582850e-03 0.000000e+00 1.998660e-02 3.276390e-03 0.000000e+00 2.393340e-02 3.733490e-03 0.000000e+00 2.887110e-02 3.696960e-03 0.000000e+00 3.388150e-02 4.409110e-03 0.000000e+00 3.644040e-02 8.532590e-03 0.000000e+00 3.666220e-02 1.303330e-02 0.000000e+00 3.624470e-02 1.730480e-02 0.000000e+00 3.612270e-02 2.204020e-02 0.000000e+00 1.561920e-02 2.705730e-02 0.000000e+00 2.783560e-02 2.771860e-02 0.000000e+00 2.222260e-02 2.767250e-02 0.000000e+00 7.971510e-03 2.667810e-02 0.000000e+00 -1.457570e-03 2.572150e-02 0.000000e+00 -2.083080e-02 1.620770e-02 0.000000e+00 -2.114540e-02 1.046000e-03 0.000000e+00 -2.018830e-02 1.019380e-03 0.000000e+00 -1.681430e-02 9.910220e-04 0.000000e+00 -1.776950e-02 9.521010e-04 0.000000e+00 -2.067570e-02 1.052860e-03 0.000000e+00 -1.727630e-02 9.377480e-04 0.000000e+00 -1.823140e-02 1.032910e-03 0.000000e+00 -1.298260e-02 9.876760e-04 0.000000e+00 -1.396810e-02 1.067390e-03 0.000000e+00 -2.457830e-03 9.476930e-04 0.000000e+00 -1.347010e-02 1.016030e-03 0.000000e+00 -1.445740e-02 1.046670e-03 0.000000e+00 -1.107320e-02 1.059790e-03 0.000000e+00 -1.011690e-02 9.539410e-04 0.000000e+00 -1.056780e-02 1.013760e-03 0.000000e+00 -1.157310e-02 1.056340e-03 0.000000e+00 -8.623990e-03 1.038970e-03 0.000000e+00 -6.189430e-03 9.536710e-04 0.000000e+00 -7.664510e-03 1.040370e-03 0.000000e+00 -6.660790e-03 1.046330e-03 0.000000e+00 -3.328320e-03 9.685660e-04 0.000000e+00 -4.327420e-03 1.042660e-03 0.000000e+00 -7.157010e-03 1.050700e-03 0.000000e+00 -3.803170e-03 1.020190e-03 0.000000e+00 -4.831560e-03 1.021450e-03 0.000000e+00 -2.891810e-03 8.524400e-04 0.000000e+00 8.485410e-03 3.432940e-03 0.000000e+00 -3.736620e-04 1.188990e-03 0.000000e+00 1.208400e-02 3.413080e-03 0.000000e+00 6.715380e-03 3.280840e-03 0.000000e+00 4.997270e-03 3.185510e-03 0.000000e+00 -9.151520e-04 1.111380e-03 0.000000e+00 1.030580e-02 3.489760e-03 0.000000e+00 2.705650e-03 1.522090e-03 0.000000e+00 2.039490e-02 4.933730e-03 0.000000e+00 1.519830e-02 3.004380e-03 0.000000e+00 1.884210e-02 4.425300e-03 0.000000e+00 3.358290e-02 2.277120e-02 0.000000e+00 2.225360e-02 5.511080e-03 0.000000e+00 3.485680e-02 1.890660e-02 0.000000e+00 3.491090e-02 1.193930e-02 0.000000e+00 3.000610e-02 5.643160e-03 0.000000e+00 3.235230e-02 5.887860e-03 0.000000e+00 -2.209940e-02 9.181730e-04 0.000000e+00 3.445720e-02 7.084320e-03 0.000000e+00 3.439750e-02 9.622150e-03 0.000000e+00 2.104510e-02 2.526260e-02 0.000000e+00 3.428480e-02 2.067350e-02 0.000000e+00 2.375500e-02 2.570570e-02 0.000000e+00 1.776660e-02 2.436660e-02 0.000000e+00 3.252570e-02 2.530750e-02 0.000000e+00 1.000040e-02 2.369430e-02 0.000000e+00 -5.222370e-03 2.226790e-02 0.000000e+00 2.623900e-02 2.582870e-02 0.000000e+00 1.372330e-02 2.413330e-02 0.000000e+00 -9.640430e-03 2.255880e-02 0.000000e+00 -1.822220e-02 1.811490e-02 0.000000e+00 -1.412820e-02 2.232400e-02 0.000000e+00 -2.161440e-02 9.727400e-04 0.000000e+00 -8.127090e-03 1.038090e-03 0.000000e+00 5.986810e-04 8.564660e-04 0.000000e+00 2.919940e-02 2.548060e-02 0.000000e+00 -2.219370e-02 1.372400e-02 0.000000e+00 -1.584900e-02 9.464230e-04 0.000000e+00 3.277780e-02 8.016360e-03 0.000000e+00 3.130570e-02 7.065650e-03 0.000000e+00 2.773290e-02 5.134820e-03 0.000000e+00 2.416750e-02 5.438660e-03 0.000000e+00 2.051830e-02 6.767480e-03 0.000000e+00 1.794570e-02 9.989900e-03 0.000000e+00 1.698810e-02 1.376450e-02 0.000000e+00 1.769270e-02 1.761110e-02 0.000000e+00 1.884300e-02 1.943280e-02 0.000000e+00 2.041690e-02 2.092300e-02 0.000000e+00 2.214210e-02 2.190840e-02 0.000000e+00 2.592160e-02 2.259040e-02 0.000000e+00 2.774100e-02 2.232700e-02 0.000000e+00 2.968140e-02 2.187400e-02 0.000000e+00 3.309810e-02 1.924490e-02 0.000000e+00 3.412190e-02 1.750290e-02 0.000000e+00 1.570410e-03 8.416660e-04 0.000000e+00 3.243440e-03 3.109830e-03 0.000000e+00 -2.011680e-02 1.340120e-02 0.000000e+00 1.924930e-03 2.296040e-03 0.000000e+00 -2.304690e-02 1.038930e-03 0.000000e+00 -1.921250e-02 1.069290e-03 0.000000e+00 -1.251460e-02 1.011640e-03 0.000000e+00 -1.632520e-02 9.725270e-04 0.000000e+00 -9.608800e-03 9.760010e-04 0.000000e+00 -5.775390e-03 8.260340e-04 0.000000e+00 1.949790e-04 1.244240e-03 0.000000e+00 1.366400e-02 3.254490e-03 0.000000e+00 -1.954400e-03 9.997400e-04 0.000000e+00 5.956210e-03 2.320340e-02 0.000000e+00 1.613680e-02 4.138020e-03 0.000000e+00 -2.159150e-02 1.135960e-02 0.000000e+00 -1.862070e-02 1.532320e-02 0.000000e+00 -1.969900e-02 1.013850e-03 0.000000e+00 -1.429360e-03 2.184690e-02 0.000000e+00 8.938000e-04 1.758100e-03 0.000000e+00 -1.739860e-02 2.105290e-02 0.000000e+00 3.503010e-02 1.390550e-02 0.000000e+00 -1.538560e-02 9.531990e-04 0.000000e+00 3.477560e-02 1.583430e-02 0.000000e+00 3.186090e-02 2.104080e-02 0.000000e+00 2.402810e-02 2.247280e-02 0.000000e+00 2.043580e-02 2.297850e-02 0.000000e+00 1.712150e-02 1.568790e-02 0.000000e+00 1.719890e-02 1.184250e-02 0.000000e+00 1.891820e-02 8.124710e-03 0.000000e+00 2.580970e-02 5.034100e-03 0.000000e+00 -2.258690e-02 9.559390e-04 0.000000e+00 -1.871690e-02 1.070390e-03 0.000000e+00 -1.490240e-02 9.781250e-04 0.000000e+00 -1.203480e-02 1.046550e-03 0.000000e+00 -9.143920e-03 1.022430e-03 0.000000e+00 -5.328750e-03 9.594130e-04 0.000000e+00 -1.443410e-03 1.043280e-03 0.000000e+00 1.969480e-03 2.272860e-02 0.000000e+00 -2.071300e-02 9.788950e-03 0.000000e+00 -1.958230e-02 1.116720e-02 0.000000e+00 -2.215760e-02 9.118380e-03 0.000000e+00 -1.941500e-02 9.053100e-03 0.000000e+00 -2.076380e-02 8.120110e-03 0.000000e+00 -2.092830e-02 1.670000e-03 0.000000e+00 -1.422850e-02 1.696350e-03 0.000000e+00 -4.658650e-03 1.607000e-03 0.000000e+00 -1.132350e-02 1.693630e-03 0.000000e+00 4.262890e-03 1.984380e-02 0.000000e+00 -6.266330e-03 1.609810e-03 0.000000e+00 9.347380e-03 5.186120e-03 0.000000e+00 -1.652640e-02 1.692530e-03 0.000000e+00 7.541480e-03 5.084430e-03 0.000000e+00 1.748270e-02 5.199610e-03 0.000000e+00 1.306590e-02 4.915860e-03 0.000000e+00 2.080530e-05 1.841260e-03 0.000000e+00 1.469850e-02 4.628130e-03 0.000000e+00 5.792460e-03 4.871950e-03 0.000000e+00 -6.440500e-04 1.784460e-03 0.000000e+00 1.127780e-02 5.148840e-03 0.000000e+00 1.085750e-03 2.955270e-03 0.000000e+00 -3.179300e-03 1.891810e-02 0.000000e+00 2.274260e-02 2.375350e-02 0.000000e+00 8.310980e-03 2.037610e-02 0.000000e+00 -1.755530e-02 1.298870e-02 0.000000e+00 -1.950490e-02 1.671430e-03 0.000000e+00 -1.797420e-02 1.554430e-03 0.000000e+00 -1.151340e-02 1.943950e-02 0.000000e+00 1.890250e-02 6.092260e-03 0.000000e+00 4.184220e-03 4.874160e-03 0.000000e+00 2.495010e-02 2.409630e-02 0.000000e+00 1.570090e-02 1.714030e-02 0.000000e+00 1.539290e-02 1.272360e-02 0.000000e+00 -1.622490e-02 1.607980e-02 0.000000e+00 -1.513740e-02 1.901560e-02 0.000000e+00 1.709160e-02 8.657140e-03 0.000000e+00 1.574290e-02 1.018820e-02 0.000000e+00 1.540270e-02 1.492700e-02 0.000000e+00 1.656690e-02 1.939380e-02 0.000000e+00 1.823450e-02 2.152830e-02 0.000000e+00 2.704170e-02 2.404070e-02 0.000000e+00 2.896550e-02 2.347080e-02 0.000000e+00 -1.967140e-02 7.179610e-03 0.000000e+00 -1.783480e-02 1.020500e-02 0.000000e+00 -7.187160e-03 1.861690e-02 0.000000e+00 -2.042350e-02 1.621020e-03 0.000000e+00 -8.891590e-03 1.690860e-03 0.000000e+00 -1.473500e-02 1.624080e-03 0.000000e+00 -1.708810e-02 1.535920e-03 0.000000e+00 -1.280550e-02 1.533350e-03 0.000000e+00 -6.817630e-03 1.658350e-03 0.000000e+00 -5.205250e-03 1.561040e-03 0.000000e+00 -1.185630e-03 1.677410e-03 0.000000e+00 -3.512550e-03 1.587410e-03 0.000000e+00 -1.032760e-02 1.560550e-03 0.000000e+00 -7.360100e-03 1.597090e-03 0.000000e+00 -1.324550e-02 1.468750e-03 0.000000e+00 -2.907030e-03 1.434130e-03 0.000000e+00 -1.996470e-02 1.519740e-03 0.000000e+00 1.931370e-03 3.789880e-03 0.000000e+00 -4.079750e-03 1.619410e-03 0.000000e+00 1.197440e-02 2.104740e-02 0.000000e+00 -1.897920e-02 1.758730e-03 0.000000e+00 -7.886370e-03 1.578040e-03 0.000000e+00 3.103830e-02 2.336140e-02 0.000000e+00 -5.761230e-03 1.376150e-03 0.000000e+00 1.734660e-02 6.968860e-03 0.000000e+00 -1.183840e-02 1.658460e-03 0.000000e+00 -8.375160e-03 1.643890e-03 0.000000e+00 1.398700e-02 1.888430e-02 0.000000e+00 -1.754320e-02 1.377420e-03 0.000000e+00 -2.145750e-02 1.634970e-03 0.000000e+00 -1.560810e-02 1.497140e-03 0.000000e+00 -1.845720e-02 1.726330e-03 0.000000e+00 5.418650e-04 1.925980e-02 0.000000e+00 -9.876720e-03 1.465750e-03 0.000000e+00 -2.303880e-03 1.532840e-03 0.000000e+00 2.755290e-03 5.104590e-03 0.000000e+00 -2.280550e-02 1.623090e-03 0.000000e+00 -1.606410e-02 1.427410e-03 0.000000e+00 -2.188640e-02 1.411010e-03 0.000000e+00 -2.094230e-02 6.373350e-03 0.000000e+00 -2.232220e-02 1.406430e-03 0.000000e+00 -1.081290e-02 1.633740e-03 0.000000e+00 -1.370450e-02 1.654570e-03 0.000000e+00 1.528360e-02 2.157820e-02 0.000000e+00 -2.187280e-02 7.259610e-03 0.000000e+00 -1.815370e-02 8.007390e-03 0.000000e+00 -2.242760e-02 5.441030e-03 0.000000e+00 -2.111880e-02 4.871500e-03 0.000000e+00 -2.197930e-02 4.152140e-03 0.000000e+00 -2.116740e-02 3.600850e-03 0.000000e+00 -2.203540e-02 3.076390e-03 0.000000e+00 -2.023470e-02 4.145160e-03 0.000000e+00 -2.127800e-02 2.452930e-03 0.000000e+00 -2.298410e-02 3.664980e-03 0.000000e+00 -2.270040e-02 2.460280e-03 0.000000e+00 -1.999070e-02 5.511250e-03 0.000000e+00 -2.206850e-02 2.053180e-03 0.000000e+00 -1.517820e-02 1.440220e-03 0.000000e+00 -1.231230e-02 1.598230e-03 0.000000e+00 6.595770e-03 1.685960e-02 0.000000e+00 -1.592540e-02 2.049480e-03 0.000000e+00 -9.423340e-03 1.617440e-03 0.000000e+00 -1.759700e-03 1.588040e-03 0.000000e+00 1.584660e-02 5.852590e-03 0.000000e+00 -1.573680e-02 1.125250e-02 0.000000e+00 1.028020e-02 7.063320e-03 0.000000e+00 -3.487310e-04 2.505800e-03 0.000000e+00 1.069450e-02 1.770910e-02 0.000000e+00 -1.474740e-02 1.397010e-02 0.000000e+00 -3.193340e-03 2.222860e-03 0.000000e+00 3.816860e-04 2.456360e-03 0.000000e+00 1.558350e-02 7.891870e-03 0.000000e+00 -2.062510e-02 2.214170e-03 0.000000e+00 -2.300510e-02 7.309920e-03 0.000000e+00 4.943630e-03 6.312230e-03 0.000000e+00 7.693650e-04 4.169100e-03 0.000000e+00 -2.045950e-02 3.007890e-03 0.000000e+00 -1.320390e-02 1.673890e-02 0.000000e+00 1.362080e-02 1.162150e-02 0.000000e+00 -1.951950e-02 3.249670e-03 0.000000e+00 8.291150e-03 7.213000e-03 0.000000e+00 -1.266920e-02 2.089280e-03 0.000000e+00 1.509320e-03 5.134000e-03 0.000000e+00 -1.527330e-02 2.093450e-03 0.000000e+00 2.634420e-03 1.638980e-02 0.000000e+00 -5.045840e-03 2.218060e-03 0.000000e+00 1.032670e-04 3.309100e-03 0.000000e+00 -7.065010e-03 2.281640e-03 0.000000e+00 -8.640040e-03 2.326170e-03 0.000000e+00 -9.974600e-04 2.426710e-03 0.000000e+00 -1.392370e-02 2.394960e-03 0.000000e+00 6.425320e-03 6.836580e-03 0.000000e+00 1.368060e-02 8.944580e-03 0.000000e+00 -1.324990e-02 2.163790e-03 0.000000e+00 3.459150e-03 6.713730e-03 0.000000e+00 1.420770e-02 6.458950e-03 0.000000e+00 -2.642010e-03 2.036210e-03 0.000000e+00 1.236770e-02 6.799520e-03 0.000000e+00 -2.000000e-02 2.247710e-03 0.000000e+00 -3.838250e-03 2.305580e-03 0.000000e+00 -1.048460e-02 2.166750e-03 0.000000e+00 -7.605190e-03 2.079640e-03 0.000000e+00 -1.458780e-02 2.330800e-03 0.000000e+00 -1.809020e-02 2.261400e-03 0.000000e+00 -1.160560e-02 2.374400e-03 0.000000e+00 -2.345370e-02 1.689690e-03 0.000000e+00 -1.919820e-02 4.653410e-03 0.000000e+00 -1.641330e-02 2.565530e-03 0.000000e+00 -1.756040e-02 1.950690e-03 0.000000e+00 -9.899080e-04 1.629390e-02 0.000000e+00 -1.101460e-02 2.356260e-03 0.000000e+00 1.356170e-02 1.392670e-02 0.000000e+00 -4.430740e-03 2.157270e-03 0.000000e+00 -1.934050e-02 2.352940e-03 0.000000e+00 -9.909980e-03 2.184850e-03 0.000000e+00 -4.350210e-03 1.600370e-02 0.000000e+00 -1.867810e-02 6.202350e-03 0.000000e+00 -1.219210e-02 2.273370e-03 0.000000e+00 -2.181920e-03 1.363960e-02 0.000000e+00 -1.701680e-02 2.237570e-03 0.000000e+00 -9.988580e-03 1.660220e-02 0.000000e+00 -9.258230e-03 2.324560e-03 0.000000e+00 -5.729720e-03 2.037550e-03 0.000000e+00 -1.647890e-02 9.011350e-03 0.000000e+00 -1.573620e-02 2.768090e-03 0.000000e+00 -1.315450e-02 1.204400e-02 0.000000e+00 -1.870420e-02 2.625320e-03 0.000000e+00 9.245580e-03 9.447760e-03 0.000000e+00 4.851590e-03 8.089660e-03 0.000000e+00 -8.097740e-03 2.235490e-03 0.000000e+00 -7.309900e-03 1.525420e-02 0.000000e+00 6.793080e-03 9.005710e-03 0.000000e+00 -1.852220e-02 3.799150e-03 0.000000e+00 1.357970e-02 1.634240e-02 0.000000e+00 -8.909860e-03 3.032160e-03 0.000000e+00 -1.788630e-02 5.150740e-03 0.000000e+00 -1.700150e-02 6.826470e-03 0.000000e+00 1.152840e-02 1.296890e-02 0.000000e+00 -6.360720e-03 2.399370e-03 0.000000e+00 4.561470e-03 1.344060e-02 0.000000e+00 8.747560e-03 1.435930e-02 0.000000e+00 1.156160e-02 1.514880e-02 0.000000e+00 -5.545620e-03 2.829420e-03 0.000000e+00 9.692160e-04 1.365760e-02 0.000000e+00 -5.239460e-03 1.322120e-02 0.000000e+00 -8.202260e-03 2.967140e-03 0.000000e+00 -1.709630e-02 3.087160e-03 0.000000e+00 1.709990e-03 6.891740e-03 0.000000e+00 -8.415540e-04 3.270690e-03 0.000000e+00 -6.923600e-03 3.038420e-03 0.000000e+00 -1.543670e-03 2.192360e-03 0.000000e+00 -1.207480e-02 3.051020e-03 0.000000e+00 -2.100420e-03 2.218900e-03 0.000000e+00 1.160490e-02 1.070880e-02 0.000000e+00 -1.533530e-02 7.875990e-03 0.000000e+00 -4.408490e-04 4.294140e-03 0.000000e+00 -1.183060e-02 1.440060e-02 0.000000e+00 -1.410050e-02 9.592400e-03 0.000000e+00 -3.500260e-03 3.046370e-03 0.000000e+00 -1.045890e-02 2.970590e-03 0.000000e+00 1.140890e-02 8.662630e-03 0.000000e+00 -1.438500e-02 3.322090e-03 0.000000e+00 -9.675450e-03 3.028560e-03 0.000000e+00 -4.540410e-03 2.965630e-03 0.000000e+00 -1.129200e-02 3.131170e-03 0.000000e+00 -1.758150e-02 2.555930e-03 0.000000e+00 -9.492890e-03 1.429740e-02 0.000000e+00 -1.632830e-02 3.443940e-03 0.000000e+00 -1.797410e-02 3.114580e-03 0.000000e+00 -1.347750e-02 3.099040e-03 0.000000e+00 2.259820e-04 5.677470e-03 0.000000e+00 -2.640870e-03 2.795250e-03 0.000000e+00 -1.274080e-02 2.757440e-03 0.000000e+00 -7.886550e-03 1.250410e-02 0.000000e+00 -1.644270e-02 5.346590e-03 0.000000e+00 -1.184280e-02 3.958520e-03 0.000000e+00 -1.174620e-02 1.050750e-02 0.000000e+00 -1.514600e-02 6.326280e-03 0.000000e+00 -6.203070e-03 3.226220e-03 0.000000e+00 -1.506810e-02 2.845480e-03 0.000000e+00 -1.063540e-02 1.246320e-02 0.000000e+00 -7.590500e-03 2.755570e-03 0.000000e+00 2.870920e-03 8.759280e-03 0.000000e+00 -1.725650e-02 4.106950e-03 0.000000e+00 -1.560390e-03 4.085660e-03 0.000000e+00 -5.468920e-03 3.836080e-03 0.000000e+00 -6.703370e-03 3.935240e-03 0.000000e+00 -3.376270e-03 1.124270e-02 0.000000e+00 7.156370e-03 1.158260e-02 0.000000e+00 -1.761550e-03 3.002010e-03 0.000000e+00 -4.089830e-03 3.905360e-03 0.000000e+00 -1.371550e-02 7.524910e-03 0.000000e+00 -1.367380e-02 4.248310e-03 0.000000e+00 -8.368120e-03 3.867030e-03 0.000000e+00 -1.171170e-03 5.217830e-03 0.000000e+00 -4.857990e-03 4.848200e-03 0.000000e+00 -1.090300e-02 4.029160e-03 0.000000e+00 -1.274650e-02 3.669680e-03 0.000000e+00 -5.919780e-03 1.083900e-02 0.000000e+00 9.558640e-03 1.189050e-02 0.000000e+00 -7.574440e-03 3.563860e-03 0.000000e+00 -1.492750e-02 4.771680e-03 0.000000e+00 2.236970e-03 1.119460e-02 0.000000e+00 4.733280e-03 1.045470e-02 0.000000e+00 -9.220580e-03 3.768400e-03 0.000000e+00 -5.148650e-04 1.135420e-02 0.000000e+00 -1.357850e-02 5.818830e-03 0.000000e+00 -2.366500e-03 4.946830e-03 0.000000e+00 -6.228020e-03 4.926570e-03 0.000000e+00 -9.983610e-03 3.980800e-03 0.000000e+00 -1.144050e-02 4.948540e-03 0.000000e+00 -7.759370e-03 1.033500e-02 0.000000e+00 -7.629040e-03 4.640490e-03 0.000000e+00 -1.538870e-02 3.648900e-03 0.000000e+00 -9.628720e-03 1.075910e-02 0.000000e+00 -1.257110e-02 4.731370e-03 0.000000e+00 -2.768930e-03 3.787840e-03 0.000000e+00 -3.622200e-03 4.846620e-03 0.000000e+00 -4.524900e-03 9.105610e-03 0.000000e+00 -8.939800e-04 6.451090e-03 0.000000e+00 -1.215260e-02 8.625950e-03 0.000000e+00 -1.217790e-02 7.025380e-03 0.000000e+00 8.168110e-04 9.212630e-03 0.000000e+00 -1.608840e-02 4.335870e-03 0.000000e+00 -1.711100e-03 9.213210e-03 0.000000e+00 -1.029650e-02 5.049540e-03 0.000000e+00 -6.909270e-03 8.648760e-03 0.000000e+00 -9.007840e-03 4.819760e-03 0.000000e+00 -1.058850e-02 9.286990e-03 0.000000e+00 -2.065190e-03 6.248940e-03 0.000000e+00 -1.039850e-02 7.639190e-03 0.000000e+00 -7.166850e-03 5.639700e-03 0.000000e+00 -3.354030e-03 7.400740e-03 0.000000e+00 -5.409180e-03 5.770720e-03 0.000000e+00 -9.516970e-03 6.165460e-03 0.000000e+00 -1.214120e-02 5.777600e-03 0.000000e+00 -8.233940e-03 5.873880e-03 0.000000e+00 -3.176660e-03 5.893430e-03 0.000000e+00 -8.382550e-05 7.590150e-03 0.000000e+00 -4.307220e-03 6.013980e-03 0.000000e+00 -1.097900e-02 6.151490e-03 0.000000e+00 -1.620360e-03 7.485480e-03 0.000000e+00 -8.906380e-03 8.940680e-03 0.000000e+00 -6.308780e-03 6.070970e-03 0.000000e+00 -5.450560e-03 7.209030e-03 0.000000e+00 -8.549410e-03 7.365900e-03 0.000000e+00 -7.178150e-03 6.864210e-03 0.000000e+00 </DataArray>
</Points>
<Cells>
 <DataArray type="Int32" Name="connectivity" format="ascii"> 80 81 129  82 83 130  84 85 131  86 87 132  88 89 133  90 91 134  92 93 135  94 95 136  96 97 137  98 99 138  100 101 139  102 103 140  104 105 141  106 107 142  108 109 143  110 111 144  112 113 145  114 115 146  116 117 147  118 119 148  120 121 149  122 123 150  124 125 151  126 127 152  128 6 153  40 41 154  42 43 155  44 45 156  46 4 157  4 61 157  61 2 158  2 72 159  73 74 160  75 76 161  77 78 162  79 1 62  62 63 163  64 65 164  66 67 165  68 69 166  70 71 167  71 3 168  167 71 168  3 47 168  47 48 168  48 49 169  50 51 170  52 53 171  54 55 172  56 57 173  58 59 174  59 60 175  60 5 176  175 60 176  5 35 176  35 36 177  0 34 178  34 33 179  33 32 180  32 31 181  31 30 182  30 29 183  29 28 184  28 27 185  27 26 186  26 25 187  25 24 188  24 23 189  23 22 190  22 21 191  21 20 192  20 19 193  19 18 194  18 17 195  17 16 196  16 15 197  15 14 198  14 13 199  13 12 200  12 11 201  11 10 202  10 9 203  9 8 204  8 0 205  79 62 163  7 80 129  81 82 206  129 81 206  82 130 206  83 84 207  84 131 207  85 86 208  87 88 209  89 90 210  133 89 210  90 134 210  91 92 211  93 94 212  95 96 213  97 98 214  137 97 214  98 138 214  99 100 215  101 102 216  103 104 217  140 103 217  104 141 217  105 106 218  107 108 219  109 110 220  143 109 220  110 144 220  111 112 221  112 145 221  113 114 222  115 116 223  117 118 224  147 117 224  118 148 224  119 120 225  121 122 226  123 124 227  125 126 228  151 125 228  126 152 228  127 128 229  40 154 230  39 40 230  41 42 231  43 44 232  45 46 233  157 61 158  158 2 234  2 159 234  72 73 235  74 75 236  75 161 236  77 162 237  76 77 237  78 79 238  163 63 239  63 64 239  64 164 239  65 66 240  67 68 241  69 70 242  171 53 243  53 54 243  168 48 169  169 49 244  49 50 244  50 170 244  51 52 245  54 172 243  55 56 246  58 174 247  57 58 247  59 175 174  178 34 179  0 178 205  33 180 179  32 181 180  31 182 181  30 183 182  29 184 183  28 185 184  27 186 185  26 187 186  25 188 187  24 189 188  23 190 189  22 191 190  21 192 191  20 193 192  19 194 193  18 195 194  17 196 195  16 197 196  15 198 197  14 199 198  13 200 199  12 201 200  11 202 201  10 203 202  9 204 203  8 205 204  649 635 652  130 83 207  131 85 208  132 87 209  211 92 135  134 91 211  135 93 212  136 95 213  215 100 139  138 99 215  139 101 216  218 106 142  141 105 218  142 107 219  144 111 221  145 113 222  146 115 223  225 120 149  148 119 225  149 121 226  150 123 227  229 128 153  152 127 229  154 41 231  155 43 232  156 45 233  159 72 235  160 74 236  161 76 237  162 78 238  164 65 240  165 67 241  166 69 242  170 51 245  172 55 246  173 57 247  177 36 248  213 96 137  227 124 151  232 44 156  233 46 157  242 70 167  209 88 133  208 86 132  212 94 136  216 102 140  219 108 143  223 116 147  222 114 146  226 122 150  231 42 155  235 73 160  241 68 166  240 66 165  245 52 171  246 56 173  131 208 249  132 209 250  212 136 251  211 135 252  208 132 253  132 250 253  135 212 254  252 135 254  212 251 254  134 211 255  211 252 255  216 140 256  215 139 257  227 151 258  139 216 259  257 139 259  216 256 259  138 215 260  215 257 260  218 142 261  219 143 262  142 219 263  261 142 263  219 262 263  141 218 264  218 261 264  144 221 265  223 147 266  145 222 267  146 223 268  223 266 268  226 150 269  225 149 270  222 146 271  267 222 271  146 268 271  149 226 272  270 149 272  226 269 272  148 225 273  225 270 273  150 227 274  269 150 274  227 258 274  231 155 275  229 153 276  232 156 277  154 231 278  231 275 278  230 154 279  154 278 279  152 229 280  229 276 280  155 232 281  232 277 281  39 230 282  235 160 283  233 157 284  159 235 285  235 283 285  242 167 286  157 158 284  160 236 287  241 166 288  164 240 289  237 162 290  162 238 291  238 79 163  130 207 292  163 239 293  239 164 294  293 239 294  164 289 294  245 171 295  166 242 296  288 166 296  242 286 296  165 350 240  170 245 297  171 243 298  167 168 299  286 167 299  168 169 299  172 246 300  247 174 301  244 170 302  170 297 302  243 172 303  298 243 303  172 300 303  174 175 304  177 248 305  175 176 306  35 177 176  207 131 307  292 207 307  131 249 307  221 145 308  265 221 308  145 267 308  153 6 309  169 244 310  299 169 310  244 302 310  248 36 311  178 179 289  213 137 312  180 181 313  181 182 314  182 183 290  183 184 315  185 186 316  186 187 287  187 188 317  189 190 318  191 192 319  193 194 320  194 195 321  195 196 322  196 197 323  198 199 324  199 200 325  200 201 326  202 203 327  203 204 328  39 282 329  282 230 330  230 279 330  238 163 293  248 311 331  329 282 332  129 206 333  160 287 283  208 253 249  133 210 334  256 140 335  140 217 335  136 213 336  238 293 291  262 143 337  143 220 337  136 336 251  266 147 338  147 224 338  153 309 339  275 155 281  153 339 276  277 156 340  156 233 340  282 330 332  258 151 341  151 228 341  233 284 340  159 285 234  300 246 342  246 173 342  284 158 343  158 234 343  287 236 316  245 295 297  161 237 315  237 290 315  162 291 290  331 311 344  248 331 345  171 298 295  209 133 346  247 301 347  329 332 348  250 209 346  305 248 345  133 334 346  175 306 304  176 177 349  36 37 311  205 178 350  312 137 351  137 214 351  328 204 352  204 205 352  327 203 328  326 201 353  201 202 353  325 200 326  324 199 325  323 197 354  197 198 354  196 323 322  355 322 323  321 195 322  320 194 321  319 192 356  192 193 356  318 190 357  190 191 357  317 188 358  188 189 358  287 187 317  316 186 287  315 184 359  161 315 359  184 185 359  290 183 315  313 181 314  306 176 349  289 179 294  213 312 336  185 316 359  189 318 358  191 319 357  193 320 356  198 324 354  202 327 353  179 180 294  206 130 360  333 206 360  130 292 360  210 134 361  334 210 361  134 255 361  214 138 362  351 214 362  138 260 362  217 141 363  335 217 363  141 264 363  220 144 364  337 220 364  144 265 364  224 148 365  338 224 365  148 273 365  228 152 366  341 228 366  152 280 366  236 161 359  165 241 352  173 247 367  311 37 344  37 370 344  344 368 369  339 309 348  342 173 367  205 350 352  349 177 305  368 344 370  294 180 313  331 344 369  369 368 371  371 368 372  368 370 372  283 287 317  249 253 373  260 257 374  291 293 313  273 270 375  264 261 376  342 367 377  268 266 378  275 281 379  251 336 380  278 275 381  275 379 381  234 285 382  277 340 383  276 339 384  340 284 385  383 340 385  284 343 385  279 278 386  278 381 386  280 276 387  276 384 387  281 277 388  277 383 388  6 39 329  348 332 389  347 301 390  297 295 391  300 342 392  345 331 393  339 348 384  346 334 394  295 298 355  293 294 313  255 252 395  304 306 396  299 433 286  301 174 304  283 317 397  285 283 397  317 358 397  350 178 289  330 279 398  279 386 398  654 655 657  354 324 399  356 320 400  357 319 401  314 182 290  305 345 402  331 369 393  306 349 403  396 306 403  349 305 403  358 318 404  318 357 405  319 356 406  401 319 406  356 400 406  320 321 407  321 322 408  407 321 408  322 355 408  323 354 391  324 325 409  325 326 410  655 637 657  371 372 411  352 241 328  369 371 412  301 304 413  390 301 413  304 396 413  373 253 414  253 250 414  364 265 415  362 260 416  260 374 416  254 251 417  251 380 417  256 335 418  271 268 419  268 378 419  365 273 420  273 375 420  342 377 392  366 280 421  280 387 421  234 382 343  272 269 422  263 262 423  267 271 424  271 419 424  382 285 397  259 256 425  256 418 425  274 258 426  281 388 379  367 247 347  236 359 316  414 250 427  250 346 427  332 330 428  375 270 429  270 272 429  300 392 430  345 393 402  241 288 328  394 334 431  334 361 431  308 267 432  267 424 432  353 286 433  404 318 405  266 338 434  378 266 434  338 365 434  286 353 296  397 358 435  382 397 435  358 404 435  332 428 389  303 300 430  363 264 436  264 376 436  265 308 437  415 265 437  308 432 437  320 407 400  438 400 407  395 252 439  252 254 439  307 249 440  312 351 441  361 255 442  255 395 442  129 333 516  354 399 391  355 323 391  357 401 405  299 310 433  165 352 350  367 347 443  377 367 443  347 390 443  427 346 394  423 262 444  262 337 444  426 258 445  258 341 445  428 330 446  330 398 446  440 249 373  516 333 447  333 360 447  328 288 327  302 297 399  336 312 448  355 298 408  403 305 402  292 307 449  307 440 449  409 325 410  326 353 433  411 372 450  360 292 451  447 360 451  292 449 451  380 336 448  376 261 452  261 263 452  374 257 453  257 259 453  448 312 441  399 297 391  408 298 454  407 408 454  298 303 454  450 372 455  327 288 296  412 371 456  371 411 456  455 372 370  327 296 353  450 455 457  455 484 457  450 457 458  38 464 457  457 459 458  458 459 460  460 459 461  458 460 462  460 461 463  461 459 464  459 457 464  461 464 465  450 458 466  411 450 466  458 462 466  461 465 467  461 467 463  351 362 468  441 351 468  362 416 468  335 363 469  418 335 469  363 436 469  291 313 314  392 377 470  448 441 471  369 412 393  337 364 472  444 337 472  364 415 472  422 269 426  341 366 473  445 341 473  366 421 473  343 382 474  382 435 474  393 412 475  291 314 290  263 423 452  467 465 447  379 388 476  391 295 355  387 384 477  303 430 454  430 392 478  272 422 429  402 393 479  422 426 480  384 348 481  404 405 482  373 414 483  329 348 309  455 370 484  370 37 484  465 464 516  398 386 485  389 428 486  310 302 409  460 463 487  410 326 433  462 460 487  380 448 471  396 403 488  403 402 488  516 447 465  409 302 399  487 463 483  481 348 389  384 481 477  409 399 324  405 401 489  462 487 490  381 379 491  379 476 491  38 457 484  438 407 454  418 469 492  483 463 373  254 417 439  486 428 493  428 446 493  471 441 494  441 468 494  470 377 495  420 375 496  426 269 274  481 389 497  477 481 497  389 486 497  424 419 498  415 437 499  421 387 500  387 477 500  374 453 501  365 420 434  485 386 502  386 381 502  482 405 503  405 489 503  425 418 504  418 492 504  6 329 309  446 398 505  398 485 505  383 385 506  402 479 488  480 426 507  426 445 507  454 430 438  388 383 508  289 240 350  478 392 470  427 394 509  430 478 438  429 422 510  422 480 510  479 393 475  414 427 509  431 361 442  452 423 511  404 482 435  432 424 512  424 498 512  414 509 483  416 374 513  374 501 513  490 487 509  442 395 514  436 376 515  259 425 453  647 657 656  383 506 508  466 462 517  380 471 518  410 433 310  395 439 519  514 395 519  439 417 519  476 388 508  443 390 520  376 452 521  515 376 521  452 511 521  440 373 463  343 474 385  401 406 522  463 467 440  462 490 517  381 491 502  487 483 509  496 375 523  375 429 523  495 377 443  509 394 524  490 509 524  394 431 524  511 423 525  423 444 525  410 310 409  520 390 526  401 522 489  645 647 656  411 466 527  456 411 527  464 38 516  526 390 413  492 469 528  469 436 528  520 526 529  385 474 506  417 380 530  519 417 530  380 518 530  396 488 531  415 499 532  472 415 532  434 420 533  420 496 533  474 435 482  475 412 534  466 517 527  495 443 520  518 471 535  479 475 536  431 442 537  524 431 537  442 514 537  491 476 538  485 502 539  412 456 534  436 515 528  453 425 504  437 432 540  499 437 540  432 512 540  526 413 541  508 506 503  502 491 542  539 502 542  491 538 542  517 490 543  400 438 544  506 474 482  532 499 545  472 532 525  527 517 546  534 456 547  400 544 406  506 482 503  468 416 494  644 655 654  416 513 494  489 522 548  419 378 549  470 495 550  449 440 467  378 434 533  522 406 544  478 470 551  470 550 551  378 533 549  449 467 451  522 544 552  533 496 553  419 549 498  657 642 654  648 643 650  495 520 554  550 495 554  520 529 554  456 527 547  129 516 7  529 526 555  545 499 556  499 540 556  530 518 557  493 446 558  446 505 558  548 522 552  500 477 559  527 546 547  498 549 560  501 453 504  473 421 561  421 500 561  528 515 562  445 473 563  473 561 563  503 489 564  489 548 564  477 497 559  534 547 565  497 486 566  488 479 567  507 445 563  536 475 568  471 494 535  510 480 569  479 536 567  475 534 568  521 511 570  485 539 505  476 508 571  478 551 552  476 571 538  513 501 572  525 532 573  532 545 573  526 541 555  496 523 574  517 543 546  523 429 510  396 531 413  531 488 567  515 521 575  521 570 575  549 533 553  514 519 576  519 530 576  531 567 577  553 496 574  557 518 578  518 535 578  534 565 568  514 576 579  501 504 580  562 515 575  566 486 581  486 493 581  569 480 582  480 507 582  641 645 656  511 525 570  572 501 580  413 531 541  514 579 537  492 528 583  504 492 583  528 562 583  580 504 583  555 541 584  547 546 585  559 497 566  562 575 586  536 568 587  548 552 551  565 547 588  547 585 588  549 553 589  535 494 590  648 640 643  567 536 591  577 567 591  536 587 591  490 537 543  512 498 592  540 512 592  498 560 592  505 539 593  571 508 503  478 552 544  574 523 510  546 543 594  549 589 560  559 566 595  589 553 596  571 503 564  560 589 597  529 555 598  576 530 557  574 510 569  444 472 525  579 543 537  553 574 596  551 550 599  500 559 600  559 595 600  574 569 601  568 565 602  572 580 603  576 557 579  579 557 594  545 556 604  602 565 588  513 572 590  595 566 605  589 596 597  541 531 577  574 601 596  606 596 601  586 575 607  575 570 607  543 579 594  580 583 608  583 562 608  581 493 558  647 642 657  555 584 609  548 551 610  564 548 610  507 563 582  571 564 538  562 586 608  585 546 594  566 581 605  570 525 573  438 478 544  592 560 611  540 592 556  555 609 598  612 624 572  610 551 599  538 564 610  541 577 584  538 610 599  550 554 613  580 608 603  542 538 599  593 539 614  577 591 584  611 560 597  539 542 614  37 38 484  594 557 578  537 490 524  613 614 550  573 545 615  545 604 615  554 529 616  613 554 616  529 598 616  447 451 467  572 603 612  602 588 617  563 561 600  595 605 618  597 596 619  596 606 619  607 570 620  586 607 621  561 500 600  609 584 622  611 597 623  588 585 612  600 582 563  535 590 624  578 535 624  590 572 624  591 587 625  556 592 611  604 556 611  608 586 626  603 608 626  505 593 558  569 582 627  604 611 623  569 627 601  601 627 628  627 582 600  598 609 629  605 581 630  587 568 631  631 568 602  631 602 632  602 617 632  593 614 613  593 613 633  558 593 633  613 616 633  573 615 620  597 619 623  644 650 655  606 601 628  586 621 626  612 585 634  620 570 573  600 595 627  598 629 635  588 612 617  607 620 636  513 590 494  621 607 636  516 38 7  584 591 625  594 578 634  629 609 637  609 622 637  604 623 638  628 627 618  614 542 599  616 598 635  625 587 639  587 631 639  618 605 640  605 630 640  639 631 641  631 632 641  585 594 634  623 619 642  635 629 643  636 620 638  578 624 634  603 626 617  619 606 644  636 638 645  617 626 646  632 617 646  626 621 646  638 623 647  623 642 647  628 618 648  618 640 648  630 581 649  616 635 633  606 628 650  644 606 650  628 648 650  622 584 625  621 636 651  646 621 651  636 645 651  581 558 649  630 649 652  622 625 653  625 639 653  641 651 645  635 643 652  558 633 649  617 612 603  599 550 614  642 619 654  619 644 654  637 622 653  630 652 640  653 639 641  645 638 647  604 638 615  618 627 595  652 643 640  643 629 655  646 651 632  620 615 638  637 653 656  629 637 655  653 641 656  643 655 650  656 657 637  624 612 634  641 632 651  649 633 635  </DataArray>
 <DataArray type="Int32" Name="offsets" format="ascii"> 3 6 9 12 15 18 21 24 27 30 33 36 39 42 45 48 51 54 57 60 63 66 69 72 75 78 81 84 87 90 93 96 99 102 105 108 111 114 117 120 123 126 129 132 135 138 141 144 147 150 153 156 159 162 165 168 171 174 177 180 183 186 189 192 195 198 201 204 207 210 213 216 219 222 225 228 231 234 237 240 243 246 249 252 255 258 261 264 267 270 273 276 279 282 285 288 291 294 297 300 303 306 309 312 315 318 321 324 327 330 333 336 339 342 345 348 351 354 357 360 363 366 369 372 375 378 381 384 387 390 393 396 399 402 405 408 411 414 417 420 423 426 429 432 435 438 441 444 447 450 453 456 459 462 465 468 471 474 477 480 483 486 489 492 495 498 501 504 507 510 513 516 519 522 525 528 531 534 537 540 543 546 549 552 555 558 561 564 567 570 573 576 579 582 585 588 591 594 597 600 603 606 609 612 615 618 621 624 627 630 633 636 639 642 645 648 651 654 657 660 663 666 669 672 675 678 681 684 687 690 693 696 699 702 705 708 711 714 717 720 723 726 729 732 735 738 741 744 747 750 753 756 759 762 765 768 771 774 777 780 783 786 789 792 795 798 801 804 807 810 813 816 819 822 825 828 831 834 837 840 843 846 849 852 855 858 861 864 867 870 873 876 879 882 885 888 891 894 897 900 903 906 909 912 915 918 921 924 927 930 933 936 939 942 945 948 951 954 957 960 963 966 969 972 975 978 981 984 987 990 993 996 999 1002 1005 1008 1011 1014 1017 1020 1023 1026 1029 1032 1035 1038 1041 1044 1047 1050 1053 1056 1059 1062 1065 1068 1071 1074 1077 1080 1083 1086 1089 1092 1095 1098 1101 1104 1107 1110 1113 1116 1119 1122 1125 1128 1131 1134 1137 1140 1143 1146 1149 1152 1155 1158 1161 1164 1167 1170 1173 1176 1179 1182 1185 1188 1191 1194 1197 1200 1203 1206 1209 1212 1215 1218 1221 1224 1227 1230 1233 1236 1239 1242 1245 1248 1251 1254 1257 1260 1263 1266 1269 1272 1275 1278 1281 1284 1287 1290 1293 1296 1299 1302 1305 1308 1311 1314 1317 1320 1323 1326 1329 1332 1335 1338 1341 1344 1347 1350 1353 1356 1359 1362 1365 1368 1371 1374 1377 1380 1383 1386 1389 1392 1395 1398 1401 1404 1407 1410 1413 1416 1419 1422 1425 1428 1431 1434 1437 1440 1443 1446 1449 1452 1455 1458 1461 1464 1467 1470 1473 1476 1479 1482 1485 1488 1491 1494 1497 1500 1503 1506 1509 1512 1515 1518 1521 1524 1527 1530 1533 1536 1539 1542 1545 1548 1551 1554 1557 1560 1563 1566 1569 1572 1575 1578 1581 1584 1587 1590 1593 1596 1599 1602 1605 1608 1611 1614 1617 1620 1623 1626 1629 1632 1635 1638 1641 1644 1647 1650 1653 1656 1659 1662 1665 1668 1671 1674 1677 1680 1683 1686 1689 1692 1695 1698 1701 1704 1707 1710 1713 1716 1719 1722 1725 1728 1731 1734 1737 1740 1743 1746 1749 1752 1755 1758 1761 1764 1767 1770 1773 1776 1779 1782 1785 1788 1791 1794 1797 1800 1803 1806 1809 1812 1815 1818 1821 1824 1827 1830 1833 1836 1839 1842 1845 1848 1851 1854 1857 1860 1863 1866 1869 1872 1875 1878 1881 1884 1887 1890 1893 1896 1899 1902 1905 1908 1911 1914 1917 1920 1923 1926 1929 1932 1935 1938 1941 1944 1947 1950 1953 1956 1959 1962 1965 1968 1971 1974 1977 1980 1983 1986 1989 1992 1995 1998 2001 2004 2007 2010 2013 2016 2019 2022 2025 2028 2031 2034 2037 2040 2043 2046 2049 2052 2055 2058 2061 2064 2067 2070 2073 2076 2079 2082 2085 2088 2091 2094 2097 2100 2103 2106 2109 2112 2115 2118 2121 2124 2127 2130 2133 2136 2139 2142 2145 2148 2151 2154 2157 2160 2163 2166 2169 2172 2175 2178 2181 2184 2187 2190 2193 2196 2199 2202 2205 2208 2211 2214 2217 2220 2223 2226 2229 2232 2235 2238 2241 2244 2247 2250 2253 2256 2259 2262 2265 2268 2271 2274 2277 2280 2283 2286 2289 2292 2295 2298 2301 2304 2307 2310 2313 2316 2319 2322 2325 2328 2331 2334 2337 2340 2343 2346 2349 2352 2355 2358 2361 2364 2367 2370 2373 2376 2379 2382 2385 2388 2391 2394 2397 2400 2403 2406 2409 2412 2415 2418 2421 2424 2427 2430 2433 2436 2439 2442 2445 2448 2451 2454 2457 2460 2463 2466 2469 2472 2475 2478 2481 2484 2487 2490 2493 2496 2499 2502 2505 2508 2511 2514 2517 2520 2523 2526 2529 2532 2535 2538 2541 2544 2547 2550 2553 2556 2559 2562 2565 2568 2571 2574 2577 2580 2583 2586 2589 2592 2595 2598 2601 2604 2607 2610 2613 2616 2619 2622 2625 2628 2631 2634 2637 2640 2643 2646 2649 2652 2655 2658 2661 2664 2667 2670 2673 2676 2679 2682 2685 2688 2691 2694 2697 2700 2703 2706 2709 2712 2715 2718 2721 2724 2727 2730 2733 2736 2739 2742 2745 2748 2751 2754 2757 2760 2763 2766 2769 2772 2775 2778 2781 2784 2787 2790 2793 2796 2799 2802 2805 2808 2811 2814 2817 2820 2823 2826 2829 2832 2835 2838 2841 2844 2847 2850 2853 2856 2859 2862 2865 2868 2871 2874 2877 2880 2883 2886 2889 2892 2895 2898 2901 2904 2907 2910 2913 2916 2919 2922 2925 2928 2931 2934 2937 2940 2943 2946 2949 2952 2955 2958 2961 2964 2967 2970 2973 2976 2979 2982 2985 2988 2991 2994 2997 3000 3003 3006 3009 3012 3015 3018 3021 3024 3027 3030 3033 3036 3039 3042 3045 3048 3051 3054 3057 3060 3063 3066 3069 3072 3075 3078 3081 3084 3087 3090 3093 3096 3099 3102 3105 3108 3111 3114 3117 3120 3123 3126 3129 3132 3135 3138 3141 3144 3147 3150 3153 3156 3159 3162 3165 3168 3171 3174 3177 3180 3183 3186 3189 3192 3195 3198 3201 3204 3207 3210 3213 3216 3219 3222 3225 3228 3231 3234 3237 3240 3243 3246 3249 3252 3255 3258 3261 3264 3267 3270 3273 3276 3279 3282 3285 3288 3291 3294 3297 3300 3303 3306 3309 3312 3315 3318 3321 3324 3327 3330 3333 3336 3339 3342 3345 3348 3351 3354 3357 3360 3363 3366 3369 3372 3375 3378 3381 3384 3387 3390 3393 3396 3399 3402 3405 3408 3411 3414 3417 3420 3423 3426 3429 3432 3435 3438 3441 3444 3447 3450 3453 3456 3459 3462 3465 3468 3471 3474 3477 3480 3483 3486 3489 3492 3495 3498 3501 3504 3507 3510 3513 3516 3519 3522 3525 3528 3531 3534 3537 3540 3543 3546 3549 3552 3555 3558 3561 </DataArray>
 <DataArray type="UInt8" Name="types" format="ascii"> 5 5 5 5 5 5 5 5 5 5 5 5 5 5 5 5 5 5 5 5 5 5 5 5 5 5 5 5 5 5 5 5 5 5 5 5 5 5 5 5 5 5 5 5 5 5 5 5 5 5 5 5 5 5 5 5 5 5 5 5 5 5 5 5 5 5 5 5 5 5 5 5 5 5 5 5 5 5 5 5 5 5 5 5 5 5 5 5 5 5 5 5 5 5 5 5 5 5 5 5 5 5 5 5 5 5 5 5 5 5 5 5 5 5 5 5 5 5 5 5 5 5 5 5 5 5 5 5 5 5 5 5 5 5 5 5 5 5 5 5 5 5 5 5 5 5 5 5 5 5 5 5 5 5 5 5 5 5 5 5 5 5 5 5 5 5 5 5 5 5 5 5 5 5 5 5 5 5 5 5 5 5 5 5 5 5 5 5 5 5 5 5 5 5 5 5 5 5 5 5 5 5 5 5 5 5 5 5 5 5 5 5 5 5 5 5 5 5 5 5 5 5 5 5 5 5 5 5 5 5 5 5 5 5 5 5 5 5 5 5 5 5 5 5 5 5 5 5 5 5 5 5 5 5 5 5 5 5 5 5 5 5 5 5 5 5 5 5 5 5 5 5 5 5 5 5 5 5 5 5 5 5 5 5 5 5 5 5 5 5 5 5 5 5 5 5 5 5 5 5 5 5 5 5 5 5 5 5 5 5 5 5 5 5 5 5 5 5 5 5 5 5 5 5 5 5 5 5 5 5 5 5 5 5 5 5 5 5 5 5 5 5 5 5 5 5 5 5 5 5 5 5 5 5 5 5 5 5 5 5 5 5 5 5 5 5 5 5 5 5 5 5 5 5 5 5 5 5 5 5 5 5 5 5 5 5 5 5 5 5 5 5 5 5 5 5 5 5 5 5 5 5 5 5 5 5 5 5 5 5 5 5 5 5 5 5 5 5 5 5 5 5 5 5 5 5 5 5 5 5 5 5 5 5 5 5 5 5 5 5 5 5 5 5 5 5 5 5 5 5 5 5 5 5 5 5 5 5 5 5 5 5 5 5 5 5 5 5 5 5 5 5 5 5 5 5 5 5 5 5 5 5 5 5 5 5 5 5 5 5 5 5 5 5 5 5 5 5 5 5 5 5 5 5 5 5 5 5 5 5 5 5 5 5 5 5 5 5 5 5 5 5 5 5 5 5 5 5 5 5 5 5 5 5 5 5 5 5 5 5 5 5 5 5 5 5 5 5 5 5 5 5 5 5 5 5 5 5 5 5 5 5 5 5 5 5 5 5 5 5 5 5 5 5 5 5 5 5 5 5 5 5 5 5 5 5 5 5 5 5 5 5 5 5 5 5 5 5 5 5 5 5 5 5 5 5 5 5 5 5 5 5 5 5 5 5 5 5 5 5 5 5 5 5 5 5 5 5 5 5 5 5 5 5 5 5 5 5 5 5 5 5 5 5 5 5 5 5 5 5 5 5 5 5 5 5 5 5 5 5 5 5 5 5 5 5 5 5 5 5 5 5 5 5 5 5 5 5 5 5 5 5 5 5 5 5 5 5 5 5 5 5 5 5 5 5 5 5 5 5 5 5 5 5 5 5 5 5 5 5 5 5 5 5 5 5 5 5 5 5 5 5 5 5 5 5 5 5 5 5 5 5 5 5 5 5 5 5 5 5 5 5 5 5 5 5 5 5 5 5 5 5 5 5 5 5 5 5 5 5 5 5 5 5 5 5 5 5 5 5 5 5 5 5 5 5 5 5 5 5 5 5 5 5 5 5 5 5 5 5 5 5 5 5 5 5 5 5 5 5 5 5 5 5 5 5 5 5 5 5 5 5 5 5 5 5 5 5 5 5 5 5 5 5 5 5 5 5 5 5 5 5 5 5 5 5 5 5 5 5 5 5 5 5 5 5 5 5 5 5 5 5 5 5 5 5 5 5 5 5 5 5 5 5 5 5 5 5 5 5 5 5 5 5 5 5 5 5 5 5 5 5 5 5 5 5 5 5 5 5 5 5 5 5 5 5 5 5 5 5 5 5 5 5 5 5 5 5 5 5 5 5 5 5 5 5 5 5 5 5 5 5 5 5 5 5 5 5 5 5 5 5 5 5 5 5 5 5 5 5 5 5 5 5 5 5 5 5 5 5 5 5 5 5 5 5 5 5 5 5 5 5 5 5 5 5 5 5 5 5 5 5 5 5 5 5 5 5 5 5 5 5 5 5 5 5 5 5 5 5 5 5 5 5 5 5 5 5 5 5 5 5 5 5 5 5 5 5 5 5 5 5 5 5 5 5 5 5 5 5 5 5 5 5 5 5 5 5 5 5 5 5 5 5 5 5 5 5 5 5 5 5 5 5 5 5 5 5 5 5 5 5 5 5 5 5 5 5 5 5 5 5 5 5 5 5 5 5 5 5 5 5 5 5 5 5 5 5 5 5 5 5 5 5 5 5 5 5 5 5 5 5 5 5 5 5 5 5 5 5 5 5 5 5 5 5 5 5 5 5 5 5 5 5 5 5 5 5 5 5 5 5 5 5 5 5 5 5 5 5 5 5 5 5 5 5 5 5 5 5 5 5 5 5 5 5 5 5 5 5 5 5 5 5 5 5 5 5 5 5 5 5 5 5 5 5 5 5 5 5 5 5 5 5 5 5 5 5 5 5 5 5 5 5 5 5 5 </DataArray>
</Cells>
<PointData Scalars="" Vectors="DisplacementVector " Tensors="IST_StressTensor IST_StrainTensor " >
 <DataArray type="Float64" Name="DisplacementVector" NumberOfComponents="3" format="ascii"> -3.460269e-06 2.688378e-05 0.000000e+00 4.453186e-06 3.111481e-05 0.000000e+00 4.409193e-06 1.630228e-05 0.000000e+00 -1.442387e-05 3.112193e-05 0.000000e+00 5.359972e-06 1.495288e-05 0.000000e+00 -9.819640e-06 -4.302365e-06 0.000000e+00 3.845806e-06 0.000000e+00 0.000000e+00 0.000000e+00 0.000000e+00 0.000000e+00 -4.365956e-06 2.677029e-05 0.000000e+00 -5.174499e-06 2.647839e-05 0.000000e+00 -6.011232e-06 2.593787e-05 0.000000e+00 -6.744229e-06 2.515526e-05 0.000000e+00 -7.200414e-06 2.437356e-05 0.000000e+00 -7.525798e-06 2.336575e-05 0.000000e+00 -7.623459e-06 2.241744e-05 0.000000e+00 -7.532353e-06 2.141780e-05 0.000000e+00 -7.259408e-06 2.047203e-05 0.000000e+00 -6.758837e-06 1.951087e-05 0.000000e+00 -6.081425e-06 1.870602e-05 0.000000e+00 -5.261684e-06 1.810600e-05 0.000000e+00 -4.432052e-06 1.777668e-05 0.000000e+00 -3.548478e-06 1.767325e-05 0.000000e+00 -2.639226e-06 1.781088e-05 0.000000e+00 -1.758089e-06 1.819115e-05 0.000000e+00 -9.382337e-07 1.880782e-05 0.000000e+00 -2.789421e-07 1.956857e-05 0.000000e+00 2.603125e-07 2.052849e-05 0.000000e+00 5.998723e-07 2.165241e-05 0.000000e+00 6.837092e-07 2.267297e-05 0.000000e+00 5.681825e-07 2.361603e-05 0.000000e+00 2.200969e-07 2.459003e-05 0.000000e+00 -2.682974e-07 2.535448e-05 0.000000e+00 -9.274345e-07 2.601021e-05 0.000000e+00 -1.674111e-06 2.647961e-05 0.000000e+00 -2.587674e-06 2.679489e-05 0.000000e+00 -7.246313e-06 -4.259762e-06 0.000000e+00 -4.551566e-06 -3.924088e-06 0.000000e+00 -2.062821e-06 -2.990969e-06 0.000000e+00 -4.703731e-07 -1.524774e-06 0.000000e+00 4.564166e-06 4.204234e-06 0.000000e+00 4.728559e-06 6.240842e-06 0.000000e+00 4.888637e-06 7.947345e-06 0.000000e+00 5.027349e-06 9.429859e-06 0.000000e+00 5.142439e-06 1.075009e-05 0.000000e+00 5.234617e-06 1.196975e-05 0.000000e+00 5.302089e-06 1.307436e-05 0.000000e+00 5.344665e-06 1.406385e-05 0.000000e+00 -1.442917e-05 2.880307e-05 0.000000e+00 -1.444122e-05 2.691245e-05 0.000000e+00 -1.446501e-05 2.470126e-05 0.000000e+00 -1.447813e-05 2.262101e-05 0.000000e+00 -1.446095e-05 2.068128e-05 0.000000e+00 -1.438226e-05 1.848838e-05 0.000000e+00 -1.418304e-05 1.586108e-05 0.000000e+00 -1.387987e-05 1.339182e-05 0.000000e+00 -1.341825e-05 1.077464e-05 0.000000e+00 -1.278526e-05 8.108427e-06 0.000000e+00 -1.200390e-05 5.516156e-06 0.000000e+00 -1.115802e-05 3.099265e-06 0.000000e+00 -1.029571e-05 5.903199e-07 0.000000e+00 -9.871793e-06 -1.736477e-06 0.000000e+00 4.863932e-06 1.561697e-05 0.000000e+00 2.407900e-06 3.111163e-05 0.000000e+00 6.864600e-07 3.109721e-05 0.000000e+00 -9.335444e-07 3.107393e-05 0.000000e+00 -2.434518e-06 3.105324e-05 0.000000e+00 -3.674432e-06 3.104378e-05 0.000000e+00 -5.053924e-06 3.104588e-05 0.000000e+00 -6.444131e-06 3.105821e-05 0.000000e+00 -8.002736e-06 3.107938e-05 0.000000e+00 -9.754647e-06 3.110110e-05 0.000000e+00 -1.189276e-05 3.111747e-05 0.000000e+00 4.517392e-06 1.729171e-05 0.000000e+00 4.592071e-06 1.849712e-05 0.000000e+00 4.631821e-06 1.994036e-05 0.000000e+00 4.627942e-06 2.165746e-05 0.000000e+00 4.581110e-06 2.347067e-05 0.000000e+00 4.518493e-06 2.539148e-05 0.000000e+00 4.473385e-06 2.731630e-05 0.000000e+00 4.455937e-06 2.914127e-05 0.000000e+00 1.319631e-08 0.000000e+00 0.000000e+00 3.677210e-08 0.000000e+00 0.000000e+00 6.527007e-08 0.000000e+00 0.000000e+00 9.607208e-08 0.000000e+00 0.000000e+00 1.283333e-07 0.000000e+00 0.000000e+00 1.612297e-07 0.000000e+00 0.000000e+00 1.942123e-07 0.000000e+00 0.000000e+00 2.273390e-07 0.000000e+00 0.000000e+00 2.605056e-07 0.000000e+00 0.000000e+00 2.939399e-07 0.000000e+00 0.000000e+00 3.275407e-07 0.000000e+00 0.000000e+00 3.615228e-07 0.000000e+00 0.000000e+00 3.959889e-07 0.000000e+00 0.000000e+00 4.312672e-07 0.000000e+00 0.000000e+00 4.675341e-07 0.000000e+00 0.000000e+00 5.045716e-07 0.000000e+00 0.000000e+00 5.426417e-07 0.000000e+00 0.000000e+00 5.820535e-07 0.000000e+00 0.000000e+00 6.227532e-07 0.000000e+00 0.000000e+00 6.650490e-07 0.000000e+00 0.000000e+00 7.089509e-07 0.000000e+00 0.000000e+00 7.544112e-07 0.000000e+00 0.000000e+00 8.017458e-07 0.000000e+00 0.000000e+00 8.512087e-07 0.000000e+00 0.000000e+00 9.028824e-07 0.000000e+00 0.000000e+00 9.568722e-07 0.000000e+00 0.000000e+00 1.013295e-06 0.000000e+00 0.000000e+00 1.072051e-06 0.000000e+00 0.000000e+00 1.133445e-06 0.000000e+00 0.000000e+00 1.197875e-06 0.000000e+00 0.000000e+00 1.265274e-06 0.000000e+00 0.000000e+00 1.335572e-06 0.000000e+00 0.000000e+00 1.409028e-06 0.000000e+00 0.000000e+00 1.485978e-06 0.000000e+00 0.000000e+00 1.566994e-06 0.000000e+00 0.000000e+00 1.652129e-06 0.000000e+00 0.000000e+00 1.741326e-06 0.000000e+00 0.000000e+00 1.835270e-06 0.000000e+00 0.000000e+00 1.934706e-06 0.000000e+00 0.000000e+00 2.039439e-06 0.000000e+00 0.000000e+00 2.150681e-06 0.000000e+00 0.000000e+00 2.269242e-06 0.000000e+00 0.000000e+00 2.396683e-06 0.000000e+00 0.000000e+00 2.534280e-06 0.000000e+00 0.000000e+00 2.684979e-06 0.000000e+00 0.000000e+00 2.852453e-06 0.000000e+00 0.000000e+00 3.042840e-06 0.000000e+00 0.000000e+00 3.267292e-06 0.000000e+00 0.000000e+00 3.538473e-06 0.000000e+00 0.000000e+00 1.192504e-11 -1.413434e-07 0.000000e+00 7.237845e-08 -1.148226e-07 0.000000e+00 1.382917e-07 -1.082825e-07 0.000000e+00 2.043825e-07 -9.939935e-08 0.000000e+00 2.709882e-07 -8.957152e-08 0.000000e+00 3.390449e-07 -7.916894e-08 0.000000e+00 4.089826e-07 -6.629518e-08 0.000000e+00 4.805592e-07 -5.808293e-08 0.000000e+00 5.556086e-07 -5.168879e-08 0.000000e+00 6.368097e-07 -4.563043e-08 0.000000e+00 7.231016e-07 -3.883717e-08 0.000000e+00 8.197646e-07 -3.124464e-08 0.000000e+00 9.205050e-07 -2.549708e-08 0.000000e+00 1.034654e-06 -1.785615e-08 0.000000e+00 1.154762e-06 -1.103599e-08 0.000000e+00 1.293831e-06 -3.473056e-09 0.000000e+00 1.439529e-06 4.924561e-09 0.000000e+00 1.599861e-06 1.302117e-08 0.000000e+00 1.774537e-06 2.044378e-08 0.000000e+00 1.975470e-06 3.393156e-08 0.000000e+00 2.193956e-06 4.830573e-08 0.000000e+00 2.439131e-06 6.125562e-08 0.000000e+00 2.720522e-06 9.023105e-08 0.000000e+00 3.042873e-06 1.511277e-07 0.000000e+00 3.329046e-06 4.133717e-07 0.000000e+00 3.585463e-06 7.002158e-06 0.000000e+00 3.863787e-06 9.851324e-06 0.000000e+00 4.193717e-06 1.246546e-05 0.000000e+00 4.559452e-06 1.462793e-05 0.000000e+00 3.907477e-06 1.526445e-05 0.000000e+00 3.708663e-06 1.692465e-05 0.000000e+00 3.481577e-06 1.921541e-05 0.000000e+00 3.467148e-06 2.287823e-05 0.000000e+00 3.178202e-06 2.626311e-05 0.000000e+00 1.817165e-06 2.962909e-05 0.000000e+00 -1.462945e-06 2.976129e-05 0.000000e+00 -4.348685e-06 2.977084e-05 0.000000e+00 -7.325948e-06 2.972048e-05 0.000000e+00 -1.064020e-05 2.914955e-05 0.000000e+00 -1.261382e-05 2.851630e-05 0.000000e+00 -1.279770e-05 2.592125e-05 0.000000e+00 -1.287936e-05 2.163369e-05 0.000000e+00 -1.240039e-05 1.721308e-05 0.000000e+00 -1.159721e-05 1.193120e-05 0.000000e+00 -1.032793e-05 6.437800e-06 0.000000e+00 -8.994086e-06 1.447423e-06 0.000000e+00 -8.575191e-06 -3.844313e-07 0.000000e+00 -7.841387e-06 -2.238698e-06 0.000000e+00 -5.878039e-06 -2.928450e-06 0.000000e+00 -2.933384e-06 2.773322e-05 0.000000e+00 -1.795073e-06 2.754345e-05 0.000000e+00 -7.774207e-07 2.701359e-05 0.000000e+00 6.270479e-09 2.624843e-05 0.000000e+00 7.169845e-07 2.537221e-05 0.000000e+00 1.267176e-06 2.434954e-05 0.000000e+00 1.476267e-06 2.317906e-05 0.000000e+00 1.438913e-06 2.199932e-05 0.000000e+00 1.216290e-06 2.075225e-05 0.000000e+00 7.639023e-07 1.953173e-05 0.000000e+00 -9.844506e-09 1.844434e-05 0.000000e+00 -8.909071e-07 1.759624e-05 0.000000e+00 -1.945798e-06 1.700140e-05 0.000000e+00 -3.027742e-06 1.667896e-05 0.000000e+00 -4.071082e-06 1.667042e-05 0.000000e+00 -5.133936e-06 1.692315e-05 0.000000e+00 -6.159778e-06 1.751891e-05 0.000000e+00 -7.044396e-06 1.836984e-05 0.000000e+00 -7.731081e-06 1.941859e-05 0.000000e+00 -8.167789e-06 2.057832e-05 0.000000e+00 -8.403310e-06 2.179312e-05 0.000000e+00 -8.372361e-06 2.294022e-05 0.000000e+00 -8.132857e-06 2.412759e-05 0.000000e+00 -7.689389e-06 2.525730e-05 0.000000e+00 -6.997045e-06 2.623226e-05 0.000000e+00 -6.047897e-06 2.694010e-05 0.000000e+00 -5.027533e-06 2.744925e-05 0.000000e+00 -4.021382e-06 2.769757e-05 0.000000e+00 3.696336e-08 -1.278775e-07 0.000000e+00 1.051467e-07 -1.102147e-07 0.000000e+00 1.720656e-07 -1.054727e-07 0.000000e+00 2.382094e-07 -9.350171e-08 0.000000e+00 3.046315e-07 -8.733690e-08 0.000000e+00 3.741179e-07 -7.120817e-08 0.000000e+00 4.437513e-07 -6.197757e-08 0.000000e+00 5.185644e-07 -5.442055e-08 0.000000e+00 5.958949e-07 -4.869282e-08 0.000000e+00 6.776264e-07 -4.274232e-08 0.000000e+00 7.713977e-07 -3.441931e-08 0.000000e+00 8.691621e-07 -2.832829e-08 0.000000e+00 9.745529e-07 -2.192946e-08 0.000000e+00 1.093985e-06 -1.413622e-08 0.000000e+00 1.222759e-06 -7.512380e-09 0.000000e+00 1.364428e-06 6.996953e-10 0.000000e+00 1.514951e-06 8.870129e-09 0.000000e+00 1.688429e-06 1.729133e-08 0.000000e+00 1.872715e-06 2.463351e-08 0.000000e+00 2.079261e-06 4.124026e-08 0.000000e+00 2.310845e-06 5.529783e-08 0.000000e+00 2.581421e-06 7.087124e-08 0.000000e+00 2.879867e-06 1.145619e-07 0.000000e+00 3.204527e-06 2.233298e-07 0.000000e+00 3.432275e-06 5.525166e-06 0.000000e+00 3.758018e-06 8.470437e-06 0.000000e+00 4.030098e-06 1.123489e-05 0.000000e+00 4.354654e-06 1.357230e-05 0.000000e+00 3.257412e-06 1.603298e-05 0.000000e+00 3.597176e-06 1.793494e-05 0.000000e+00 3.354911e-06 2.100686e-05 0.000000e+00 3.354527e-06 2.460868e-05 0.000000e+00 2.829061e-06 2.801558e-05 0.000000e+00 3.706514e-08 2.971097e-05 0.000000e+00 -2.946355e-06 2.982988e-05 0.000000e+00 -5.750008e-06 2.954558e-05 0.000000e+00 -8.931705e-06 2.947368e-05 0.000000e+00 -1.199585e-05 1.459188e-05 0.000000e+00 -1.285413e-05 2.369705e-05 0.000000e+00 -1.274626e-05 1.956261e-05 0.000000e+00 -1.104902e-05 9.214094e-06 0.000000e+00 -9.422901e-06 3.855142e-06 0.000000e+00 -4.126962e-06 -2.662532e-06 0.000000e+00 1.340908e-07 -2.298679e-07 0.000000e+00 2.028057e-07 -2.003770e-07 0.000000e+00 4.445597e-07 -1.275194e-07 0.000000e+00 3.755168e-07 -1.388574e-07 0.000000e+00 1.671542e-07 -2.192601e-07 0.000000e+00 4.122648e-07 -1.284040e-07 0.000000e+00 3.389038e-07 -1.596356e-07 0.000000e+00 7.743758e-07 -6.704400e-08 0.000000e+00 6.763585e-07 -8.767490e-08 0.000000e+00 2.538617e-06 1.704307e-07 0.000000e+00 7.255189e-07 -7.574701e-08 0.000000e+00 6.334665e-07 -9.395549e-08 0.000000e+00 9.765406e-07 -4.289882e-08 0.000000e+00 1.100221e-06 -2.510103e-08 0.000000e+00 1.039890e-06 -3.367400e-08 0.000000e+00 9.195274e-07 -5.070377e-08 0.000000e+00 1.298771e-06 -2.282082e-09 0.000000e+00 1.705377e-06 4.272178e-08 0.000000e+00 1.445269e-06 1.531120e-08 0.000000e+00 1.612240e-06 3.551104e-08 0.000000e+00 2.312403e-06 1.275635e-07 0.000000e+00 2.069963e-06 9.910139e-08 0.000000e+00 1.527226e-06 2.497484e-08 0.000000e+00 2.191104e-06 1.148919e-07 0.000000e+00 1.965003e-06 8.118051e-08 0.000000e+00 2.443568e-06 1.310800e-07 0.000000e+00 2.642528e-06 9.039990e-06 0.000000e+00 2.904918e-06 6.482233e-07 0.000000e+00 3.000942e-06 1.183017e-05 0.000000e+00 2.536022e-06 7.642693e-06 0.000000e+00 2.356961e-06 6.233172e-06 0.000000e+00 2.861814e-06 4.159245e-07 0.000000e+00 2.789283e-06 1.045476e-05 0.000000e+00 3.144213e-06 4.160141e-06 0.000000e+00 2.419929e-06 1.824558e-05 0.000000e+00 3.523213e-06 1.423254e-05 0.000000e+00 2.719967e-06 1.702218e-05 0.000000e+00 -9.427904e-06 2.774152e-05 0.000000e+00 2.064298e-06 1.970918e-05 0.000000e+00 -6.813060e-06 2.861327e-05 0.000000e+00 -2.234425e-06 2.866848e-05 0.000000e+00 1.990961e-06 2.540375e-05 0.000000e+00 1.819532e-06 2.699061e-05 0.000000e+00 6.993255e-08 -2.242818e-07 0.000000e+00 1.007493e-06 2.839458e-05 0.000000e+00 -7.035077e-07 2.834139e-05 0.000000e+00 -1.105012e-05 1.866033e-05 0.000000e+00 -8.000159e-06 2.822498e-05 0.000000e+00 -1.141414e-05 2.070802e-05 0.000000e+00 -1.033039e-05 1.615613e-05 0.000000e+00 -1.117620e-05 2.700648e-05 0.000000e+00 -9.442590e-06 1.047377e-05 0.000000e+00 -7.359543e-06 2.104762e-06 0.000000e+00 -1.152676e-05 2.254720e-05 0.000000e+00 -9.966288e-06 1.313296e-05 0.000000e+00 -7.185639e-06 5.393746e-07 0.000000e+00 -4.916592e-06 -1.995823e-06 0.000000e+00 -6.868127e-06 -8.574684e-07 0.000000e+00 1.033005e-07 -2.256730e-07 0.000000e+00 1.373194e-06 6.894909e-09 0.000000e+00 3.211801e-06 1.319175e-06 0.000000e+00 -1.129525e-05 2.468063e-05 0.000000e+00 -3.155563e-06 -2.838274e-06 0.000000e+00 5.213666e-07 -1.061488e-07 0.000000e+00 3.672626e-07 2.727107e-05 0.000000e+00 1.009371e-06 2.628752e-05 0.000000e+00 2.354463e-06 2.381598e-05 0.000000e+00 2.141938e-06 2.119059e-05 0.000000e+00 1.152052e-06 1.833735e-05 0.000000e+00 -1.105200e-06 1.626922e-05 0.000000e+00 -3.585138e-06 1.548935e-05 0.000000e+00 -6.033221e-06 1.604876e-05 0.000000e+00 -7.205135e-06 1.695347e-05 0.000000e+00 -8.184838e-06 1.817728e-05 0.000000e+00 -8.849591e-06 1.950614e-05 0.000000e+00 -9.319069e-06 2.235281e-05 0.000000e+00 -9.134001e-06 2.368224e-05 0.000000e+00 -8.816516e-06 2.506200e-05 0.000000e+00 -7.033873e-06 2.742582e-05 0.000000e+00 -5.877097e-06 2.812055e-05 0.000000e+00 3.405693e-06 2.712012e-06 0.000000e+00 2.111955e-06 4.668165e-06 0.000000e+00 -2.943532e-06 -2.171048e-06 0.000000e+00 2.409762e-06 3.308791e-06 0.000000e+00 -1.108188e-08 -2.808436e-07 0.000000e+00 2.684325e-07 -1.870093e-07 0.000000e+00 8.205391e-07 -6.190107e-08 0.000000e+00 4.827895e-07 -1.164088e-07 0.000000e+00 1.165579e-06 -1.840378e-08 0.000000e+00 1.794762e-06 4.488505e-08 0.000000e+00 2.898917e-06 1.104438e-06 0.000000e+00 3.237223e-06 1.305034e-05 0.000000e+00 2.657245e-06 2.196605e-07 0.000000e+00 -8.838137e-06 7.805066e-06 0.000000e+00 2.782576e-06 1.492837e-05 0.000000e+00 -2.206608e-06 -2.317647e-06 0.000000e+00 -3.703868e-06 -1.938521e-06 0.000000e+00 2.371034e-07 -1.881212e-07 0.000000e+00 -7.476155e-06 3.705107e-06 0.000000e+00 2.601164e-06 2.040762e-06 0.000000e+00 -6.242639e-06 -1.849794e-06 0.000000e+00 -3.520454e-06 2.873768e-05 0.000000e+00 5.586742e-07 -9.925162e-08 0.000000e+00 -4.780470e-06 2.856181e-05 0.000000e+00 -8.244803e-06 2.657373e-05 0.000000e+00 -9.237631e-06 2.093977e-05 0.000000e+00 -9.516340e-06 1.818698e-05 0.000000e+00 -4.810991e-06 1.559485e-05 0.000000e+00 -2.340375e-06 1.566380e-05 0.000000e+00 1.749221e-07 1.705733e-05 0.000000e+00 2.430927e-06 2.241986e-05 0.000000e+00 3.148184e-08 -2.457768e-07 0.000000e+00 3.029773e-07 -1.758926e-07 0.000000e+00 5.982255e-07 -9.459606e-08 0.000000e+00 8.693156e-07 -5.711362e-08 0.000000e+00 1.225944e-06 -1.163043e-08 0.000000e+00 1.870583e-06 6.252468e-08 0.000000e+00 2.773162e-06 2.902432e-07 0.000000e+00 -8.233726e-06 5.462293e-06 0.000000e+00 -1.624217e-06 -1.865853e-06 0.000000e+00 -2.056371e-06 -1.787940e-06 0.000000e+00 -1.472165e-06 -2.108698e-06 0.000000e+00 -1.315932e-06 -1.485693e-06 0.000000e+00 -1.099885e-06 -1.608277e-06 0.000000e+00 1.132922e-07 -3.586702e-07 0.000000e+00 6.107119e-07 -1.456706e-07 0.000000e+00 1.902263e-06 1.429657e-07 0.000000e+00 8.980982e-07 -7.380270e-08 0.000000e+00 -6.865498e-06 6.620770e-06 0.000000e+00 1.610782e-06 7.297809e-08 0.000000e+00 1.532086e-06 9.668626e-06 0.000000e+00 4.245509e-07 -2.082678e-07 0.000000e+00 1.419402e-06 8.259480e-06 0.000000e+00 2.113035e-06 1.595443e-05 0.000000e+00 2.030549e-06 1.255042e-05 0.000000e+00 2.515116e-06 1.257470e-06 0.000000e+00 2.346557e-06 1.381403e-05 0.000000e+00 1.360788e-06 6.870648e-06 0.000000e+00 2.525354e-06 8.195640e-07 0.000000e+00 1.729107e-06 1.116589e-05 0.000000e+00 1.929665e-06 2.583949e-06 0.000000e+00 -5.852724e-06 2.738141e-06 0.000000e+00 -1.007675e-05 1.995087e-05 0.000000e+00 -7.400137e-06 9.220085e-06 0.000000e+00 -2.694661e-06 -1.499594e-06 0.000000e+00 2.131418e-07 -3.020964e-07 0.000000e+00 3.276685e-07 -2.326742e-07 0.000000e+00 -5.629224e-06 -1.092306e-07 0.000000e+00 1.557887e-06 1.705984e-05 0.000000e+00 1.162466e-06 5.546808e-06 0.000000e+00 -1.033223e-05 2.160950e-05 0.000000e+00 -5.711953e-06 1.450673e-05 0.000000e+00 -2.951895e-06 1.425253e-05 0.000000e+00 -3.998517e-06 -1.353156e-06 0.000000e+00 -5.338981e-06 -1.134894e-06 0.000000e+00 -2.548357e-07 1.561040e-05 0.000000e+00 -1.317973e-06 1.453814e-05 0.000000e+00 -4.334330e-06 1.426251e-05 0.000000e+00 -7.129177e-06 1.519259e-05 0.000000e+00 -8.519208e-06 1.649137e-05 0.000000e+00 -1.030252e-05 2.314650e-05 0.000000e+00 -9.910286e-06 2.453372e-05 0.000000e+00 -7.707520e-07 -1.257471e-06 0.000000e+00 -1.636491e-06 -1.317417e-06 0.000000e+00 -5.441675e-06 1.205093e-06 0.000000e+00 1.524828e-07 -3.280161e-07 0.000000e+00 1.198283e-06 -9.881663e-09 0.000000e+00 5.725290e-07 -1.521117e-07 0.000000e+00 3.931355e-07 -2.041942e-07 0.000000e+00 7.561689e-07 -9.916107e-08 0.000000e+00 1.512217e-06 5.406938e-08 0.000000e+00 1.807844e-06 1.118583e-07 0.000000e+00 2.528796e-06 5.724878e-07 0.000000e+00 2.133215e-06 2.090941e-07 0.000000e+00 1.026560e-06 -4.537689e-08 0.000000e+00 1.434279e-06 3.485531e-08 0.000000e+00 7.182324e-07 -1.046916e-07 0.000000e+00 2.301369e-06 2.304838e-07 0.000000e+00 1.908813e-07 -2.907445e-07 0.000000e+00 1.547250e-06 3.511374e-06 0.000000e+00 2.012702e-06 1.767589e-07 0.000000e+00 -7.976112e-06 1.179472e-05 0.000000e+00 2.431762e-07 -2.981246e-07 0.000000e+00 1.355582e-06 1.913664e-08 0.000000e+00 -9.832295e-06 2.598461e-05 0.000000e+00 1.734017e-06 7.740267e-08 0.000000e+00 8.917080e-07 1.582910e-05 0.000000e+00 8.453621e-07 -8.478337e-08 0.000000e+00 1.276046e-06 5.009564e-09 0.000000e+00 -6.747652e-06 1.323139e-05 0.000000e+00 3.695184e-07 -1.950024e-07 0.000000e+00 7.612141e-08 -3.738804e-07 0.000000e+00 5.091961e-07 -1.612354e-07 0.000000e+00 2.818313e-07 -2.740230e-07 0.000000e+00 -6.298706e-06 4.508170e-06 0.000000e+00 1.091444e-06 -3.218180e-08 0.000000e+00 2.397118e-06 3.136446e-07 0.000000e+00 8.866487e-07 4.381814e-06 0.000000e+00 -3.612369e-08 -4.347202e-07 0.000000e+00 4.775948e-07 -1.648965e-07 0.000000e+00 5.713603e-08 -3.392733e-07 0.000000e+00 -6.440145e-07 -1.318567e-06 0.000000e+00 2.200274e-08 -3.543262e-07 0.000000e+00 9.619818e-07 -5.867154e-08 0.000000e+00 6.611251e-07 -1.284978e-07 0.000000e+00 -8.446352e-06 1.424533e-05 0.000000e+00 -9.419874e-07 -1.664141e-06 0.000000e+00 -9.250466e-07 -1.133080e-06 0.000000e+00 -5.154782e-07 -1.362215e-06 0.000000e+00 -3.212724e-07 -1.049632e-06 0.000000e+00 -2.574652e-07 -1.005238e-06 0.000000e+00 -1.122010e-07 -7.911177e-07 0.000000e+00 -1.032068e-07 -7.604422e-07 0.000000e+00 -1.329421e-07 -8.068818e-07 0.000000e+00 2.217821e-08 -5.512177e-07 0.000000e+00 -2.463158e-07 -1.032661e-06 0.000000e+00 -1.002569e-07 -6.611471e-07 0.000000e+00 -3.814608e-07 -1.025462e-06 0.000000e+00 -5.435807e-09 -5.081475e-07 0.000000e+00 5.480101e-07 -1.448085e-07 0.000000e+00 8.009317e-07 -9.251017e-08 0.000000e+00 -5.359204e-06 7.934257e-06 0.000000e+00 4.388029e-07 -2.306722e-07 0.000000e+00 1.135318e-06 -2.392246e-08 0.000000e+00 2.478730e-06 4.097561e-07 0.000000e+00 1.573050e-06 1.467760e-05 0.000000e+00 -1.959336e-06 -1.007805e-06 0.000000e+00 3.865435e-07 1.036250e-05 0.000000e+00 2.131406e-06 1.308536e-06 0.000000e+00 -5.960969e-06 1.079083e-05 0.000000e+00 -3.067022e-06 -9.237758e-07 0.000000e+00 1.998720e-06 3.495467e-07 0.000000e+00 2.172200e-06 1.821337e-06 0.000000e+00 1.829453e-07 1.444297e-05 0.000000e+00 9.057359e-08 -4.582134e-07 0.000000e+00 -1.044068e-06 -1.909780e-06 0.000000e+00 4.077239e-07 6.216943e-06 0.000000e+00 1.287038e-06 2.637607e-06 0.000000e+00 1.666948e-08 -6.076267e-07 0.000000e+00 -4.317236e-06 -5.939700e-07 0.000000e+00 -2.306371e-06 1.289144e-05 0.000000e+00 5.134557e-08 -5.838330e-07 0.000000e+00 1.412779e-07 8.827493e-06 0.000000e+00 7.171197e-07 -1.299628e-07 0.000000e+00 8.151881e-07 3.406526e-06 0.000000e+00 4.868718e-07 -2.129370e-07 0.000000e+00 -4.934631e-06 5.443158e-06 0.000000e+00 1.698087e-06 1.798666e-07 0.000000e+00 1.710834e-06 1.905710e-06 0.000000e+00 1.369612e-06 6.984322e-08 0.000000e+00 1.143635e-06 3.746856e-10 0.000000e+00 2.155294e-06 9.381391e-07 0.000000e+00 5.678276e-07 -1.923538e-07 0.000000e+00 2.220156e-07 7.384211e-06 0.000000e+00 -6.075204e-07 1.295380e-05 0.000000e+00 6.549475e-07 -1.525932e-07 0.000000e+00 7.444525e-08 5.093194e-06 0.000000e+00 1.060322e-06 1.339929e-05 0.000000e+00 2.152244e-06 3.867490e-07 0.000000e+00 7.122016e-07 1.197424e-05 0.000000e+00 1.323529e-07 -4.312997e-07 0.000000e+00 1.870027e-06 2.937775e-07 0.000000e+00 9.399647e-07 -6.539254e-08 0.000000e+00 1.324753e-06 3.972592e-08 0.000000e+00 5.187252e-07 -2.115070e-07 0.000000e+00 2.612321e-07 -3.425988e-07 0.000000e+00 7.908360e-07 -1.107706e-07 0.000000e+00 -1.035977e-07 -4.895128e-07 0.000000e+00 -1.550946e-07 -7.924107e-07 0.000000e+00 3.488856e-07 -3.085296e-07 0.000000e+00 3.262300e-07 -2.761228e-07 0.000000e+00 -4.674291e-06 3.519557e-06 0.000000e+00 8.559327e-07 -8.919547e-08 0.000000e+00 -3.730880e-06 1.285325e-05 0.000000e+00 1.813157e-06 2.211015e-07 0.000000e+00 1.657150e-07 -4.150807e-07 0.000000e+00 1.006087e-06 -4.662524e-08 0.000000e+00 -4.324567e-06 2.056144e-06 0.000000e+00 -4.595885e-07 -9.692860e-07 0.000000e+00 7.437237e-07 -1.255818e-07 0.000000e+00 -3.276223e-06 2.714307e-06 0.000000e+00 3.392908e-07 -2.933803e-07 0.000000e+00 -4.335679e-06 2.591593e-07 0.000000e+00 1.065028e-06 -2.400794e-08 0.000000e+00 1.625694e-06 1.233213e-07 0.000000e+00 -1.167676e-06 -9.761308e-07 0.000000e+00 3.750661e-07 -3.009998e-07 0.000000e+00 -2.235448e-06 -5.462576e-07 0.000000e+00 1.830355e-07 -4.280277e-07 0.000000e+00 -1.159371e-06 9.566033e-06 0.000000e+00 -5.969719e-07 6.234706e-06 0.000000e+00 1.230566e-06 2.225365e-08 0.000000e+00 -3.803847e-06 9.769360e-07 0.000000e+00 -1.017983e-06 7.718570e-06 0.000000e+00 3.582921e-08 -5.999214e-07 0.000000e+00 -5.200127e-06 1.288887e-05 0.000000e+00 9.837849e-07 -7.211347e-09 0.000000e+00 -1.719466e-07 -7.372058e-07 0.000000e+00 -5.224665e-07 -8.400081e-07 0.000000e+00 -3.180140e-06 1.131296e-05 0.000000e+00 1.451862e-06 1.110903e-07 0.000000e+00 -3.459646e-06 6.401040e-06 0.000000e+00 -4.008395e-06 9.308414e-06 0.000000e+00 -4.473971e-06 1.137453e-05 0.000000e+00 1.465688e-06 2.010612e-07 0.000000e+00 -3.448595e-06 4.265470e-06 0.000000e+00 -2.914779e-06 1.481608e-06 0.000000e+00 1.081491e-06 3.129122e-08 0.000000e+00 2.339754e-07 -4.062624e-07 0.000000e+00 -7.962899e-08 3.844901e-06 0.000000e+00 1.726066e-06 1.319769e-06 0.000000e+00 1.228017e-06 1.133826e-07 0.000000e+00 2.234266e-06 6.577767e-07 0.000000e+00 6.457364e-07 -1.589864e-07 0.000000e+00 2.160172e-06 5.294341e-07 0.000000e+00 -1.813420e-06 1.135534e-05 0.000000e+00 -7.516002e-07 -7.262527e-07 0.000000e+00 1.214176e-06 1.869658e-06 0.000000e+00 -3.268732e-06 -2.638352e-07 0.000000e+00 -1.284799e-06 -6.456632e-07 0.000000e+00 1.660924e-06 4.651975e-07 0.000000e+00 8.225332e-07 -8.345775e-08 0.000000e+00 -5.496942e-07 1.121492e-05 0.000000e+00 4.051784e-07 -2.862804e-07 0.000000e+00 8.968745e-07 -4.574823e-08 0.000000e+00 1.562050e-06 3.133790e-07 0.000000e+00 7.082313e-07 -1.265341e-07 0.000000e+00 2.644814e-07 -3.615017e-07 0.000000e+00 -3.271410e-06 3.086689e-07 0.000000e+00 2.374088e-07 -4.055511e-07 0.000000e+00 1.708309e-07 -4.621101e-07 0.000000e+00 5.131840e-07 -2.251005e-07 0.000000e+00 5.270788e-07 2.638238e-06 0.000000e+00 1.851480e-06 5.639473e-07 0.000000e+00 6.274511e-07 -1.721353e-07 0.000000e+00 -2.478128e-06 6.230447e-07 0.000000e+00 -1.284165e-07 -6.230443e-07 0.000000e+00 5.012046e-07 -1.839059e-07 0.000000e+00 -1.588727e-06 -2.758405e-07 0.000000e+00 -2.888296e-07 -5.864290e-07 0.000000e+00 1.270819e-06 1.803327e-07 0.000000e+00 4.161781e-07 -2.777260e-07 0.000000e+00 -2.418233e-06 -2.903348e-08 0.000000e+00 1.202999e-06 6.018900e-08 0.000000e+00 -1.008376e-06 4.881804e-06 0.000000e+00 6.740545e-08 -5.478242e-07 0.000000e+00 1.316817e-06 1.251708e-06 0.000000e+00 1.171672e-06 3.120919e-07 0.000000e+00 1.012208e-06 1.882805e-07 0.000000e+00 -2.043888e-06 1.933323e-06 0.000000e+00 -2.463343e-06 8.077357e-06 0.000000e+00 1.830389e-06 8.520310e-07 0.000000e+00 1.274453e-06 5.199966e-07 0.000000e+00 -5.635142e-07 -5.015735e-07 0.000000e+00 2.946051e-07 -3.131365e-07 0.000000e+00 8.562317e-07 4.133384e-08 0.000000e+00 7.705329e-07 1.741181e-06 0.000000e+00 8.559936e-07 5.354361e-07 0.000000e+00 5.701746e-07 -1.287874e-07 0.000000e+00 4.794052e-07 -2.229776e-07 0.000000e+00 -1.759729e-06 1.029559e-06 0.000000e+00 -2.582529e-06 9.841949e-06 0.000000e+00 1.019129e-06 9.148049e-08 0.000000e+00 9.697954e-08 -4.409408e-07 0.000000e+00 -2.244810e-06 4.743474e-06 0.000000e+00 -1.876530e-06 6.307305e-06 0.000000e+00 7.905957e-07 -1.835998e-08 0.000000e+00 -2.231090e-06 3.215064e-06 0.000000e+00 -6.018195e-08 -4.015596e-07 0.000000e+00 9.015497e-07 1.182112e-06 0.000000e+00 7.314869e-07 3.266282e-07 0.000000e+00 6.669715e-07 -7.063892e-08 0.000000e+00 3.077719e-07 -1.853953e-07 0.000000e+00 -1.503448e-06 5.072038e-07 0.000000e+00 7.113822e-07 1.382503e-07 0.000000e+00 2.727593e-07 -3.721993e-07 0.000000e+00 -1.677379e-06 1.288494e-07 0.000000e+00 2.729777e-07 -2.633848e-07 0.000000e+00 1.417328e-06 7.736734e-07 0.000000e+00 9.162673e-07 7.934548e-07 0.000000e+00 -9.945892e-07 1.232985e-06 0.000000e+00 1.630076e-07 2.183489e-06 0.000000e+00 -8.730785e-07 -3.276133e-07 0.000000e+00 -3.307479e-07 -3.051491e-07 0.000000e+00 -1.217493e-06 3.636020e-06 0.000000e+00 1.001199e-07 -4.869029e-07 0.000000e+00 -1.135282e-06 2.314029e-06 0.000000e+00 3.715436e-07 -9.632516e-08 0.000000e+00 -7.652531e-07 5.536877e-07 0.000000e+00 5.406049e-07 1.200802e-08 0.000000e+00 -1.082896e-06 -8.826358e-08 0.000000e+00 2.857389e-07 1.603860e-06 0.000000e+00 -4.518487e-07 -9.078832e-08 0.000000e+00 4.142218e-07 2.619264e-07 0.000000e+00 -2.247465e-07 1.357341e-06 0.000000e+00 4.595878e-07 5.587094e-07 0.000000e+00 9.382040e-08 -9.076667e-09 0.000000e+00 3.743093e-08 -2.653051e-07 0.000000e+00 2.684230e-07 1.314845e-07 0.000000e+00 4.597716e-07 1.131727e-06 0.000000e+00 -4.075401e-07 2.850942e-06 0.000000e+00 3.968043e-07 8.429167e-07 0.000000e+00 8.215586e-09 -1.627458e-07 0.000000e+00 -3.111561e-07 2.049054e-06 0.000000e+00 -9.115087e-07 1.850420e-07 0.000000e+00 3.012824e-07 4.323650e-07 0.000000e+00 -1.387889e-07 7.294239e-07 0.000000e+00 -2.824687e-07 1.626369e-07 0.000000e+00 -4.369690e-08 3.516392e-07 0.000000e+00 </DataArray>
 <DataArray type="Float64" Name="IST_StressTensor" NumberOfComponents="9" format="ascii"> 4.281601e-01 1.494853e+00 0.000000e+00 1.494853e+00 -1.082394e+00 0.000000e+00 0.000000e+00 0.000000e+00 0.000000e+00 -2.888136e-01 -2.976819e-01 0.000000e+00 -2.976819e-01 -3.068226e-01 0.000000e+00 0.000000e+00 0.000000e+00 0.000000e+00 1.483783e+01 4.720126e+00 0.000000e+00 4.720126e+00 2.437407e+00 0.000000e+00 0.000000e+00 0.000000e+00 0.000000e+00 1.832848e-01 -2.934776e-01 0.000000e+00 -2.934776e-01 1.356261e-01 0.000000e+00 0.000000e+00 0.000000e+00 0.000000e+00 8.358236e+00 2.492456e+00 0.000000e+00 2.492456e+00 7.072368e-01 0.000000e+00 0.000000e+00 0.000000e+00 0.000000e+00 -1.878601e+00 -1.902746e+00 0.000000e+00 -1.902746e+00 -1.777083e+00 0.000000e+00 0.000000e+00 0.000000e+00 0.000000e+00 9.221311e+01 3.141843e+01 0.000000e+00 3.141843e+01 1.072536e+02 0.000000e+00 0.000000e+00 0.000000e+00 0.000000e+00 1.093159e+00 -2.497618e+00 0.000000e+00 -2.497618e+00 -6.425811e+01 0.000000e+00 0.000000e+00 0.000000e+00 0.000000e+00 -5.311699e-01 1.413604e+00 0.000000e+00 1.413604e+00 -1.117717e+00 0.000000e+00 0.000000e+00 0.000000e+00 0.000000e+00 -1.211285e+00 9.247908e-01 0.000000e+00 9.247908e-01 -1.528756e+00 0.000000e+00 0.000000e+00 0.000000e+00 0.000000e+00 -1.356425e+00 3.685887e-01 0.000000e+00 3.685887e-01 -2.515914e+00 0.000000e+00 0.000000e+00 0.000000e+00 0.000000e+00 -8.248447e-01 2.681075e-01 0.000000e+00 2.681075e-01 -4.192974e+00 0.000000e+00 0.000000e+00 0.000000e+00 0.000000e+00 1.759920e-01 1.444481e+00 0.000000e+00 1.444481e+00 -6.072230e+00 0.000000e+00 0.000000e+00 0.000000e+00 0.000000e+00 6.440565e-01 3.555206e+00 0.000000e+00 3.555206e+00 -7.101384e+00 0.000000e+00 0.000000e+00 0.000000e+00 0.000000e+00 4.347357e-01 6.233502e+00 0.000000e+00 6.233502e+00 -7.228951e+00 0.000000e+00 0.000000e+00 0.000000e+00 0.000000e+00 -3.977600e-01 8.552795e+00 0.000000e+00 8.552795e+00 -6.610786e+00 0.000000e+00 0.000000e+00 0.000000e+00 0.000000e+00 -1.496380e+00 1.065759e+01 0.000000e+00 1.065759e+01 -5.546563e+00 0.000000e+00 0.000000e+00 0.000000e+00 0.000000e+00 -2.514446e+00 1.205626e+01 0.000000e+00 1.205626e+01 -3.960124e+00 0.000000e+00 0.000000e+00 0.000000e+00 0.000000e+00 -2.818094e+00 1.244705e+01 0.000000e+00 1.244705e+01 -2.095538e+00 0.000000e+00 0.000000e+00 0.000000e+00 0.000000e+00 -1.958381e+00 1.200989e+01 0.000000e+00 1.200989e+01 -7.482414e-01 0.000000e+00 0.000000e+00 0.000000e+00 0.000000e+00 1.330560e-01 1.134185e+01 0.000000e+00 1.134185e+01 -2.862062e-01 0.000000e+00 0.000000e+00 0.000000e+00 0.000000e+00 2.743442e+00 1.104065e+01 0.000000e+00 1.104065e+01 -3.682148e-01 0.000000e+00 0.000000e+00 0.000000e+00 0.000000e+00 4.934296e+00 1.109579e+01 0.000000e+00 1.109579e+01 -3.469629e-01 0.000000e+00 0.000000e+00 0.000000e+00 0.000000e+00 6.278074e+00 1.120368e+01 0.000000e+00 1.120368e+01 -2.229839e-02 0.000000e+00 0.000000e+00 0.000000e+00 0.000000e+00 6.563332e+00 1.105663e+01 0.000000e+00 1.105663e+01 8.295001e-01 0.000000e+00 0.000000e+00 0.000000e+00 0.000000e+00 5.745304e+00 1.045219e+01 0.000000e+00 1.045219e+01 2.111038e+00 0.000000e+00 0.000000e+00 0.000000e+00 0.000000e+00 3.691364e+00 8.930905e+00 0.000000e+00 8.930905e+00 3.375057e+00 0.000000e+00 0.000000e+00 0.000000e+00 0.000000e+00 1.487682e+00 6.511236e+00 0.000000e+00 6.511236e+00 3.891870e+00 0.000000e+00 0.000000e+00 0.000000e+00 0.000000e+00 5.946120e-01 3.812554e+00 0.000000e+00 3.812554e+00 4.366762e+00 0.000000e+00 0.000000e+00 0.000000e+00 0.000000e+00 2.885119e-01 1.385268e+00 0.000000e+00 1.385268e+00 3.910570e+00 0.000000e+00 0.000000e+00 0.000000e+00 0.000000e+00 6.954403e-01 -2.755151e-01 0.000000e+00 -2.755151e-01 3.039243e+00 0.000000e+00 0.000000e+00 0.000000e+00 0.000000e+00 1.724254e+00 -1.071037e+00 0.000000e+00 -1.071037e+00 1.452830e+00 0.000000e+00 0.000000e+00 0.000000e+00 0.000000e+00 2.257802e+00 -7.231269e-01 0.000000e+00 -7.231269e-01 7.250415e-02 0.000000e+00 0.000000e+00 0.000000e+00 0.000000e+00 2.193138e+00 1.393229e-01 0.000000e+00 1.393229e-01 -7.881645e-01 0.000000e+00 0.000000e+00 0.000000e+00 0.000000e+00 1.509840e+00 9.987413e-01 0.000000e+00 9.987413e-01 -1.081228e+00 0.000000e+00 0.000000e+00 0.000000e+00 0.000000e+00 -1.312861e+00 -3.471039e+00 0.000000e+00 -3.471039e+00 -6.304002e+00 0.000000e+00 0.000000e+00 0.000000e+00 0.000000e+00 3.163515e-02 -4.649157e+00 0.000000e+00 -4.649157e+00 -1.893236e+01 0.000000e+00 0.000000e+00 0.000000e+00 0.000000e+00 9.343780e-01 -3.640604e+00 0.000000e+00 -3.640604e+00 -3.784495e+01 0.000000e+00 0.000000e+00 0.000000e+00 0.000000e+00 9.700025e-01 -1.836023e+00 0.000000e+00 -1.836023e+00 -5.534200e+01 0.000000e+00 0.000000e+00 0.000000e+00 0.000000e+00 4.942839e+01 1.406814e+01 0.000000e+00 1.406814e+01 7.237083e+00 0.000000e+00 0.000000e+00 0.000000e+00 0.000000e+00 2.455209e+01 6.728308e-01 0.000000e+00 6.728308e-01 -2.218086e-01 0.000000e+00 0.000000e+00 0.000000e+00 0.000000e+00 2.283472e+01 1.185109e+00 0.000000e+00 1.185109e+00 1.737665e-01 0.000000e+00 0.000000e+00 0.000000e+00 0.000000e+00 2.071600e+01 1.259679e+00 0.000000e+00 1.259679e+00 -1.118097e-01 0.000000e+00 0.000000e+00 0.000000e+00 0.000000e+00 1.851816e+01 1.434441e+00 0.000000e+00 1.434441e+00 -1.383625e-01 0.000000e+00 0.000000e+00 0.000000e+00 0.000000e+00 1.618682e+01 1.622536e+00 0.000000e+00 1.622536e+00 -1.021349e-01 0.000000e+00 0.000000e+00 0.000000e+00 0.000000e+00 1.365783e+01 1.859432e+00 0.000000e+00 1.859432e+00 -1.385806e-01 0.000000e+00 0.000000e+00 0.000000e+00 0.000000e+00 1.063798e+01 2.130058e+00 0.000000e+00 2.130058e+00 -3.360635e-02 0.000000e+00 0.000000e+00 0.000000e+00 0.000000e+00 5.815531e-01 -2.602436e-01 0.000000e+00 -2.602436e-01 -5.408539e-02 0.000000e+00 0.000000e+00 0.000000e+00 0.000000e+00 8.477606e-01 -1.423660e-01 0.000000e+00 -1.423660e-01 -1.277666e-01 0.000000e+00 0.000000e+00 0.000000e+00 0.000000e+00 7.312344e-01 2.888477e-01 0.000000e+00 2.888477e-01 -3.618267e-01 0.000000e+00 0.000000e+00 0.000000e+00 0.000000e+00 -7.345945e-01 9.542084e-01 0.000000e+00 9.542084e-01 -4.238684e-01 0.000000e+00 0.000000e+00 0.000000e+00 0.000000e+00 -3.912976e+00 1.747154e+00 0.000000e+00 1.747154e+00 -4.354040e-01 0.000000e+00 0.000000e+00 0.000000e+00 0.000000e+00 -8.761059e+00 2.479211e+00 0.000000e+00 2.479211e+00 -3.217769e-01 0.000000e+00 0.000000e+00 0.000000e+00 0.000000e+00 -1.430433e+01 2.936312e+00 0.000000e+00 2.936312e+00 -1.284782e-01 0.000000e+00 0.000000e+00 0.000000e+00 0.000000e+00 -2.067515e+01 3.026578e+00 0.000000e+00 3.026578e+00 9.033480e-02 0.000000e+00 0.000000e+00 0.000000e+00 0.000000e+00 -2.640999e+01 2.705810e+00 0.000000e+00 2.705810e+00 4.441382e-01 0.000000e+00 0.000000e+00 0.000000e+00 0.000000e+00 -3.060969e+01 1.872536e+00 0.000000e+00 1.872536e+00 8.414384e-01 0.000000e+00 0.000000e+00 0.000000e+00 0.000000e+00 -3.161326e+01 1.338328e-01 0.000000e+00 1.338328e-01 1.457140e+00 0.000000e+00 0.000000e+00 0.000000e+00 0.000000e+00 -2.772233e+01 -2.688323e+00 0.000000e+00 -2.688323e+00 1.566652e+00 0.000000e+00 0.000000e+00 0.000000e+00 0.000000e+00 -1.866884e+01 -4.228582e+00 0.000000e+00 -4.228582e+00 8.417655e-01 0.000000e+00 0.000000e+00 0.000000e+00 0.000000e+00 -7.450354e+00 -3.701510e+00 0.000000e+00 -3.701510e+00 -9.319455e-01 0.000000e+00 0.000000e+00 0.000000e+00 0.000000e+00 1.201829e+01 4.487501e+00 0.000000e+00 4.487501e+00 1.471052e+00 0.000000e+00 0.000000e+00 0.000000e+00 0.000000e+00 -1.252597e-01 -3.329869e-01 0.000000e+00 -3.329869e-01 -5.221298e-01 0.000000e+00 0.000000e+00 0.000000e+00 0.000000e+00 7.367574e-02 -2.800375e-01 0.000000e+00 -2.800375e-01 -1.389348e+00 0.000000e+00 0.000000e+00 0.000000e+00 0.000000e+00 2.155267e-01 4.459691e-02 0.000000e+00 4.459691e-02 -1.741997e+00 0.000000e+00 0.000000e+00 0.000000e+00 0.000000e+00 1.597971e-01 3.747431e-01 0.000000e+00 3.747431e-01 -1.374306e+00 0.000000e+00 0.000000e+00 0.000000e+00 0.000000e+00 4.656777e-02 5.589432e-01 0.000000e+00 5.589432e-01 -4.484632e-01 0.000000e+00 0.000000e+00 0.000000e+00 0.000000e+00 -9.777649e-02 5.234829e-01 0.000000e+00 5.234829e-01 4.623570e-01 0.000000e+00 0.000000e+00 0.000000e+00 0.000000e+00 -1.440891e-01 2.803442e-01 0.000000e+00 2.803442e-01 1.165914e+00 0.000000e+00 0.000000e+00 0.000000e+00 0.000000e+00 -1.497325e-01 3.105108e-02 0.000000e+00 3.105108e-02 1.384677e+00 0.000000e+00 0.000000e+00 0.000000e+00 0.000000e+00 -1.233006e-01 -2.182784e-01 0.000000e+00 -2.182784e-01 1.049978e+00 0.000000e+00 0.000000e+00 0.000000e+00 0.000000e+00 2.053649e-02 -3.084218e-01 0.000000e+00 -3.084218e-01 4.643337e-01 0.000000e+00 0.000000e+00 0.000000e+00 0.000000e+00 1.291298e+01 3.169600e+00 0.000000e+00 3.169600e+00 6.844049e-01 0.000000e+00 0.000000e+00 0.000000e+00 0.000000e+00 7.238995e+00 2.378666e+00 0.000000e+00 2.378666e+00 2.430020e-01 0.000000e+00 0.000000e+00 0.000000e+00 0.000000e+00 2.542205e+00 1.944824e+00 0.000000e+00 1.944824e+00 3.766375e-01 0.000000e+00 0.000000e+00 0.000000e+00 0.000000e+00 -1.412395e+00 1.285703e+00 0.000000e+00 1.285703e+00 5.876573e-01 0.000000e+00 0.000000e+00 0.000000e+00 0.000000e+00 -3.505825e+00 3.548656e-01 0.000000e+00 3.548656e-01 5.738241e-01 0.000000e+00 0.000000e+00 0.000000e+00 0.000000e+00 -3.299535e+00 -3.694224e-01 0.000000e+00 -3.694224e-01 3.485159e-01 0.000000e+00 0.000000e+00 0.000000e+00 0.000000e+00 -1.918870e+00 -6.506606e-01 0.000000e+00 -6.506606e-01 5.587951e-02 0.000000e+00 0.000000e+00 0.000000e+00 0.000000e+00 -4.810147e-01 -4.947595e-01 0.000000e+00 -4.947595e-01 -2.540860e-01 0.000000e+00 0.000000e+00 0.000000e+00 0.000000e+00 -9.949091e+00 -2.757515e+00 0.000000e+00 -2.757515e+00 -5.997663e+01 0.000000e+00 0.000000e+00 0.000000e+00 0.000000e+00 -5.012566e+00 -2.034105e+00 0.000000e+00 -2.034105e+00 -5.735567e+01 0.000000e+00 0.000000e+00 0.000000e+00 0.000000e+00 -2.914938e+00 -1.247011e+00 0.000000e+00 -1.247011e+00 -5.440825e+01 0.000000e+00 0.000000e+00 0.000000e+00 0.000000e+00 -1.418288e+00 -8.915691e-01 0.000000e+00 -8.915691e-01 -5.138967e+01 0.000000e+00 0.000000e+00 0.000000e+00 0.000000e+00 -2.128620e-01 -7.125147e-01 0.000000e+00 -7.125147e-01 -4.854090e+01 0.000000e+00 0.000000e+00 0.000000e+00 0.000000e+00 7.355013e-01 -6.196176e-01 0.000000e+00 -6.196176e-01 -4.573916e+01 0.000000e+00 0.000000e+00 0.000000e+00 0.000000e+00 1.596377e+00 -5.860620e-01 0.000000e+00 -5.860620e-01 -4.304398e+01 0.000000e+00 0.000000e+00 0.000000e+00 0.000000e+00 2.376339e+00 -5.599485e-01 0.000000e+00 -5.599485e-01 -4.046479e+01 0.000000e+00 0.000000e+00 0.000000e+00 0.000000e+00 3.167015e+00 -5.736242e-01 0.000000e+00 -5.736242e-01 -3.797702e+01 0.000000e+00 0.000000e+00 0.000000e+00 0.000000e+00 3.964966e+00 -5.864605e-01 0.000000e+00 -5.864605e-01 -3.553041e+01 0.000000e+00 0.000000e+00 0.000000e+00 0.000000e+00 4.864329e+00 -6.093594e-01 0.000000e+00 -6.093594e-01 -3.313693e+01 0.000000e+00 0.000000e+00 0.000000e+00 0.000000e+00 5.762937e+00 -5.977965e-01 0.000000e+00 -5.977965e-01 -3.079992e+01 0.000000e+00 0.000000e+00 0.000000e+00 0.000000e+00 6.695613e+00 -6.042023e-01 0.000000e+00 -6.042023e-01 -2.857973e+01 0.000000e+00 0.000000e+00 0.000000e+00 0.000000e+00 7.684256e+00 -6.142509e-01 0.000000e+00 -6.142509e-01 -2.651948e+01 0.000000e+00 0.000000e+00 0.000000e+00 0.000000e+00 8.694817e+00 -6.100530e-01 0.000000e+00 -6.100530e-01 -2.440240e+01 0.000000e+00 0.000000e+00 0.000000e+00 0.000000e+00 9.728202e+00 -6.461262e-01 0.000000e+00 -6.461262e-01 -2.226707e+01 0.000000e+00 0.000000e+00 0.000000e+00 0.000000e+00 1.085832e+01 -6.817623e-01 0.000000e+00 -6.817623e-01 -2.024625e+01 0.000000e+00 0.000000e+00 0.000000e+00 0.000000e+00 1.200283e+01 -7.005633e-01 0.000000e+00 -7.005633e-01 -1.827896e+01 0.000000e+00 0.000000e+00 0.000000e+00 0.000000e+00 1.322798e+01 -7.440527e-01 0.000000e+00 -7.440527e-01 -1.634962e+01 0.000000e+00 0.000000e+00 0.000000e+00 0.000000e+00 1.447193e+01 -7.652461e-01 0.000000e+00 -7.652461e-01 -1.444759e+01 0.000000e+00 0.000000e+00 0.000000e+00 0.000000e+00 1.576523e+01 -7.901059e-01 0.000000e+00 -7.901059e-01 -1.246649e+01 0.000000e+00 0.000000e+00 0.000000e+00 0.000000e+00 1.713306e+01 -8.255682e-01 0.000000e+00 -8.255682e-01 -1.051719e+01 0.000000e+00 0.000000e+00 0.000000e+00 0.000000e+00 1.856033e+01 -8.472041e-01 0.000000e+00 -8.472041e-01 -8.662015e+00 0.000000e+00 0.000000e+00 0.000000e+00 0.000000e+00 2.003242e+01 -8.715349e-01 0.000000e+00 -8.715349e-01 -6.841715e+00 0.000000e+00 0.000000e+00 0.000000e+00 0.000000e+00 2.155772e+01 -9.137556e-01 0.000000e+00 -9.137556e-01 -4.987619e+00 0.000000e+00 0.000000e+00 0.000000e+00 0.000000e+00 2.317685e+01 -9.519645e-01 0.000000e+00 -9.519645e-01 -3.091440e+00 0.000000e+00 0.000000e+00 0.000000e+00 0.000000e+00 2.482423e+01 -9.663560e-01 0.000000e+00 -9.663560e-01 -1.086402e+00 0.000000e+00 0.000000e+00 0.000000e+00 0.000000e+00 2.656088e+01 -1.001040e+00 0.000000e+00 -1.001040e+00 9.931412e-01 0.000000e+00 0.000000e+00 0.000000e+00 0.000000e+00 2.836084e+01 -1.049843e+00 0.000000e+00 -1.049843e+00 2.983987e+00 0.000000e+00 0.000000e+00 0.000000e+00 0.000000e+00 3.025855e+01 -1.088801e+00 0.000000e+00 -1.088801e+00 5.010763e+00 0.000000e+00 0.000000e+00 0.000000e+00 0.000000e+00 3.223914e+01 -1.137763e+00 0.000000e+00 -1.137763e+00 7.267075e+00 0.000000e+00 0.000000e+00 0.000000e+00 0.000000e+00 3.427526e+01 -1.217426e+00 0.000000e+00 -1.217426e+00 9.670893e+00 0.000000e+00 0.000000e+00 0.000000e+00 0.000000e+00 3.645209e+01 -1.317575e+00 0.000000e+00 -1.317575e+00 1.210927e+01 0.000000e+00 0.000000e+00 0.000000e+00 0.000000e+00 3.881444e+01 -1.438858e+00 0.000000e+00 -1.438858e+00 1.451250e+01 0.000000e+00 0.000000e+00 0.000000e+00 0.000000e+00 4.136548e+01 -1.505155e+00 0.000000e+00 -1.505155e+00 1.700804e+01 0.000000e+00 0.000000e+00 0.000000e+00 0.000000e+00 4.407636e+01 -1.522626e+00 0.000000e+00 -1.522626e+00 1.987149e+01 0.000000e+00 0.000000e+00 0.000000e+00 0.000000e+00 4.693681e+01 -1.555692e+00 0.000000e+00 -1.555692e+00 2.301790e+01 0.000000e+00 0.000000e+00 0.000000e+00 0.000000e+00 5.002143e+01 -1.647320e+00 0.000000e+00 -1.647320e+00 2.622824e+01 0.000000e+00 0.000000e+00 0.000000e+00 0.000000e+00 5.324250e+01 -1.898873e+00 0.000000e+00 -1.898873e+00 2.973293e+01 0.000000e+00 0.000000e+00 0.000000e+00 0.000000e+00 5.704104e+01 -2.254951e+00 0.000000e+00 -2.254951e+00 3.356222e+01 0.000000e+00 0.000000e+00 0.000000e+00 0.000000e+00 6.126914e+01 -2.561255e+00 0.000000e+00 -2.561255e+00 3.776112e+01 0.000000e+00 0.000000e+00 0.000000e+00 0.000000e+00 6.613315e+01 -2.962866e+00 0.000000e+00 -2.962866e+00 4.249772e+01 0.000000e+00 0.000000e+00 0.000000e+00 0.000000e+00 7.194537e+01 -3.342093e+00 0.000000e+00 -3.342093e+00 4.817063e+01 0.000000e+00 0.000000e+00 0.000000e+00 0.000000e+00 7.873394e+01 -4.036789e+00 0.000000e+00 -4.036789e+00 5.498445e+01 0.000000e+00 0.000000e+00 0.000000e+00 0.000000e+00 8.671504e+01 -5.497885e+00 0.000000e+00 -5.497885e+00 6.296360e+01 0.000000e+00 0.000000e+00 0.000000e+00 0.000000e+00 9.700962e+01 -7.994850e+00 0.000000e+00 -7.994850e+00 7.325049e+01 0.000000e+00 0.000000e+00 0.000000e+00 0.000000e+00 1.108291e+02 -1.263776e+01 0.000000e+00 -1.263776e+01 8.779380e+01 0.000000e+00 0.000000e+00 0.000000e+00 0.000000e+00 1.287694e+02 -2.123000e+01 0.000000e+00 -2.123000e+01 1.110516e+02 0.000000e+00 0.000000e+00 0.000000e+00 0.000000e+00 1.483572e+02 -3.548698e+01 0.000000e+00 -3.548698e+01 1.556042e+02 0.000000e+00 0.000000e+00 0.000000e+00 0.000000e+00 -4.197307e+00 -3.743506e+00 0.000000e+00 -3.743506e+00 -6.094093e+01 0.000000e+00 0.000000e+00 0.000000e+00 0.000000e+00 -1.540853e+00 -1.498921e+00 0.000000e+00 -1.498921e+00 -5.310192e+01 0.000000e+00 0.000000e+00 0.000000e+00 0.000000e+00 4.890056e-01 -9.633655e-01 0.000000e+00 -9.633655e-01 -4.718127e+01 0.000000e+00 0.000000e+00 0.000000e+00 0.000000e+00 2.065377e+00 -8.642938e-01 0.000000e+00 -8.642938e-01 -4.180812e+01 0.000000e+00 0.000000e+00 0.000000e+00 0.000000e+00 3.544047e+00 -9.068607e-01 0.000000e+00 -9.068607e-01 -3.671518e+01 0.000000e+00 0.000000e+00 0.000000e+00 0.000000e+00 5.303725e+00 -9.977431e-01 0.000000e+00 -9.977431e-01 -3.192446e+01 0.000000e+00 0.000000e+00 0.000000e+00 0.000000e+00 7.175085e+00 -9.912110e-01 0.000000e+00 -9.912110e-01 -2.754134e+01 0.000000e+00 0.000000e+00 0.000000e+00 0.000000e+00 9.187131e+00 -1.073345e+00 0.000000e+00 -1.073345e+00 -2.331264e+01 0.000000e+00 0.000000e+00 0.000000e+00 0.000000e+00 1.139769e+01 -1.138965e+00 0.000000e+00 -1.138965e+00 -1.925123e+01 0.000000e+00 0.000000e+00 0.000000e+00 0.000000e+00 1.372456e+01 -1.330450e+00 0.000000e+00 -1.330450e+00 -1.537745e+01 0.000000e+00 0.000000e+00 0.000000e+00 0.000000e+00 1.638886e+01 -1.474767e+00 0.000000e+00 -1.474767e+00 -1.149495e+01 0.000000e+00 0.000000e+00 0.000000e+00 0.000000e+00 1.919100e+01 -1.549746e+00 0.000000e+00 -1.549746e+00 -7.739257e+00 0.000000e+00 0.000000e+00 0.000000e+00 0.000000e+00 2.221440e+01 -1.751823e+00 0.000000e+00 -1.751823e+00 -4.037911e+00 0.000000e+00 0.000000e+00 0.000000e+00 0.000000e+00 2.554997e+01 -1.883310e+00 0.000000e+00 -1.883310e+00 -6.808816e-02 0.000000e+00 0.000000e+00 0.000000e+00 0.000000e+00 2.914406e+01 -1.934708e+00 0.000000e+00 -1.934708e+00 4.047951e+00 0.000000e+00 0.000000e+00 0.000000e+00 0.000000e+00 3.303940e+01 -2.232144e+00 0.000000e+00 -2.232144e+00 8.508226e+00 0.000000e+00 0.000000e+00 0.000000e+00 0.000000e+00 3.743150e+01 -2.556212e+00 0.000000e+00 -2.556212e+00 1.341953e+01 0.000000e+00 0.000000e+00 0.000000e+00 0.000000e+00 4.233307e+01 -2.916415e+00 0.000000e+00 -2.916415e+00 1.862495e+01 0.000000e+00 0.000000e+00 0.000000e+00 0.000000e+00 4.821099e+01 -2.928265e+00 0.000000e+00 -2.928265e+00 2.474304e+01 0.000000e+00 0.000000e+00 0.000000e+00 0.000000e+00 5.440981e+01 -3.901616e+00 0.000000e+00 -3.901616e+00 3.170754e+01 0.000000e+00 0.000000e+00 0.000000e+00 0.000000e+00 6.245063e+01 -5.176758e+00 0.000000e+00 -5.176758e+00 4.047050e+01 0.000000e+00 0.000000e+00 0.000000e+00 0.000000e+00 7.356351e+01 -6.181398e+00 0.000000e+00 -6.181398e+00 5.182212e+01 0.000000e+00 0.000000e+00 0.000000e+00 0.000000e+00 8.647715e+01 -1.020922e+01 0.000000e+00 -1.020922e+01 6.851417e+01 0.000000e+00 0.000000e+00 0.000000e+00 0.000000e+00 1.012843e+02 -1.837790e+01 0.000000e+00 -1.837790e+01 9.902697e+01 0.000000e+00 0.000000e+00 0.000000e+00 0.000000e+00 9.697723e+01 -6.834345e+00 0.000000e+00 -6.834345e+00 1.671081e+02 0.000000e+00 0.000000e+00 0.000000e+00 0.000000e+00 2.860955e+01 4.092282e+00 0.000000e+00 4.092282e+00 1.280104e+00 0.000000e+00 0.000000e+00 0.000000e+00 0.000000e+00 2.083752e+01 2.869351e+00 0.000000e+00 2.869351e+00 8.471936e-02 0.000000e+00 0.000000e+00 0.000000e+00 0.000000e+00 1.565645e+01 2.894146e+00 0.000000e+00 2.894146e+00 -1.589303e-01 0.000000e+00 0.000000e+00 0.000000e+00 0.000000e+00 1.113700e+01 3.361261e+00 0.000000e+00 3.361261e+00 1.090041e-01 0.000000e+00 0.000000e+00 0.000000e+00 0.000000e+00 1.321305e+01 4.505487e+00 0.000000e+00 4.505487e+00 1.052402e+00 0.000000e+00 0.000000e+00 0.000000e+00 0.000000e+00 1.254393e+01 4.652787e+00 0.000000e+00 4.652787e+00 1.691467e+00 0.000000e+00 0.000000e+00 0.000000e+00 0.000000e+00 5.223956e+00 3.842958e+00 0.000000e+00 3.842958e+00 4.991942e-01 0.000000e+00 0.000000e+00 0.000000e+00 0.000000e+00 -1.395942e+00 1.111065e+00 0.000000e+00 1.111065e+00 7.364337e-01 0.000000e+00 0.000000e+00 0.000000e+00 0.000000e+00 -1.604193e+00 -7.602595e-01 0.000000e+00 -7.602595e-01 2.066241e-01 0.000000e+00 0.000000e+00 0.000000e+00 0.000000e+00 -5.109321e-02 -5.561516e-01 0.000000e+00 -5.561516e-01 -6.442326e-01 0.000000e+00 0.000000e+00 0.000000e+00 0.000000e+00 4.181340e-01 2.538823e-01 0.000000e+00 2.538823e-01 -1.323738e+00 0.000000e+00 0.000000e+00 0.000000e+00 0.000000e+00 -5.061036e-02 7.917978e-01 0.000000e+00 7.917978e-01 -2.628749e-01 0.000000e+00 0.000000e+00 0.000000e+00 0.000000e+00 -2.580679e-01 1.966402e-01 0.000000e+00 1.966402e-01 6.080486e-01 0.000000e+00 0.000000e+00 0.000000e+00 0.000000e+00 -1.248645e-01 -2.963123e-01 0.000000e+00 -2.963123e-01 2.302260e-01 0.000000e+00 0.000000e+00 0.000000e+00 0.000000e+00 2.079708e-01 -2.739038e-01 0.000000e+00 -2.739038e-01 -1.403919e-02 0.000000e+00 0.000000e+00 0.000000e+00 0.000000e+00 2.050119e-01 1.454585e-01 0.000000e+00 1.454585e-01 -4.948645e-01 0.000000e+00 0.000000e+00 0.000000e+00 0.000000e+00 -2.714055e+00 2.267659e+00 0.000000e+00 2.267659e+00 -7.290135e-01 0.000000e+00 0.000000e+00 0.000000e+00 0.000000e+00 -1.023171e+01 4.510574e+00 0.000000e+00 4.510574e+00 -3.328494e-01 0.000000e+00 0.000000e+00 0.000000e+00 0.000000e+00 -1.944460e+01 4.580571e+00 0.000000e+00 4.580571e+00 5.055787e-01 0.000000e+00 0.000000e+00 0.000000e+00 0.000000e+00 -2.514902e+01 1.308626e+00 0.000000e+00 1.308626e+00 1.738270e+00 0.000000e+00 0.000000e+00 0.000000e+00 0.000000e+00 -1.990076e+01 -5.464151e+00 0.000000e+00 -5.464151e+00 1.606952e+00 0.000000e+00 0.000000e+00 0.000000e+00 0.000000e+00 -1.168409e+01 -6.741776e+00 0.000000e+00 -6.741776e+00 -3.257669e-01 0.000000e+00 0.000000e+00 0.000000e+00 0.000000e+00 -3.998541e+00 -4.735377e+00 0.000000e+00 -4.735377e+00 -3.105936e+00 0.000000e+00 0.000000e+00 0.000000e+00 0.000000e+00 -1.164921e+00 -6.519694e+00 0.000000e+00 -6.519694e+00 -1.037947e+01 0.000000e+00 0.000000e+00 0.000000e+00 0.000000e+00 7.903562e-01 1.181953e+00 0.000000e+00 1.181953e+00 -1.020032e+00 0.000000e+00 0.000000e+00 0.000000e+00 0.000000e+00 1.566503e+00 4.706565e-01 0.000000e+00 4.706565e-01 -9.809773e-01 0.000000e+00 0.000000e+00 0.000000e+00 0.000000e+00 1.872780e+00 -4.307576e-01 0.000000e+00 -4.307576e-01 -5.271805e-01 0.000000e+00 0.000000e+00 0.000000e+00 0.000000e+00 1.740733e+00 -1.066598e+00 0.000000e+00 -1.066598e+00 5.454820e-01 0.000000e+00 0.000000e+00 0.000000e+00 0.000000e+00 9.391322e-01 -8.936059e-01 0.000000e+00 -8.936059e-01 1.794094e+00 0.000000e+00 0.000000e+00 0.000000e+00 0.000000e+00 2.421054e-01 2.936990e-01 0.000000e+00 2.936990e-01 2.805468e+00 0.000000e+00 0.000000e+00 0.000000e+00 0.000000e+00 4.046634e-01 2.283780e+00 0.000000e+00 2.283780e+00 3.486399e+00 0.000000e+00 0.000000e+00 0.000000e+00 0.000000e+00 1.340956e+00 4.737339e+00 0.000000e+00 4.737339e+00 3.594043e+00 0.000000e+00 0.000000e+00 0.000000e+00 0.000000e+00 3.079752e+00 7.233309e+00 0.000000e+00 7.233309e+00 3.125037e+00 0.000000e+00 0.000000e+00 0.000000e+00 0.000000e+00 5.345910e+00 9.108941e+00 0.000000e+00 9.108941e+00 2.410144e+00 0.000000e+00 0.000000e+00 0.000000e+00 0.000000e+00 6.804727e+00 1.026282e+01 0.000000e+00 1.026282e+01 1.366342e+00 0.000000e+00 0.000000e+00 0.000000e+00 0.000000e+00 7.033916e+00 1.080158e+01 0.000000e+00 1.080158e+01 4.386921e-01 0.000000e+00 0.000000e+00 0.000000e+00 0.000000e+00 6.053742e+00 1.104053e+01 0.000000e+00 1.104053e+01 -4.864629e-02 0.000000e+00 0.000000e+00 0.000000e+00 0.000000e+00 4.073612e+00 1.111527e+01 0.000000e+00 1.111527e+01 -1.054181e-01 0.000000e+00 0.000000e+00 0.000000e+00 0.000000e+00 1.417452e+00 1.132661e+01 0.000000e+00 1.132661e+01 3.407552e-02 0.000000e+00 0.000000e+00 0.000000e+00 0.000000e+00 -1.172766e+00 1.174664e+01 0.000000e+00 1.174664e+01 -9.467223e-02 0.000000e+00 0.000000e+00 0.000000e+00 0.000000e+00 -2.879780e+00 1.213393e+01 0.000000e+00 1.213393e+01 -9.602226e-01 0.000000e+00 0.000000e+00 0.000000e+00 0.000000e+00 -3.431275e+00 1.199865e+01 0.000000e+00 1.199865e+01 -2.554522e+00 0.000000e+00 0.000000e+00 0.000000e+00 0.000000e+00 -2.911572e+00 1.101946e+01 0.000000e+00 1.101946e+01 -4.183445e+00 0.000000e+00 0.000000e+00 0.000000e+00 0.000000e+00 -1.903259e+00 9.217518e+00 0.000000e+00 9.217518e+00 -5.385999e+00 0.000000e+00 0.000000e+00 0.000000e+00 0.000000e+00 -8.128642e-01 7.076502e+00 0.000000e+00 7.076502e+00 -6.178113e+00 0.000000e+00 0.000000e+00 0.000000e+00 0.000000e+00 -5.440825e-02 4.605760e+00 0.000000e+00 4.605760e+00 -6.508394e+00 0.000000e+00 0.000000e+00 0.000000e+00 0.000000e+00 -1.974773e-03 2.287717e+00 0.000000e+00 2.287717e+00 -5.859650e+00 0.000000e+00 0.000000e+00 0.000000e+00 0.000000e+00 -5.521474e-01 6.753770e-01 0.000000e+00 6.753770e-01 -4.410152e+00 0.000000e+00 0.000000e+00 0.000000e+00 0.000000e+00 -1.097420e+00 2.288891e-01 0.000000e+00 2.288891e-01 -2.783049e+00 0.000000e+00 0.000000e+00 0.000000e+00 0.000000e+00 -1.215410e+00 5.976825e-01 0.000000e+00 5.976825e-01 -1.634372e+00 0.000000e+00 0.000000e+00 0.000000e+00 0.000000e+00 -7.995928e-01 1.107783e+00 0.000000e+00 1.107783e+00 -1.027569e+00 0.000000e+00 0.000000e+00 0.000000e+00 0.000000e+00 -8.091717e-02 1.390417e+00 0.000000e+00 1.390417e+00 -9.161788e-01 0.000000e+00 0.000000e+00 0.000000e+00 0.000000e+00 -2.828937e+00 -2.324104e+00 0.000000e+00 -2.324104e+00 -5.634237e+01 0.000000e+00 0.000000e+00 0.000000e+00 0.000000e+00 -4.193102e-01 -1.138550e+00 0.000000e+00 -1.138550e+00 -5.005510e+01 0.000000e+00 0.000000e+00 0.000000e+00 0.000000e+00 1.288505e+00 -9.086795e-01 0.000000e+00 -9.086795e-01 -4.447081e+01 0.000000e+00 0.000000e+00 0.000000e+00 0.000000e+00 2.789857e+00 -8.657745e-01 0.000000e+00 -8.657745e-01 -3.923792e+01 0.000000e+00 0.000000e+00 0.000000e+00 0.000000e+00 4.400339e+00 -9.672401e-01 0.000000e+00 -9.672401e-01 -3.429346e+01 0.000000e+00 0.000000e+00 0.000000e+00 0.000000e+00 6.253692e+00 -9.957510e-01 0.000000e+00 -9.957510e-01 -2.970023e+01 0.000000e+00 0.000000e+00 0.000000e+00 0.000000e+00 8.128960e+00 -1.030174e+00 0.000000e+00 -1.030174e+00 -2.541464e+01 0.000000e+00 0.000000e+00 0.000000e+00 0.000000e+00 1.026203e+01 -1.130286e+00 0.000000e+00 -1.130286e+00 -2.127339e+01 0.000000e+00 0.000000e+00 0.000000e+00 0.000000e+00 1.256191e+01 -1.232101e+00 0.000000e+00 -1.232101e+00 -1.727359e+01 0.000000e+00 0.000000e+00 0.000000e+00 0.000000e+00 1.501863e+01 -1.428228e+00 0.000000e+00 -1.428228e+00 -1.344386e+01 0.000000e+00 0.000000e+00 0.000000e+00 0.000000e+00 1.777125e+01 -1.504730e+00 0.000000e+00 -1.504730e+00 -9.595930e+00 0.000000e+00 0.000000e+00 0.000000e+00 0.000000e+00 2.066386e+01 -1.661901e+00 0.000000e+00 -1.661901e+00 -5.889527e+00 0.000000e+00 0.000000e+00 0.000000e+00 0.000000e+00 2.382894e+01 -1.827864e+00 0.000000e+00 -1.827864e+00 -2.066022e+00 0.000000e+00 0.000000e+00 0.000000e+00 0.000000e+00 2.736777e+01 -1.857038e+00 0.000000e+00 -1.857038e+00 1.967169e+00 0.000000e+00 0.000000e+00 0.000000e+00 0.000000e+00 3.102358e+01 -2.069952e+00 0.000000e+00 -2.069952e+00 6.180808e+00 0.000000e+00 0.000000e+00 0.000000e+00 0.000000e+00 3.522694e+01 -2.388904e+00 0.000000e+00 -2.388904e+00 1.099371e+01 0.000000e+00 0.000000e+00 0.000000e+00 0.000000e+00 3.981946e+01 -2.766159e+00 0.000000e+00 -2.766159e+00 1.593743e+01 0.000000e+00 0.000000e+00 0.000000e+00 0.000000e+00 4.514912e+01 -2.962961e+00 0.000000e+00 -2.962961e+00 2.157935e+01 0.000000e+00 0.000000e+00 0.000000e+00 0.000000e+00 5.115214e+01 -3.277958e+00 0.000000e+00 -3.277958e+00 2.808049e+01 0.000000e+00 0.000000e+00 0.000000e+00 0.000000e+00 5.823649e+01 -4.541315e+00 0.000000e+00 -4.541315e+00 3.592816e+01 0.000000e+00 0.000000e+00 0.000000e+00 0.000000e+00 6.748625e+01 -5.709958e+00 0.000000e+00 -5.709958e+00 4.566729e+01 0.000000e+00 0.000000e+00 0.000000e+00 0.000000e+00 7.972000e+01 -7.659609e+00 0.000000e+00 -7.659609e+00 5.930967e+01 0.000000e+00 0.000000e+00 0.000000e+00 0.000000e+00 9.409323e+01 -1.366239e+01 0.000000e+00 -1.366239e+01 8.094816e+01 0.000000e+00 0.000000e+00 0.000000e+00 0.000000e+00 1.051177e+02 -2.211349e+01 0.000000e+00 -2.211349e+01 1.264417e+02 0.000000e+00 0.000000e+00 0.000000e+00 0.000000e+00 3.457175e+01 6.310225e+00 0.000000e+00 6.310225e+00 5.853206e-01 0.000000e+00 0.000000e+00 0.000000e+00 0.000000e+00 2.420983e+01 3.180709e+00 0.000000e+00 3.180709e+00 3.833684e-01 0.000000e+00 0.000000e+00 0.000000e+00 0.000000e+00 1.809410e+01 2.822283e+00 0.000000e+00 2.822283e+00 -3.091601e-02 0.000000e+00 0.000000e+00 0.000000e+00 0.000000e+00 1.340222e+01 3.074618e+00 0.000000e+00 3.074618e+00 -2.930912e-01 0.000000e+00 0.000000e+00 0.000000e+00 0.000000e+00 1.196517e+01 4.955890e+00 0.000000e+00 4.955890e+00 1.683138e+00 0.000000e+00 0.000000e+00 0.000000e+00 0.000000e+00 9.002724e+00 4.267588e+00 0.000000e+00 4.267588e+00 6.302593e-01 0.000000e+00 0.000000e+00 0.000000e+00 0.000000e+00 1.516186e+00 2.880982e+00 0.000000e+00 2.880982e+00 7.939855e-01 0.000000e+00 0.000000e+00 0.000000e+00 0.000000e+00 -2.182710e+00 -1.032459e-01 0.000000e+00 -1.032459e-01 5.543921e-01 0.000000e+00 0.000000e+00 0.000000e+00 0.000000e+00 -6.854880e-01 -8.311120e-01 0.000000e+00 -8.311120e-01 -2.108091e-01 0.000000e+00 0.000000e+00 0.000000e+00 0.000000e+00 3.757089e-01 -3.025202e-01 0.000000e+00 -3.025202e-01 -1.242329e+00 0.000000e+00 0.000000e+00 0.000000e+00 0.000000e+00 2.112026e-01 6.658850e-01 0.000000e+00 6.658850e-01 -9.084132e-01 0.000000e+00 0.000000e+00 0.000000e+00 0.000000e+00 -2.786516e-01 5.841027e-01 0.000000e+00 5.841027e-01 2.346927e-01 0.000000e+00 0.000000e+00 0.000000e+00 0.000000e+00 -2.401327e-01 -1.084286e-01 0.000000e+00 -1.084286e-01 4.975565e-01 0.000000e+00 0.000000e+00 0.000000e+00 0.000000e+00 -1.473280e+01 4.937029e+00 0.000000e+00 4.937029e+00 -5.151781e-03 0.000000e+00 0.000000e+00 0.000000e+00 0.000000e+00 -6.398353e-01 1.098104e+00 0.000000e+00 1.098104e+00 -7.249451e-01 0.000000e+00 0.000000e+00 0.000000e+00 0.000000e+00 -6.038520e+00 3.481456e+00 0.000000e+00 3.481456e+00 -6.568458e-01 0.000000e+00 0.000000e+00 0.000000e+00 0.000000e+00 -2.313743e+01 3.459782e+00 0.000000e+00 3.459782e+00 1.042909e+00 0.000000e+00 0.000000e+00 0.000000e+00 0.000000e+00 -2.357842e+01 -2.507331e+00 0.000000e+00 -2.507331e+00 2.538919e+00 0.000000e+00 0.000000e+00 0.000000e+00 0.000000e+00 -4.491848e-01 -7.455273e+00 0.000000e+00 -7.455273e+00 -1.831081e+01 0.000000e+00 0.000000e+00 0.000000e+00 0.000000e+00 1.344649e+00 -1.666264e+00 0.000000e+00 -1.666264e+00 -4.603517e+01 0.000000e+00 0.000000e+00 0.000000e+00 0.000000e+00 2.512466e+00 -1.645377e+00 0.000000e+00 -1.645377e+00 -4.060073e+01 0.000000e+00 0.000000e+00 0.000000e+00 0.000000e+00 8.509270e+00 -2.294878e+00 0.000000e+00 -2.294878e+00 -2.418989e+01 0.000000e+00 0.000000e+00 0.000000e+00 0.000000e+00 6.697627e+00 -2.012989e+00 0.000000e+00 -2.012989e+00 -2.863573e+01 0.000000e+00 0.000000e+00 0.000000e+00 0.000000e+00 1.857543e+00 -1.661222e+00 0.000000e+00 -1.661222e+00 -4.325838e+01 0.000000e+00 0.000000e+00 0.000000e+00 0.000000e+00 7.555564e+00 -2.078450e+00 0.000000e+00 -2.078450e+00 -2.635411e+01 0.000000e+00 0.000000e+00 0.000000e+00 0.000000e+00 5.772176e+00 -2.099976e+00 0.000000e+00 -2.099976e+00 -3.076428e+01 0.000000e+00 0.000000e+00 0.000000e+00 0.000000e+00 1.819685e+01 -3.002077e+00 0.000000e+00 -3.002077e+00 -8.630260e+00 0.000000e+00 0.000000e+00 0.000000e+00 0.000000e+00 1.549021e+01 -2.967886e+00 0.000000e+00 -2.967886e+00 -1.246856e+01 0.000000e+00 0.000000e+00 0.000000e+00 0.000000e+00 7.380872e+01 -1.461464e+01 0.000000e+00 -1.461464e+01 6.449133e+01 0.000000e+00 0.000000e+00 0.000000e+00 0.000000e+00 1.693173e+01 -2.984595e+00 0.000000e+00 -2.984595e+00 -1.055408e+01 0.000000e+00 0.000000e+00 0.000000e+00 0.000000e+00 1.414708e+01 -2.873072e+00 0.000000e+00 -2.873072e+00 -1.441064e+01 0.000000e+00 0.000000e+00 0.000000e+00 0.000000e+00 2.431062e+01 -3.754782e+00 0.000000e+00 -3.754782e+00 -9.637625e-01 0.000000e+00 0.000000e+00 0.000000e+00 0.000000e+00 2.793156e+01 -3.830321e+00 0.000000e+00 -3.830321e+00 3.096012e+00 0.000000e+00 0.000000e+00 0.000000e+00 0.000000e+00 2.602450e+01 -3.828434e+00 0.000000e+00 -3.828434e+00 1.010725e+00 0.000000e+00 0.000000e+00 0.000000e+00 0.000000e+00 2.256699e+01 -3.642942e+00 0.000000e+00 -3.642942e+00 -2.996515e+00 0.000000e+00 0.000000e+00 0.000000e+00 0.000000e+00 3.355951e+01 -4.748056e+00 0.000000e+00 -4.748056e+00 9.895537e+00 0.000000e+00 0.000000e+00 0.000000e+00 0.000000e+00 4.576887e+01 -6.040873e+00 0.000000e+00 -6.040873e+00 2.388217e+01 0.000000e+00 0.000000e+00 0.000000e+00 0.000000e+00 3.798863e+01 -5.268235e+00 0.000000e+00 -5.268235e+00 1.512442e+01 0.000000e+00 0.000000e+00 0.000000e+00 0.000000e+00 4.274811e+01 -5.925008e+00 0.000000e+00 -5.925008e+00 2.084068e+01 0.000000e+00 0.000000e+00 0.000000e+00 0.000000e+00 6.565015e+01 -1.125405e+01 0.000000e+00 -1.125405e+01 5.043044e+01 0.000000e+00 0.000000e+00 0.000000e+00 0.000000e+00 5.729510e+01 -9.199837e+00 0.000000e+00 -9.199837e+00 3.906547e+01 0.000000e+00 0.000000e+00 0.000000e+00 0.000000e+00 4.013622e+01 -5.670766e+00 0.000000e+00 -5.670766e+00 1.784796e+01 0.000000e+00 0.000000e+00 0.000000e+00 0.000000e+00 6.100649e+01 -1.036612e+01 0.000000e+00 -1.036612e+01 4.441824e+01 0.000000e+00 0.000000e+00 0.000000e+00 0.000000e+00 5.374990e+01 -8.040258e+00 0.000000e+00 -8.040258e+00 3.410372e+01 0.000000e+00 0.000000e+00 0.000000e+00 0.000000e+00 7.202864e+01 -1.196611e+01 0.000000e+00 -1.196611e+01 5.641831e+01 0.000000e+00 0.000000e+00 0.000000e+00 0.000000e+00 2.319156e+01 6.526460e+00 0.000000e+00 6.526460e+00 1.154620e+00 0.000000e+00 0.000000e+00 0.000000e+00 0.000000e+00 6.577209e+01 -7.452703e+00 0.000000e+00 -7.452703e+00 1.341984e+02 0.000000e+00 0.000000e+00 0.000000e+00 0.000000e+00 1.727889e+01 5.107405e+00 0.000000e+00 5.107405e+00 -1.092766e-02 0.000000e+00 0.000000e+00 0.000000e+00 0.000000e+00 2.761512e+01 8.405882e+00 0.000000e+00 8.405882e+00 2.763409e+00 0.000000e+00 0.000000e+00 0.000000e+00 0.000000e+00 3.345341e+01 1.289623e+01 0.000000e+00 1.289623e+01 6.304562e+00 0.000000e+00 0.000000e+00 0.000000e+00 0.000000e+00 7.523560e+01 -1.898142e+01 0.000000e+00 -1.898142e+01 1.115426e+02 0.000000e+00 0.000000e+00 0.000000e+00 0.000000e+00 1.986171e+01 5.615155e+00 0.000000e+00 5.615155e+00 4.335768e-01 0.000000e+00 0.000000e+00 0.000000e+00 0.000000e+00 5.331350e+01 2.024709e+01 0.000000e+00 2.024709e+01 5.340625e+00 0.000000e+00 0.000000e+00 0.000000e+00 0.000000e+00 7.371341e+00 6.692152e+00 0.000000e+00 6.692152e+00 1.159504e+00 0.000000e+00 0.000000e+00 0.000000e+00 0.000000e+00 1.385264e+01 4.479148e+00 0.000000e+00 4.479148e+00 -1.928595e-01 0.000000e+00 0.000000e+00 0.000000e+00 0.000000e+00 9.777303e+00 6.173771e+00 0.000000e+00 6.173771e+00 1.507982e+00 0.000000e+00 0.000000e+00 0.000000e+00 0.000000e+00 -4.259114e-01 -4.014219e-02 0.000000e+00 -4.014219e-02 -7.821957e-01 0.000000e+00 0.000000e+00 0.000000e+00 0.000000e+00 4.665780e+00 6.456715e+00 0.000000e+00 6.456715e+00 1.587567e+00 0.000000e+00 0.000000e+00 0.000000e+00 0.000000e+00 -6.106602e-01 4.495756e-01 0.000000e+00 4.495756e-01 -2.763942e-01 0.000000e+00 0.000000e+00 0.000000e+00 0.000000e+00 7.213081e-01 6.961462e-01 0.000000e+00 6.961462e-01 -1.059353e+00 0.000000e+00 0.000000e+00 0.000000e+00 0.000000e+00 -3.626609e-01 -6.256852e-01 0.000000e+00 -6.256852e-01 9.907179e-01 0.000000e+00 0.000000e+00 0.000000e+00 0.000000e+00 -1.283670e-03 -1.114307e+00 0.000000e+00 -1.114307e+00 -5.649997e-03 0.000000e+00 0.000000e+00 0.000000e+00 0.000000e+00 8.427107e-02 -2.141922e+00 0.000000e+00 -2.141922e+00 -5.194743e+01 0.000000e+00 0.000000e+00 0.000000e+00 0.000000e+00 4.241344e-01 -8.310414e-01 0.000000e+00 -8.310414e-01 -6.365670e-01 0.000000e+00 0.000000e+00 0.000000e+00 0.000000e+00 1.004947e+00 -1.623420e-01 0.000000e+00 -1.623420e-01 -9.680109e-01 0.000000e+00 0.000000e+00 0.000000e+00 0.000000e+00 -6.771101e+00 6.648899e+00 0.000000e+00 6.648899e+00 -1.012999e+00 0.000000e+00 0.000000e+00 0.000000e+00 0.000000e+00 -5.685241e-01 1.181958e-01 0.000000e+00 1.181958e-01 -5.189810e-01 0.000000e+00 0.000000e+00 0.000000e+00 0.000000e+00 -3.990329e+00 4.936255e+00 0.000000e+00 4.936255e+00 -1.451612e+00 0.000000e+00 0.000000e+00 0.000000e+00 0.000000e+00 -9.532754e+00 8.096752e+00 0.000000e+00 8.096752e+00 -2.442826e-01 0.000000e+00 0.000000e+00 0.000000e+00 0.000000e+00 -2.196565e-01 2.770980e-02 0.000000e+00 2.770980e-02 -7.013447e-01 0.000000e+00 0.000000e+00 0.000000e+00 0.000000e+00 -1.515338e+01 6.800187e+00 0.000000e+00 6.800187e+00 1.904212e+00 0.000000e+00 0.000000e+00 0.000000e+00 0.000000e+00 -1.574292e+01 -7.505599e+00 0.000000e+00 -7.505599e+00 5.310726e+00 0.000000e+00 0.000000e+00 0.000000e+00 0.000000e+00 -1.848099e+00 3.024848e+00 0.000000e+00 3.024848e+00 -1.628169e+00 0.000000e+00 0.000000e+00 0.000000e+00 0.000000e+00 -1.264287e+01 7.941805e+00 0.000000e+00 7.941805e+00 7.864146e-01 0.000000e+00 0.000000e+00 0.000000e+00 0.000000e+00 -1.203925e+01 -1.061098e+01 0.000000e+00 -1.061098e+01 2.224727e+00 0.000000e+00 0.000000e+00 0.000000e+00 0.000000e+00 -2.057397e+00 -1.179037e+01 0.000000e+00 -1.179037e+01 -1.101458e+01 0.000000e+00 0.000000e+00 0.000000e+00 0.000000e+00 -7.408556e+00 -1.107325e+01 0.000000e+00 -1.107325e+01 -1.897242e+00 0.000000e+00 0.000000e+00 0.000000e+00 0.000000e+00 7.231672e-01 -1.781491e+00 0.000000e+00 -1.781491e+00 -4.889028e+01 0.000000e+00 0.000000e+00 0.000000e+00 0.000000e+00 3.578779e+01 -4.920680e+00 0.000000e+00 -4.920680e+00 1.241574e+01 0.000000e+00 0.000000e+00 0.000000e+00 0.000000e+00 7.011280e+01 3.811681e+01 0.000000e+00 3.811681e+01 1.300461e+02 0.000000e+00 0.000000e+00 0.000000e+00 0.000000e+00 -6.450851e-01 1.239122e+00 0.000000e+00 1.239122e+00 -1.533343e+00 0.000000e+00 0.000000e+00 0.000000e+00 0.000000e+00 4.359192e-01 -5.701006e+00 0.000000e+00 -5.701006e+00 -2.800907e+01 0.000000e+00 0.000000e+00 0.000000e+00 0.000000e+00 1.067144e+01 -2.337232e+00 0.000000e+00 -2.337232e+00 -2.022673e+01 0.000000e+00 0.000000e+00 0.000000e+00 0.000000e+00 1.170721e+00 -9.363706e-01 0.000000e+00 -9.363706e-01 -3.141893e-01 0.000000e+00 0.000000e+00 0.000000e+00 0.000000e+00 8.032113e-01 -1.176044e+00 0.000000e+00 -1.176044e+00 6.244888e-01 0.000000e+00 0.000000e+00 0.000000e+00 0.000000e+00 -5.038286e-01 7.593516e-01 0.000000e+00 7.593516e-01 1.621448e+00 0.000000e+00 0.000000e+00 0.000000e+00 0.000000e+00 2.298163e+00 4.919793e+00 0.000000e+00 4.919793e+00 2.147413e+00 0.000000e+00 0.000000e+00 0.000000e+00 0.000000e+00 6.905553e+00 8.718158e+00 0.000000e+00 8.718158e+00 1.458741e+00 0.000000e+00 0.000000e+00 0.000000e+00 0.000000e+00 7.656628e+00 1.048553e+01 0.000000e+00 1.048553e+01 3.094286e-01 0.000000e+00 0.000000e+00 0.000000e+00 0.000000e+00 2.982209e+00 1.131517e+01 0.000000e+00 1.131517e+01 5.207970e-01 0.000000e+00 0.000000e+00 0.000000e+00 0.000000e+00 -2.823418e+00 1.182225e+01 0.000000e+00 1.182225e+01 2.712984e-01 0.000000e+00 0.000000e+00 0.000000e+00 0.000000e+00 -4.346962e+00 1.162131e+01 0.000000e+00 1.162131e+01 -7.709086e-01 0.000000e+00 0.000000e+00 0.000000e+00 0.000000e+00 -4.610541e+00 1.078555e+01 0.000000e+00 1.078555e+01 -2.168128e+00 0.000000e+00 0.000000e+00 0.000000e+00 0.000000e+00 -3.701553e+00 9.357589e+00 0.000000e+00 9.357589e+00 -3.336110e+00 0.000000e+00 0.000000e+00 0.000000e+00 0.000000e+00 -1.168763e+00 5.194383e+00 0.000000e+00 5.194383e+00 -4.676771e+00 0.000000e+00 0.000000e+00 0.000000e+00 0.000000e+00 -4.224518e-01 3.042557e+00 0.000000e+00 3.042557e+00 -4.594884e+00 0.000000e+00 0.000000e+00 0.000000e+00 0.000000e+00 -4.649032e-01 1.184223e+00 0.000000e+00 1.184223e+00 -3.669654e+00 0.000000e+00 0.000000e+00 0.000000e+00 0.000000e+00 -9.570674e-01 3.633060e-01 0.000000e+00 3.633060e-01 -1.340483e+00 0.000000e+00 0.000000e+00 0.000000e+00 0.000000e+00 -7.460298e-01 7.740922e-01 0.000000e+00 7.740922e-01 -7.024932e-01 0.000000e+00 0.000000e+00 0.000000e+00 0.000000e+00 7.048548e+01 3.976348e+01 0.000000e+00 3.976348e+01 5.075417e+01 0.000000e+00 0.000000e+00 0.000000e+00 0.000000e+00 3.856224e+01 2.153043e+01 0.000000e+00 2.153043e+01 1.735176e+01 0.000000e+00 0.000000e+00 0.000000e+00 0.000000e+00 5.530336e-01 -1.048735e+01 0.000000e+00 -1.048735e+01 -2.203966e+01 0.000000e+00 0.000000e+00 0.000000e+00 0.000000e+00 4.659747e+01 3.294790e+01 0.000000e+00 3.294790e+01 3.825813e+01 0.000000e+00 0.000000e+00 0.000000e+00 0.000000e+00 -1.412481e-01 -3.320049e+00 0.000000e+00 -3.320049e+00 -5.930400e+01 0.000000e+00 0.000000e+00 0.000000e+00 0.000000e+00 3.922497e+00 -1.941056e+00 0.000000e+00 -1.941056e+00 -3.541526e+01 0.000000e+00 0.000000e+00 0.000000e+00 0.000000e+00 1.963473e+01 -3.241836e+00 0.000000e+00 -3.241836e+00 -6.748645e+00 0.000000e+00 0.000000e+00 0.000000e+00 0.000000e+00 9.727460e+00 -2.382638e+00 0.000000e+00 -2.382638e+00 -2.228022e+01 0.000000e+00 0.000000e+00 0.000000e+00 0.000000e+00 2.947649e+01 -4.117454e+00 0.000000e+00 -4.117454e+00 5.244926e+00 0.000000e+00 0.000000e+00 0.000000e+00 0.000000e+00 4.874516e+01 -5.749361e+00 0.000000e+00 -5.749361e+00 2.658673e+01 0.000000e+00 0.000000e+00 0.000000e+00 0.000000e+00 5.298289e+01 1.881912e+01 0.000000e+00 1.881912e+01 1.313586e+02 0.000000e+00 0.000000e+00 0.000000e+00 0.000000e+00 1.527438e+01 4.794402e+00 0.000000e+00 4.794402e+00 -3.071064e-01 0.000000e+00 0.000000e+00 0.000000e+00 0.000000e+00 7.692559e+01 -1.752939e+01 0.000000e+00 -1.752939e+01 7.602179e+01 0.000000e+00 0.000000e+00 0.000000e+00 0.000000e+00 -1.690412e+01 4.582406e+00 0.000000e+00 4.582406e+00 3.406797e+00 0.000000e+00 0.000000e+00 0.000000e+00 0.000000e+00 1.278765e+01 5.333406e+00 0.000000e+00 5.333406e+00 5.777303e-01 0.000000e+00 0.000000e+00 0.000000e+00 0.000000e+00 -7.809970e-01 -6.518939e+00 0.000000e+00 -6.518939e+00 -3.069763e+01 0.000000e+00 0.000000e+00 0.000000e+00 0.000000e+00 -5.539558e-01 -1.240393e+01 0.000000e+00 -1.240393e+01 -1.529762e+01 0.000000e+00 0.000000e+00 0.000000e+00 0.000000e+00 3.159310e+00 -1.752865e+00 0.000000e+00 -1.752865e+00 -3.788021e+01 0.000000e+00 0.000000e+00 0.000000e+00 0.000000e+00 -1.602702e+01 -3.458575e+00 0.000000e+00 -3.458575e+00 6.552847e+00 0.000000e+00 0.000000e+00 0.000000e+00 0.000000e+00 4.943853e+01 3.534193e+01 0.000000e+00 3.534193e+01 7.896285e+01 0.000000e+00 0.000000e+00 0.000000e+00 0.000000e+00 -3.885575e+00 -1.037742e+01 0.000000e+00 -1.037742e+01 -5.835043e+00 0.000000e+00 0.000000e+00 0.000000e+00 0.000000e+00 1.820383e-01 1.155766e+00 0.000000e+00 1.155766e+00 -7.897356e-01 0.000000e+00 0.000000e+00 0.000000e+00 0.000000e+00 1.191789e+01 -2.427892e+00 0.000000e+00 -2.427892e+00 -1.822355e+01 0.000000e+00 0.000000e+00 0.000000e+00 0.000000e+00 -3.418511e-01 1.119768e+00 0.000000e+00 1.119768e+00 -5.144969e-01 0.000000e+00 0.000000e+00 0.000000e+00 0.000000e+00 -7.090339e-01 2.986395e-01 0.000000e+00 2.986395e-01 -2.164844e+00 0.000000e+00 0.000000e+00 0.000000e+00 0.000000e+00 -2.341523e+00 7.398547e+00 0.000000e+00 7.398547e+00 -4.148414e+00 0.000000e+00 0.000000e+00 0.000000e+00 0.000000e+00 -6.107026e+00 9.084710e+00 0.000000e+00 9.084710e+00 -1.513179e+00 0.000000e+00 0.000000e+00 0.000000e+00 0.000000e+00 -1.861049e-01 1.161222e+01 0.000000e+00 1.161222e+01 6.447031e-01 0.000000e+00 0.000000e+00 0.000000e+00 0.000000e+00 5.864483e+00 1.098863e+01 0.000000e+00 1.098863e+01 2.820077e-01 0.000000e+00 0.000000e+00 0.000000e+00 0.000000e+00 8.112412e+00 9.609692e+00 0.000000e+00 9.609692e+00 7.686748e-01 0.000000e+00 0.000000e+00 0.000000e+00 0.000000e+00 4.645465e-01 2.814276e+00 0.000000e+00 2.814276e+00 2.053382e+00 0.000000e+00 0.000000e+00 0.000000e+00 0.000000e+00 -3.116007e-01 -2.726945e+00 0.000000e+00 -2.726945e+00 -5.541426e+01 0.000000e+00 0.000000e+00 0.000000e+00 0.000000e+00 4.815785e+00 -2.050856e+00 0.000000e+00 -2.050856e+00 -3.299710e+01 0.000000e+00 0.000000e+00 0.000000e+00 0.000000e+00 1.293814e+01 -2.663383e+00 0.000000e+00 -2.663383e+00 -1.627253e+01 0.000000e+00 0.000000e+00 0.000000e+00 0.000000e+00 2.105296e+01 -3.453521e+00 0.000000e+00 -3.453521e+00 -4.936968e+00 0.000000e+00 0.000000e+00 0.000000e+00 0.000000e+00 3.137650e+01 -4.490744e+00 0.000000e+00 -4.490744e+00 7.525894e+00 0.000000e+00 0.000000e+00 0.000000e+00 0.000000e+00 5.085781e+01 -6.949905e+00 0.000000e+00 -6.949905e+00 2.987782e+01 0.000000e+00 0.000000e+00 0.000000e+00 0.000000e+00 7.804847e+01 -1.989253e+01 0.000000e+00 -1.989253e+01 9.175696e+01 0.000000e+00 0.000000e+00 0.000000e+00 0.000000e+00 -1.768941e+01 9.865335e-01 0.000000e+00 9.865335e-01 5.225925e+00 0.000000e+00 0.000000e+00 0.000000e+00 0.000000e+00 4.328643e-01 -8.264668e+00 0.000000e+00 -8.264668e+00 -3.123502e+01 0.000000e+00 0.000000e+00 0.000000e+00 0.000000e+00 7.429935e-01 -1.124201e+01 0.000000e+00 -1.124201e+01 -2.393433e+01 0.000000e+00 0.000000e+00 0.000000e+00 0.000000e+00 -2.060157e-01 -3.354057e+00 0.000000e+00 -3.354057e+00 -4.055266e+01 0.000000e+00 0.000000e+00 0.000000e+00 0.000000e+00 1.882287e+00 -1.056296e+01 0.000000e+00 -1.056296e+01 -2.756363e+01 0.000000e+00 0.000000e+00 0.000000e+00 0.000000e+00 1.351040e+00 -7.150728e+00 0.000000e+00 -7.150728e+00 -3.608423e+01 0.000000e+00 0.000000e+00 0.000000e+00 0.000000e+00 1.871647e+00 -2.220515e+00 0.000000e+00 -2.220515e+00 -4.498801e+01 0.000000e+00 0.000000e+00 0.000000e+00 0.000000e+00 1.437515e+01 -4.580041e+00 0.000000e+00 -4.580041e+00 -1.335196e+01 0.000000e+00 0.000000e+00 0.000000e+00 0.000000e+00 5.108937e+01 -1.191383e+01 0.000000e+00 -1.191383e+01 3.697239e+01 0.000000e+00 0.000000e+00 0.000000e+00 0.000000e+00 2.275023e+01 -5.776510e+00 0.000000e+00 -5.776510e+00 -1.773156e+00 0.000000e+00 0.000000e+00 0.000000e+00 0.000000e+00 -1.120430e+01 4.730153e+00 0.000000e+00 4.730153e+00 7.703044e+00 0.000000e+00 0.000000e+00 0.000000e+00 0.000000e+00 4.305611e+01 -9.341913e+00 0.000000e+00 -9.341913e+00 2.395681e+01 0.000000e+00 0.000000e+00 0.000000e+00 0.000000e+00 1.991069e+01 9.111021e+00 0.000000e+00 9.111021e+00 2.163114e+00 0.000000e+00 0.000000e+00 0.000000e+00 0.000000e+00 8.958350e+00 -3.932894e+00 0.000000e+00 -3.932894e+00 -2.285784e+01 0.000000e+00 0.000000e+00 0.000000e+00 0.000000e+00 2.296188e+01 1.101732e+01 0.000000e+00 1.101732e+01 4.311488e+00 0.000000e+00 0.000000e+00 0.000000e+00 0.000000e+00 1.087274e+01 6.636368e+00 0.000000e+00 6.636368e+00 1.094150e+00 0.000000e+00 0.000000e+00 0.000000e+00 0.000000e+00 1.561551e+01 6.810343e+00 0.000000e+00 6.810343e+00 9.025917e-02 0.000000e+00 0.000000e+00 0.000000e+00 0.000000e+00 4.094180e+01 1.479859e+01 0.000000e+00 1.479859e+01 1.111264e+02 0.000000e+00 0.000000e+00 0.000000e+00 0.000000e+00 1.412506e+01 6.045841e+00 0.000000e+00 6.045841e+00 -4.382449e-02 0.000000e+00 0.000000e+00 0.000000e+00 0.000000e+00 2.683049e+01 1.399140e+01 0.000000e+00 1.399140e+01 7.952435e+00 0.000000e+00 0.000000e+00 0.000000e+00 0.000000e+00 4.831871e+01 -6.017867e+00 0.000000e+00 -6.017867e+00 1.109517e+02 0.000000e+00 0.000000e+00 0.000000e+00 0.000000e+00 1.769294e+01 7.757792e+00 0.000000e+00 7.757792e+00 8.850847e-01 0.000000e+00 0.000000e+00 0.000000e+00 0.000000e+00 3.464847e+01 2.829006e+01 0.000000e+00 2.829006e+01 6.404698e+01 0.000000e+00 0.000000e+00 0.000000e+00 0.000000e+00 -1.178774e+01 -6.353366e+00 0.000000e+00 -6.353366e+00 1.029825e+01 0.000000e+00 0.000000e+00 0.000000e+00 0.000000e+00 -4.178815e+00 7.355082e+00 0.000000e+00 7.355082e+00 -2.296179e+00 0.000000e+00 0.000000e+00 0.000000e+00 0.000000e+00 -1.006631e+01 7.887225e+00 0.000000e+00 7.887225e+00 4.638585e+00 0.000000e+00 0.000000e+00 0.000000e+00 0.000000e+00 4.082853e-01 -1.429731e+01 0.000000e+00 -1.429731e+01 -1.515374e+01 0.000000e+00 0.000000e+00 0.000000e+00 0.000000e+00 3.426553e+00 -2.701280e+00 0.000000e+00 -2.701280e+00 -3.679387e+01 0.000000e+00 0.000000e+00 0.000000e+00 0.000000e+00 6.061409e+00 -3.153816e+00 0.000000e+00 -3.153816e+00 -2.944138e+01 0.000000e+00 0.000000e+00 0.000000e+00 0.000000e+00 -7.585728e+00 -1.402614e+01 0.000000e+00 -1.402614e+01 1.242587e+00 0.000000e+00 0.000000e+00 0.000000e+00 0.000000e+00 8.764029e+00 8.030379e+00 0.000000e+00 8.030379e+00 1.220473e+00 0.000000e+00 0.000000e+00 0.000000e+00 0.000000e+00 2.947354e+01 1.879438e+01 0.000000e+00 1.879438e+01 1.701988e+01 0.000000e+00 0.000000e+00 0.000000e+00 0.000000e+00 -2.433112e+00 5.331417e+00 0.000000e+00 5.331417e+00 -2.874850e+00 0.000000e+00 0.000000e+00 0.000000e+00 0.000000e+00 -2.370689e+00 1.166353e+01 0.000000e+00 1.166353e+01 1.304530e+00 0.000000e+00 0.000000e+00 0.000000e+00 0.000000e+00 4.951028e+00 1.125230e+01 0.000000e+00 1.125230e+01 1.067075e+00 0.000000e+00 0.000000e+00 0.000000e+00 0.000000e+00 -1.960038e+00 -1.484082e+01 0.000000e+00 -1.484082e+01 -9.029296e+00 0.000000e+00 0.000000e+00 0.000000e+00 0.000000e+00 -4.358738e+00 -1.390364e+01 0.000000e+00 -1.390364e+01 -4.335068e+00 0.000000e+00 0.000000e+00 0.000000e+00 0.000000e+00 8.942576e+00 9.650554e+00 0.000000e+00 9.650554e+00 3.784114e-01 0.000000e+00 0.000000e+00 0.000000e+00 0.000000e+00 8.190410e+00 1.052855e+01 0.000000e+00 1.052855e+01 6.701065e-01 0.000000e+00 0.000000e+00 0.000000e+00 0.000000e+00 1.167425e+00 1.161529e+01 0.000000e+00 1.161529e+01 1.347228e+00 0.000000e+00 0.000000e+00 0.000000e+00 0.000000e+00 -5.115759e+00 1.138501e+01 0.000000e+00 1.138501e+01 5.991091e-01 0.000000e+00 0.000000e+00 0.000000e+00 0.000000e+00 -6.418189e+00 1.038895e+01 0.000000e+00 1.038895e+01 -5.482782e-01 0.000000e+00 0.000000e+00 0.000000e+00 0.000000e+00 -1.186779e+00 3.296363e+00 0.000000e+00 3.296363e+00 -3.174744e+00 0.000000e+00 0.000000e+00 0.000000e+00 0.000000e+00 -5.726774e-01 1.764355e+00 0.000000e+00 1.764355e+00 -3.008274e+00 0.000000e+00 0.000000e+00 0.000000e+00 0.000000e+00 2.565557e+00 -9.117020e+00 0.000000e+00 -9.117020e+00 -3.196824e+01 0.000000e+00 0.000000e+00 0.000000e+00 0.000000e+00 2.129225e+00 -1.361381e+01 0.000000e+00 -1.361381e+01 -1.957221e+01 0.000000e+00 0.000000e+00 0.000000e+00 0.000000e+00 -9.923872e+00 -1.156534e+01 0.000000e+00 -1.156534e+01 7.266495e+00 0.000000e+00 0.000000e+00 0.000000e+00 0.000000e+00 2.233563e+00 -2.329708e+00 0.000000e+00 -2.329708e+00 -4.156149e+01 0.000000e+00 0.000000e+00 0.000000e+00 0.000000e+00 3.124485e+01 -7.051242e+00 0.000000e+00 -7.051242e+00 8.912723e+00 0.000000e+00 0.000000e+00 0.000000e+00 0.000000e+00 1.312770e+01 -4.248508e+00 0.000000e+00 -4.248508e+00 -1.552014e+01 0.000000e+00 0.000000e+00 0.000000e+00 0.000000e+00 7.952448e+00 -3.346698e+00 0.000000e+00 -3.346698e+00 -2.534013e+01 0.000000e+00 0.000000e+00 0.000000e+00 0.000000e+00 1.846773e+01 -4.711926e+00 0.000000e+00 -4.711926e+00 -7.817538e+00 0.000000e+00 0.000000e+00 0.000000e+00 0.000000e+00 3.976810e+01 -9.076267e+00 0.000000e+00 -9.076267e+00 2.061672e+01 0.000000e+00 0.000000e+00 0.000000e+00 0.000000e+00 4.825759e+01 -1.064204e+01 0.000000e+00 -1.064204e+01 3.168572e+01 0.000000e+00 0.000000e+00 0.000000e+00 0.000000e+00 5.748662e+01 -1.637938e+01 0.000000e+00 -1.637938e+01 9.771703e+01 0.000000e+00 0.000000e+00 0.000000e+00 0.000000e+00 5.677533e+01 -1.499753e+01 0.000000e+00 -1.499753e+01 4.981855e+01 0.000000e+00 0.000000e+00 0.000000e+00 0.000000e+00 2.613842e+01 -5.838982e+00 0.000000e+00 -5.838982e+00 2.469664e+00 0.000000e+00 0.000000e+00 0.000000e+00 0.000000e+00 3.782604e+01 -8.266072e+00 0.000000e+00 -8.266072e+00 1.736196e+01 0.000000e+00 0.000000e+00 0.000000e+00 0.000000e+00 1.715773e+01 -4.477545e+00 0.000000e+00 -4.477545e+00 -9.501101e+00 0.000000e+00 0.000000e+00 0.000000e+00 0.000000e+00 6.213186e+01 -1.595444e+01 0.000000e+00 -1.595444e+01 5.815816e+01 0.000000e+00 0.000000e+00 0.000000e+00 0.000000e+00 2.870992e+00 -2.443453e+00 0.000000e+00 -2.443453e+00 -3.921847e+01 0.000000e+00 0.000000e+00 0.000000e+00 0.000000e+00 3.185690e+01 2.651013e+01 0.000000e+00 2.651013e+01 4.105823e+01 0.000000e+00 0.000000e+00 0.000000e+00 0.000000e+00 5.386900e+01 -1.363605e+01 0.000000e+00 -1.363605e+01 4.329600e+01 0.000000e+00 0.000000e+00 0.000000e+00 0.000000e+00 -9.338991e+00 9.504219e+00 0.000000e+00 9.504219e+00 2.295880e+00 0.000000e+00 0.000000e+00 0.000000e+00 0.000000e+00 4.240256e+00 -3.159464e+00 0.000000e+00 -3.159464e+00 -3.391532e+01 0.000000e+00 0.000000e+00 0.000000e+00 0.000000e+00 3.581776e+01 -7.580090e+00 0.000000e+00 -7.580090e+00 1.424391e+01 0.000000e+00 0.000000e+00 0.000000e+00 0.000000e+00 -5.361755e-01 5.365330e-01 0.000000e+00 5.365330e-01 -1.986762e+00 0.000000e+00 0.000000e+00 0.000000e+00 0.000000e+00 4.678016e+01 -8.867928e+00 0.000000e+00 -8.867928e+00 2.732063e+01 0.000000e+00 0.000000e+00 0.000000e+00 0.000000e+00 1.000028e+01 8.382497e+00 0.000000e+00 8.382497e+00 6.971673e-01 0.000000e+00 0.000000e+00 0.000000e+00 0.000000e+00 2.108431e+01 -5.529418e+00 0.000000e+00 -5.529418e+00 -3.866779e+00 0.000000e+00 0.000000e+00 0.000000e+00 0.000000e+00 3.343093e+01 -7.329064e+00 0.000000e+00 -7.329064e+00 1.150361e+01 0.000000e+00 0.000000e+00 0.000000e+00 0.000000e+00 -5.227222e+00 1.107724e+01 0.000000e+00 1.107724e+01 1.928283e+00 0.000000e+00 0.000000e+00 0.000000e+00 0.000000e+00 7.019609e+00 -2.903385e+00 0.000000e+00 -2.903385e+00 -2.744130e+01 0.000000e+00 0.000000e+00 0.000000e+00 0.000000e+00 1.660993e+00 -2.038166e+00 0.000000e+00 -2.038166e+00 -4.808219e+01 0.000000e+00 0.000000e+00 0.000000e+00 0.000000e+00 1.114419e+01 -3.647994e+00 0.000000e+00 -3.647994e+00 -1.904607e+01 0.000000e+00 0.000000e+00 0.000000e+00 0.000000e+00 5.286917e+00 -3.334037e+00 0.000000e+00 -3.334037e+00 -3.165940e+01 0.000000e+00 0.000000e+00 0.000000e+00 0.000000e+00 -1.200299e+01 -3.048265e-01 0.000000e+00 -3.048265e-01 1.014516e+01 0.000000e+00 0.000000e+00 0.000000e+00 0.000000e+00 2.812360e+01 -5.849862e+00 0.000000e+00 -5.849862e+00 4.312830e+00 0.000000e+00 0.000000e+00 0.000000e+00 0.000000e+00 6.323357e+01 -1.824460e+01 0.000000e+00 -1.824460e+01 7.029131e+01 0.000000e+00 0.000000e+00 0.000000e+00 0.000000e+00 2.516460e+01 2.112823e+01 0.000000e+00 2.112823e+01 3.022376e+01 0.000000e+00 0.000000e+00 0.000000e+00 0.000000e+00 1.894183e+00 -2.438705e+00 0.000000e+00 -2.438705e+00 -5.712222e+01 0.000000e+00 0.000000e+00 0.000000e+00 0.000000e+00 9.979970e+00 -3.433945e+00 0.000000e+00 -3.433945e+00 -2.097345e+01 0.000000e+00 0.000000e+00 0.000000e+00 0.000000e+00 1.304477e+00 -2.222515e+00 0.000000e+00 -2.222515e+00 -5.125479e+01 0.000000e+00 0.000000e+00 0.000000e+00 0.000000e+00 1.782248e+00 -6.984061e+00 0.000000e+00 -6.984061e+00 -3.967375e+01 0.000000e+00 0.000000e+00 0.000000e+00 0.000000e+00 1.281085e+00 -2.444832e+00 0.000000e+00 -2.444832e+00 -5.358792e+01 0.000000e+00 0.000000e+00 0.000000e+00 0.000000e+00 2.460439e+01 -5.869384e+00 0.000000e+00 -5.869384e+00 3.614181e-01 0.000000e+00 0.000000e+00 0.000000e+00 0.000000e+00 1.596087e+01 -4.693020e+00 0.000000e+00 -4.693020e+00 -1.121741e+01 0.000000e+00 0.000000e+00 0.000000e+00 0.000000e+00 -8.397725e+00 1.008658e+01 0.000000e+00 1.008658e+01 7.294586e-01 0.000000e+00 0.000000e+00 0.000000e+00 0.000000e+00 2.485305e+00 -5.590847e+00 0.000000e+00 -5.590847e+00 -4.331047e+01 0.000000e+00 0.000000e+00 0.000000e+00 0.000000e+00 3.284253e+00 -1.190917e+01 0.000000e+00 -1.190917e+01 -2.397010e+01 0.000000e+00 0.000000e+00 0.000000e+00 0.000000e+00 -1.081968e+00 -3.799331e+00 0.000000e+00 -3.799331e+00 -4.794393e+01 0.000000e+00 0.000000e+00 0.000000e+00 0.000000e+00 9.126282e-01 -5.116521e+00 0.000000e+00 -5.116521e+00 -4.218045e+01 0.000000e+00 0.000000e+00 0.000000e+00 0.000000e+00 4.945888e-01 -2.668015e+00 0.000000e+00 -2.668015e+00 -4.747957e+01 0.000000e+00 0.000000e+00 0.000000e+00 0.000000e+00 1.556795e+00 -3.696731e+00 0.000000e+00 -3.696731e+00 -4.415554e+01 0.000000e+00 0.000000e+00 0.000000e+00 0.000000e+00 6.615653e-01 -1.362164e+00 0.000000e+00 -1.362164e+00 -5.107463e+01 0.000000e+00 0.000000e+00 0.000000e+00 0.000000e+00 2.344414e+00 -5.538677e+00 0.000000e+00 -5.538677e+00 -3.840901e+01 0.000000e+00 0.000000e+00 0.000000e+00 0.000000e+00 1.614636e+00 -2.566183e+00 0.000000e+00 -2.566183e+00 -4.646244e+01 0.000000e+00 0.000000e+00 0.000000e+00 0.000000e+00 -1.187726e+00 6.505144e-01 0.000000e+00 6.505144e-01 -5.639014e+01 0.000000e+00 0.000000e+00 0.000000e+00 0.000000e+00 2.479972e+00 -1.284978e+00 0.000000e+00 -1.284978e+00 -5.765397e+01 0.000000e+00 0.000000e+00 0.000000e+00 0.000000e+00 2.668413e+00 -7.497074e+00 0.000000e+00 -7.497074e+00 -3.551360e+01 0.000000e+00 0.000000e+00 0.000000e+00 0.000000e+00 2.145054e+00 -1.960314e+00 0.000000e+00 -1.960314e+00 -5.225409e+01 0.000000e+00 0.000000e+00 0.000000e+00 0.000000e+00 1.232607e+01 -3.731645e+00 0.000000e+00 -3.731645e+00 -1.729064e+01 0.000000e+00 0.000000e+00 0.000000e+00 0.000000e+00 1.975281e+01 -5.123838e+00 0.000000e+00 -5.123838e+00 -5.852996e+00 0.000000e+00 0.000000e+00 0.000000e+00 0.000000e+00 -5.013655e+00 8.610821e+00 0.000000e+00 8.610821e+00 8.816010e+00 0.000000e+00 0.000000e+00 0.000000e+00 0.000000e+00 1.019280e+01 -4.879323e+00 0.000000e+00 -4.879323e+00 -2.025311e+01 0.000000e+00 0.000000e+00 0.000000e+00 0.000000e+00 2.919385e+01 -6.559616e+00 0.000000e+00 -6.559616e+00 6.380154e+00 0.000000e+00 0.000000e+00 0.000000e+00 0.000000e+00 6.170971e+01 -1.870342e+01 0.000000e+00 -1.870342e+01 8.271836e+01 0.000000e+00 0.000000e+00 0.000000e+00 0.000000e+00 1.216259e+01 7.275115e+00 0.000000e+00 7.275115e+00 4.603983e-01 0.000000e+00 0.000000e+00 0.000000e+00 0.000000e+00 1.674422e+00 -1.624849e+01 0.000000e+00 -1.624849e+01 -1.125408e+01 0.000000e+00 0.000000e+00 0.000000e+00 0.000000e+00 1.629784e+01 1.053370e+01 0.000000e+00 1.053370e+01 2.854180e+00 0.000000e+00 0.000000e+00 0.000000e+00 0.000000e+00 3.283708e+01 6.641719e+00 0.000000e+00 6.641719e+00 9.512871e+01 0.000000e+00 0.000000e+00 0.000000e+00 0.000000e+00 -4.388427e+00 1.052647e+01 0.000000e+00 1.052647e+01 4.459889e+00 0.000000e+00 0.000000e+00 0.000000e+00 0.000000e+00 -7.941491e-01 -1.671231e+01 0.000000e+00 -1.671231e+01 -6.387987e+00 0.000000e+00 0.000000e+00 0.000000e+00 0.000000e+00 4.900295e+01 -1.729961e+01 0.000000e+00 -1.729961e+01 5.558350e+01 0.000000e+00 0.000000e+00 0.000000e+00 0.000000e+00 3.370661e+01 2.126121e+01 0.000000e+00 2.126121e+01 8.718163e+01 0.000000e+00 0.000000e+00 0.000000e+00 0.000000e+00 1.085706e+01 9.057264e+00 0.000000e+00 9.057264e+00 3.928042e-01 0.000000e+00 0.000000e+00 0.000000e+00 0.000000e+00 2.077776e+00 -2.954498e+00 0.000000e+00 -2.954498e+00 -4.244259e+01 0.000000e+00 0.000000e+00 0.000000e+00 0.000000e+00 2.542622e+00 -3.317183e+00 0.000000e+00 -3.317183e+00 -4.889619e+01 0.000000e+00 0.000000e+00 0.000000e+00 0.000000e+00 2.245462e+01 1.670884e+01 0.000000e+00 1.670884e+01 1.505190e+01 0.000000e+00 0.000000e+00 0.000000e+00 0.000000e+00 2.358429e+01 1.849895e+01 0.000000e+00 1.849895e+01 5.931864e+01 0.000000e+00 0.000000e+00 0.000000e+00 0.000000e+00 2.408647e+00 -4.099320e+00 0.000000e+00 -4.099320e+00 -4.081493e+01 0.000000e+00 0.000000e+00 0.000000e+00 0.000000e+00 -3.918694e+00 -1.613120e+01 0.000000e+00 -1.613120e+01 -1.824607e+00 0.000000e+00 0.000000e+00 0.000000e+00 0.000000e+00 7.086285e+00 1.131425e+01 0.000000e+00 1.131425e+01 1.845904e+00 0.000000e+00 0.000000e+00 0.000000e+00 0.000000e+00 3.446765e+00 -5.285933e+00 0.000000e+00 -5.285933e+00 -3.549490e+01 0.000000e+00 0.000000e+00 0.000000e+00 0.000000e+00 1.747236e+01 1.216793e+01 0.000000e+00 1.216793e+01 5.583326e+00 0.000000e+00 0.000000e+00 0.000000e+00 0.000000e+00 1.829816e+01 -6.399709e+00 0.000000e+00 -6.399709e+00 -7.016049e+00 0.000000e+00 0.000000e+00 0.000000e+00 0.000000e+00 1.990449e+01 1.866061e+01 0.000000e+00 1.866061e+01 4.461758e+01 0.000000e+00 0.000000e+00 0.000000e+00 0.000000e+00 1.179938e+01 -5.257086e+00 0.000000e+00 -5.257086e+00 -1.740110e+01 0.000000e+00 0.000000e+00 0.000000e+00 0.000000e+00 -6.817841e+00 4.351051e+00 0.000000e+00 4.351051e+00 1.320162e+01 0.000000e+00 0.000000e+00 0.000000e+00 0.000000e+00 4.390134e+01 -1.403520e+01 0.000000e+00 -1.403520e+01 3.486140e+01 0.000000e+00 0.000000e+00 0.000000e+00 0.000000e+00 2.647058e+01 1.478930e+01 0.000000e+00 1.478930e+01 7.606119e+01 0.000000e+00 0.000000e+00 0.000000e+00 0.000000e+00 3.659417e+01 -1.120843e+01 0.000000e+00 -1.120843e+01 1.959913e+01 0.000000e+00 0.000000e+00 0.000000e+00 0.000000e+00 3.042212e+01 -9.673229e+00 0.000000e+00 -9.673229e+00 1.081212e+01 0.000000e+00 0.000000e+00 0.000000e+00 0.000000e+00 3.852665e+01 -7.519975e+00 0.000000e+00 -7.519975e+00 9.258553e+01 0.000000e+00 0.000000e+00 0.000000e+00 0.000000e+00 1.474658e+01 -6.566215e+00 0.000000e+00 -6.566215e+00 -1.189476e+01 0.000000e+00 0.000000e+00 0.000000e+00 0.000000e+00 1.974855e+01 1.418709e+01 0.000000e+00 1.418709e+01 9.589193e+00 0.000000e+00 0.000000e+00 0.000000e+00 0.000000e+00 1.088939e+01 1.019422e+01 0.000000e+00 1.019422e+01 1.151748e+00 0.000000e+00 0.000000e+00 0.000000e+00 0.000000e+00 1.661293e+01 -6.414300e+00 0.000000e+00 -6.414300e+00 -9.283345e+00 0.000000e+00 0.000000e+00 0.000000e+00 0.000000e+00 1.886560e+01 1.737736e+01 0.000000e+00 1.737736e+01 2.448133e+01 0.000000e+00 0.000000e+00 0.000000e+00 0.000000e+00 1.322786e+01 8.218049e+00 0.000000e+00 8.218049e+00 3.472981e-01 0.000000e+00 0.000000e+00 0.000000e+00 0.000000e+00 5.345075e+01 -1.781292e+01 0.000000e+00 -1.781292e+01 6.398495e+01 0.000000e+00 0.000000e+00 0.000000e+00 0.000000e+00 1.470711e+01 9.057686e+00 0.000000e+00 9.057686e+00 1.044601e+00 0.000000e+00 0.000000e+00 0.000000e+00 0.000000e+00 2.770305e+00 -3.447758e+00 0.000000e+00 -3.447758e+00 -3.876853e+01 0.000000e+00 0.000000e+00 0.000000e+00 0.000000e+00 4.694239e+01 -1.652740e+01 0.000000e+00 -1.652740e+01 4.716789e+01 0.000000e+00 0.000000e+00 0.000000e+00 0.000000e+00 2.480054e+01 -7.910029e+00 0.000000e+00 -7.910029e+00 1.984318e+00 0.000000e+00 0.000000e+00 0.000000e+00 0.000000e+00 3.534838e+01 -9.945859e+00 0.000000e+00 -9.945859e+00 1.628124e+01 0.000000e+00 0.000000e+00 0.000000e+00 0.000000e+00 1.307299e+01 -6.217995e+00 0.000000e+00 -6.217995e+00 -1.443005e+01 0.000000e+00 0.000000e+00 0.000000e+00 0.000000e+00 5.437763e+00 -4.437121e+00 0.000000e+00 -4.437121e+00 -2.966668e+01 0.000000e+00 0.000000e+00 0.000000e+00 0.000000e+00 2.083438e+01 -7.774357e+00 0.000000e+00 -7.774357e+00 -2.596929e+00 0.000000e+00 0.000000e+00 0.000000e+00 0.000000e+00 2.676243e+00 -1.034126e+00 0.000000e+00 -1.034126e+00 -6.265931e+01 0.000000e+00 0.000000e+00 0.000000e+00 0.000000e+00 3.695579e+00 -7.387287e+00 0.000000e+00 -7.387287e+00 -3.242769e+01 0.000000e+00 0.000000e+00 0.000000e+00 0.000000e+00 8.894846e+00 -5.764132e+00 0.000000e+00 -5.764132e+00 -2.212522e+01 0.000000e+00 0.000000e+00 0.000000e+00 0.000000e+00 6.773950e+00 -3.951966e+00 0.000000e+00 -3.951966e+00 -2.735597e+01 0.000000e+00 0.000000e+00 0.000000e+00 0.000000e+00 -8.122678e+00 -2.150519e+00 0.000000e+00 -2.150519e+00 1.553408e+01 0.000000e+00 0.000000e+00 0.000000e+00 0.000000e+00 2.279235e+01 -8.029630e+00 0.000000e+00 -8.029630e+00 -7.908259e-02 0.000000e+00 0.000000e+00 0.000000e+00 0.000000e+00 2.920396e+00 1.169798e+01 0.000000e+00 1.169798e+01 2.371617e+00 0.000000e+00 0.000000e+00 0.000000e+00 0.000000e+00 4.747496e+01 -1.511420e+01 0.000000e+00 -1.511420e+01 4.037147e+01 0.000000e+00 0.000000e+00 0.000000e+00 0.000000e+00 3.908531e+00 -3.984778e+00 0.000000e+00 -3.984778e+00 -3.558012e+01 0.000000e+00 0.000000e+00 0.000000e+00 0.000000e+00 2.640923e+01 -8.309380e+00 0.000000e+00 -8.309380e+00 4.605812e+00 0.000000e+00 0.000000e+00 0.000000e+00 0.000000e+00 -7.735768e+00 -8.723990e+00 0.000000e+00 -8.723990e+00 1.458807e+01 0.000000e+00 0.000000e+00 0.000000e+00 0.000000e+00 3.901900e+00 -9.731224e+00 0.000000e+00 -9.731224e+00 -2.843901e+01 0.000000e+00 0.000000e+00 0.000000e+00 0.000000e+00 1.932848e+01 -7.193742e+00 0.000000e+00 -7.193742e+00 -4.986952e+00 0.000000e+00 0.000000e+00 0.000000e+00 0.000000e+00 -4.664993e+00 -4.545553e+00 0.000000e+00 -4.545553e+00 2.122271e+01 0.000000e+00 0.000000e+00 0.000000e+00 0.000000e+00 7.884335e+00 -4.875983e+00 0.000000e+00 -4.875983e+00 -2.470730e+01 0.000000e+00 0.000000e+00 0.000000e+00 0.000000e+00 -5.986207e+00 -1.546643e+01 0.000000e+00 -1.546643e+01 5.093546e+00 0.000000e+00 0.000000e+00 0.000000e+00 0.000000e+00 2.840599e+01 -9.227609e+00 0.000000e+00 -9.227609e+00 7.790981e+00 0.000000e+00 0.000000e+00 0.000000e+00 0.000000e+00 4.316934e+01 -1.221019e+01 0.000000e+00 -1.221019e+01 2.870584e+01 0.000000e+00 0.000000e+00 0.000000e+00 0.000000e+00 3.717459e+00 -1.467583e+01 0.000000e+00 -1.467583e+01 -1.613004e+01 0.000000e+00 0.000000e+00 0.000000e+00 0.000000e+00 1.004479e+01 -6.601072e+00 0.000000e+00 -6.601072e+00 -1.911864e+01 0.000000e+00 0.000000e+00 0.000000e+00 0.000000e+00 9.507847e-01 -1.775965e+01 0.000000e+00 -1.775965e+01 -2.982401e+00 0.000000e+00 0.000000e+00 0.000000e+00 0.000000e+00 4.476683e+00 -4.836229e+00 0.000000e+00 -4.836229e+00 -3.225475e+01 0.000000e+00 0.000000e+00 0.000000e+00 0.000000e+00 1.192669e+01 1.241358e+01 0.000000e+00 1.241358e+01 6.068657e+00 0.000000e+00 0.000000e+00 0.000000e+00 0.000000e+00 1.488480e+01 1.518124e+01 0.000000e+00 1.518124e+01 1.741894e+01 0.000000e+00 0.000000e+00 0.000000e+00 0.000000e+00 3.281389e+01 -9.863027e+00 0.000000e+00 -9.863027e+00 1.371630e+01 0.000000e+00 0.000000e+00 0.000000e+00 0.000000e+00 -5.882036e+00 -1.351099e+01 0.000000e+00 -1.351099e+01 1.174828e+01 0.000000e+00 0.000000e+00 0.000000e+00 0.000000e+00 1.282307e+01 1.370869e+01 0.000000e+00 1.370869e+01 1.092938e+01 0.000000e+00 0.000000e+00 0.000000e+00 0.000000e+00 4.726864e+00 -6.893119e+00 0.000000e+00 -6.893119e+00 -3.003009e+01 0.000000e+00 0.000000e+00 0.000000e+00 0.000000e+00 -1.519758e+00 1.151254e+01 0.000000e+00 1.151254e+01 2.460396e+00 0.000000e+00 0.000000e+00 0.000000e+00 0.000000e+00 2.728486e+01 -1.184846e+01 0.000000e+00 -1.184846e+01 1.023696e+01 0.000000e+00 0.000000e+00 0.000000e+00 0.000000e+00 4.957013e+00 -9.301548e+00 0.000000e+00 -9.301548e+00 -2.593440e+01 0.000000e+00 0.000000e+00 0.000000e+00 0.000000e+00 5.205626e+00 -1.236699e+01 0.000000e+00 -1.236699e+01 -2.033284e+01 0.000000e+00 0.000000e+00 0.000000e+00 0.000000e+00 4.419851e+00 1.188910e+01 0.000000e+00 1.188910e+01 4.079910e+00 0.000000e+00 0.000000e+00 0.000000e+00 0.000000e+00 3.840153e+01 -1.247058e+01 0.000000e+00 -1.247058e+01 2.443791e+01 0.000000e+00 0.000000e+00 0.000000e+00 0.000000e+00 -1.789769e-01 9.241820e+00 0.000000e+00 9.241820e+00 1.442182e+01 0.000000e+00 0.000000e+00 0.000000e+00 0.000000e+00 8.773641e-01 1.123196e+01 0.000000e+00 1.123196e+01 7.508390e+00 0.000000e+00 0.000000e+00 0.000000e+00 0.000000e+00 7.417382e-01 1.175226e+01 0.000000e+00 1.175226e+01 3.840561e+00 0.000000e+00 0.000000e+00 0.000000e+00 0.000000e+00 3.853489e+01 -1.513583e+01 0.000000e+00 -1.513583e+01 3.141878e+01 0.000000e+00 0.000000e+00 0.000000e+00 0.000000e+00 -3.320981e+00 3.210611e+00 0.000000e+00 3.210611e+00 1.993868e+01 0.000000e+00 0.000000e+00 0.000000e+00 0.000000e+00 -3.713216e+00 -1.104829e+01 0.000000e+00 -1.104829e+01 1.889147e+01 0.000000e+00 0.000000e+00 0.000000e+00 0.000000e+00 2.977167e+01 -1.221970e+01 0.000000e+00 -1.221970e+01 1.364687e+01 0.000000e+00 0.000000e+00 0.000000e+00 0.000000e+00 7.388548e+00 -6.486311e+00 0.000000e+00 -6.486311e+00 -2.466116e+01 0.000000e+00 0.000000e+00 0.000000e+00 0.000000e+00 1.324671e+01 1.401332e+01 0.000000e+00 1.401332e+01 3.606113e+01 0.000000e+00 0.000000e+00 0.000000e+00 0.000000e+00 2.711711e+01 2.180134e-01 0.000000e+00 2.180134e-01 7.972952e+01 0.000000e+00 0.000000e+00 0.000000e+00 0.000000e+00 3.332955e+01 -1.396485e+01 0.000000e+00 -1.396485e+01 2.171101e+01 0.000000e+00 0.000000e+00 0.000000e+00 0.000000e+00 4.667213e+01 -1.488670e+01 0.000000e+00 -1.488670e+01 8.507640e+01 0.000000e+00 0.000000e+00 0.000000e+00 0.000000e+00 1.855707e+01 -9.437449e+00 0.000000e+00 -9.437449e+00 -3.902554e+00 0.000000e+00 0.000000e+00 0.000000e+00 0.000000e+00 4.887019e+01 -1.740384e+01 0.000000e+00 -1.740384e+01 7.432736e+01 0.000000e+00 0.000000e+00 0.000000e+00 0.000000e+00 9.505247e+00 1.170413e+01 0.000000e+00 1.170413e+01 3.405378e+00 0.000000e+00 0.000000e+00 0.000000e+00 0.000000e+00 5.687108e+00 -1.494088e+01 0.000000e+00 -1.494088e+01 -1.302595e+01 0.000000e+00 0.000000e+00 0.000000e+00 0.000000e+00 2.022244e+01 7.038172e+00 0.000000e+00 7.038172e+00 6.677126e+01 0.000000e+00 0.000000e+00 0.000000e+00 0.000000e+00 -2.193006e+00 -1.731034e+01 0.000000e+00 -1.731034e+01 1.279231e+00 0.000000e+00 0.000000e+00 0.000000e+00 0.000000e+00 4.117771e+00 -1.697857e+01 0.000000e+00 -1.697857e+01 -7.016653e+00 0.000000e+00 0.000000e+00 0.000000e+00 0.000000e+00 3.857254e+01 -1.740408e+01 0.000000e+00 -1.740408e+01 5.215944e+01 0.000000e+00 0.000000e+00 0.000000e+00 0.000000e+00 2.285010e+01 -1.052791e+01 0.000000e+00 -1.052791e+01 2.772518e+00 0.000000e+00 0.000000e+00 0.000000e+00 0.000000e+00 1.287617e+01 1.079577e+01 0.000000e+00 1.079577e+01 2.352728e+00 0.000000e+00 0.000000e+00 0.000000e+00 0.000000e+00 1.268033e+01 -8.729598e+00 0.000000e+00 -8.729598e+00 -1.332515e+01 0.000000e+00 0.000000e+00 0.000000e+00 0.000000e+00 2.543809e+01 -1.109880e+01 0.000000e+00 -1.109880e+01 6.450438e+00 0.000000e+00 0.000000e+00 0.000000e+00 0.000000e+00 3.869187e+01 -1.663006e+01 0.000000e+00 -1.663006e+01 4.035252e+01 0.000000e+00 0.000000e+00 0.000000e+00 0.000000e+00 2.043491e+01 -1.024682e+01 0.000000e+00 -1.024682e+01 -6.376468e-01 0.000000e+00 0.000000e+00 0.000000e+00 0.000000e+00 6.485365e+00 -5.080354e+00 0.000000e+00 -5.080354e+00 -2.706234e+01 0.000000e+00 0.000000e+00 0.000000e+00 0.000000e+00 -3.228616e+00 -1.654478e+01 0.000000e+00 -1.654478e+01 7.997361e+00 0.000000e+00 0.000000e+00 0.000000e+00 0.000000e+00 8.390824e+00 -7.541791e+00 0.000000e+00 -7.541791e+00 -2.134587e+01 0.000000e+00 0.000000e+00 0.000000e+00 0.000000e+00 5.573947e+00 -6.070773e+00 0.000000e+00 -6.070773e+00 -2.819708e+01 0.000000e+00 0.000000e+00 0.000000e+00 0.000000e+00 1.490574e+01 -8.676265e+00 0.000000e+00 -8.676265e+00 -9.708835e+00 0.000000e+00 0.000000e+00 0.000000e+00 0.000000e+00 1.488914e+01 1.024179e+01 0.000000e+00 1.024179e+01 5.149949e+01 0.000000e+00 0.000000e+00 0.000000e+00 0.000000e+00 4.076634e+01 -1.651849e+01 0.000000e+00 -1.651849e+01 6.327408e+01 0.000000e+00 0.000000e+00 0.000000e+00 0.000000e+00 1.724049e+01 -8.260776e+00 0.000000e+00 -8.260776e+00 -6.982242e+00 0.000000e+00 0.000000e+00 0.000000e+00 0.000000e+00 -1.207797e+00 -1.581574e+01 0.000000e+00 -1.581574e+01 1.362124e+01 0.000000e+00 0.000000e+00 0.000000e+00 0.000000e+00 7.059895e+00 -1.076710e+01 0.000000e+00 -1.076710e+01 -1.992560e+01 0.000000e+00 0.000000e+00 0.000000e+00 0.000000e+00 1.754385e+01 -1.176332e+01 0.000000e+00 -1.176332e+01 -2.232427e+00 0.000000e+00 0.000000e+00 0.000000e+00 0.000000e+00 3.437046e+00 -1.841086e+01 0.000000e+00 -1.841086e+01 1.316871e+00 0.000000e+00 0.000000e+00 0.000000e+00 0.000000e+00 7.526749e+00 -1.310800e+01 0.000000e+00 -1.310800e+01 -1.408810e+01 0.000000e+00 0.000000e+00 0.000000e+00 0.000000e+00 3.387644e+01 -1.502925e+01 0.000000e+00 -1.502925e+01 2.698653e+01 0.000000e+00 0.000000e+00 0.000000e+00 0.000000e+00 1.191940e+01 -6.925711e+00 0.000000e+00 -6.925711e+00 -1.632342e+01 0.000000e+00 0.000000e+00 0.000000e+00 0.000000e+00 -4.386792e-02 -1.784195e+01 0.000000e+00 -1.784195e+01 5.178693e+00 0.000000e+00 0.000000e+00 0.000000e+00 0.000000e+00 3.296452e+01 -1.218859e+01 0.000000e+00 -1.218859e+01 1.703835e+01 0.000000e+00 0.000000e+00 0.000000e+00 0.000000e+00 9.777613e+00 1.302536e+01 0.000000e+00 1.302536e+01 2.582848e+01 0.000000e+00 0.000000e+00 0.000000e+00 0.000000e+00 6.314451e+00 -8.163765e+00 0.000000e+00 -8.163765e+00 -2.449070e+01 0.000000e+00 0.000000e+00 0.000000e+00 0.000000e+00 2.339343e+01 -5.723085e+00 0.000000e+00 -5.723085e+00 6.741766e+01 0.000000e+00 0.000000e+00 0.000000e+00 0.000000e+00 3.091043e+01 -1.678479e+01 0.000000e+00 -1.678479e+01 3.360589e+01 0.000000e+00 0.000000e+00 0.000000e+00 0.000000e+00 2.889841e+01 -1.612677e+01 0.000000e+00 -1.612677e+01 2.427941e+01 0.000000e+00 0.000000e+00 0.000000e+00 0.000000e+00 -7.732206e-01 -7.403589e+00 0.000000e+00 -7.403589e+00 2.687290e+01 0.000000e+00 0.000000e+00 0.000000e+00 0.000000e+00 6.331737e+00 1.246245e+01 0.000000e+00 1.246245e+01 1.076438e+01 0.000000e+00 0.000000e+00 0.000000e+00 0.000000e+00 3.393054e+01 -1.142791e+01 0.000000e+00 -1.142791e+01 7.451765e+01 0.000000e+00 0.000000e+00 0.000000e+00 0.000000e+00 3.075835e+01 -1.688173e+01 0.000000e+00 -1.688173e+01 4.480333e+01 0.000000e+00 0.000000e+00 0.000000e+00 0.000000e+00 7.690482e+00 -1.578371e+01 0.000000e+00 -1.578371e+01 -7.444373e+00 0.000000e+00 0.000000e+00 0.000000e+00 0.000000e+00 1.296253e+01 -1.116640e+01 0.000000e+00 -1.116640e+01 -9.686429e+00 0.000000e+00 0.000000e+00 0.000000e+00 0.000000e+00 2.566209e+01 -1.422737e+01 0.000000e+00 -1.422737e+01 1.341043e+01 0.000000e+00 0.000000e+00 0.000000e+00 0.000000e+00 1.590212e+01 8.681749e-03 0.000000e+00 8.681749e-03 5.931993e+01 0.000000e+00 0.000000e+00 0.000000e+00 0.000000e+00 2.432094e+01 -1.669228e+01 0.000000e+00 -1.669228e+01 3.823172e+01 0.000000e+00 0.000000e+00 0.000000e+00 0.000000e+00 1.942304e+01 -1.267068e+01 0.000000e+00 -1.267068e+01 1.897695e+00 0.000000e+00 0.000000e+00 0.000000e+00 0.000000e+00 1.584263e+01 -1.045438e+01 0.000000e+00 -1.045438e+01 -6.343866e+00 0.000000e+00 0.000000e+00 0.000000e+00 0.000000e+00 9.447643e-01 -1.341146e+01 0.000000e+00 -1.341146e+01 2.199694e+01 0.000000e+00 0.000000e+00 0.000000e+00 0.000000e+00 6.949131e+00 1.246651e+01 0.000000e+00 1.246651e+01 6.057391e+00 0.000000e+00 0.000000e+00 0.000000e+00 0.000000e+00 2.907547e+01 -1.451272e+01 0.000000e+00 -1.451272e+01 1.798014e+01 0.000000e+00 0.000000e+00 0.000000e+00 0.000000e+00 9.934717e+00 -1.098022e+01 0.000000e+00 -1.098022e+01 -1.421089e+01 0.000000e+00 0.000000e+00 0.000000e+00 0.000000e+00 2.379140e+00 8.063464e+00 0.000000e+00 8.063464e+00 2.332790e+01 0.000000e+00 0.000000e+00 0.000000e+00 0.000000e+00 7.230448e+00 1.247683e+01 0.000000e+00 1.247683e+01 1.711353e+01 0.000000e+00 0.000000e+00 0.000000e+00 0.000000e+00 2.443692e+01 -1.360404e+01 0.000000e+00 -1.360404e+01 9.359512e+00 0.000000e+00 0.000000e+00 0.000000e+00 0.000000e+00 -4.482860e-01 6.521586e-01 0.000000e+00 6.521586e-01 2.751064e+01 0.000000e+00 0.000000e+00 0.000000e+00 0.000000e+00 1.059247e+01 -1.372114e+01 0.000000e+00 -1.372114e+01 -8.186396e+00 0.000000e+00 0.000000e+00 0.000000e+00 0.000000e+00 1.931850e+01 -9.338380e+00 0.000000e+00 -9.338380e+00 5.651318e+01 0.000000e+00 0.000000e+00 0.000000e+00 0.000000e+00 2.398585e+01 -1.717459e+01 0.000000e+00 -1.717459e+01 2.796675e+01 0.000000e+00 0.000000e+00 0.000000e+00 0.000000e+00 2.167686e+01 -1.317029e+01 0.000000e+00 -1.317029e+01 5.769944e+00 0.000000e+00 0.000000e+00 0.000000e+00 0.000000e+00 1.627013e+01 -1.419254e+01 0.000000e+00 -1.419254e+01 3.126398e-01 0.000000e+00 0.000000e+00 0.000000e+00 0.000000e+00 3.231368e+00 -1.695599e+01 0.000000e+00 -1.695599e+01 1.620849e+01 0.000000e+00 0.000000e+00 0.000000e+00 0.000000e+00 2.352574e+01 -1.625005e+01 0.000000e+00 -1.625005e+01 1.860509e+01 0.000000e+00 0.000000e+00 0.000000e+00 0.000000e+00 1.027800e+01 -8.717666e+00 0.000000e+00 -8.717666e+00 -1.697057e+01 0.000000e+00 0.000000e+00 0.000000e+00 0.000000e+00 2.756845e+00 -1.814313e+01 0.000000e+00 -1.814313e+01 9.699288e+00 0.000000e+00 0.000000e+00 0.000000e+00 0.000000e+00 1.432699e+01 -1.267738e+01 0.000000e+00 -1.267738e+01 -5.135700e+00 0.000000e+00 0.000000e+00 0.000000e+00 0.000000e+00 2.906887e+01 -1.403272e+01 0.000000e+00 -1.403272e+01 5.902259e+01 0.000000e+00 0.000000e+00 0.000000e+00 0.000000e+00 2.246481e+01 -1.468578e+01 0.000000e+00 -1.468578e+01 4.858962e+01 0.000000e+00 0.000000e+00 0.000000e+00 0.000000e+00 4.458039e+00 -1.132171e+01 0.000000e+00 -1.132171e+01 3.009809e+01 0.000000e+00 0.000000e+00 0.000000e+00 0.000000e+00 1.068280e+01 2.013323e+00 0.000000e+00 2.013323e+00 4.953850e+01 0.000000e+00 0.000000e+00 0.000000e+00 0.000000e+00 6.975378e+00 -1.771485e+01 0.000000e+00 -1.771485e+01 -6.288475e-01 0.000000e+00 0.000000e+00 0.000000e+00 0.000000e+00 1.042257e+01 -1.635831e+01 0.000000e+00 -1.635831e+01 -1.618734e+00 0.000000e+00 0.000000e+00 0.000000e+00 0.000000e+00 5.009839e+00 6.831406e+00 0.000000e+00 6.831406e+00 3.223064e+01 0.000000e+00 0.000000e+00 0.000000e+00 0.000000e+00 8.562530e+00 -9.315443e+00 0.000000e+00 -9.315443e+00 -1.948782e+01 0.000000e+00 0.000000e+00 0.000000e+00 0.000000e+00 3.325608e+00 -2.900241e+00 0.000000e+00 -2.900241e+00 3.501775e+01 0.000000e+00 0.000000e+00 0.000000e+00 0.000000e+00 1.794854e+01 -1.519766e+01 0.000000e+00 -1.519766e+01 5.359448e+00 0.000000e+00 0.000000e+00 0.000000e+00 0.000000e+00 7.153140e+00 -1.641904e+01 0.000000e+00 -1.641904e+01 2.184309e+01 0.000000e+00 0.000000e+00 0.000000e+00 0.000000e+00 2.078692e+01 -1.572328e+01 0.000000e+00 -1.572328e+01 1.103252e+01 0.000000e+00 0.000000e+00 0.000000e+00 0.000000e+00 6.002814e+00 -1.847625e+01 0.000000e+00 -1.847625e+01 5.820426e+00 0.000000e+00 0.000000e+00 0.000000e+00 0.000000e+00 1.173329e+01 -5.658837e+00 0.000000e+00 -5.658837e+00 4.999718e+01 0.000000e+00 0.000000e+00 0.000000e+00 0.000000e+00 1.014070e+01 -1.791166e+01 0.000000e+00 -1.791166e+01 6.356087e+00 0.000000e+00 0.000000e+00 0.000000e+00 0.000000e+00 1.981126e+01 -1.745176e+01 0.000000e+00 -1.745176e+01 2.176927e+01 0.000000e+00 0.000000e+00 0.000000e+00 0.000000e+00 8.674153e+00 -9.893546e+00 0.000000e+00 -9.893546e+00 3.936765e+01 0.000000e+00 0.000000e+00 0.000000e+00 0.000000e+00 1.902713e+01 -1.661479e+01 0.000000e+00 -1.661479e+01 3.234927e+01 0.000000e+00 0.000000e+00 0.000000e+00 0.000000e+00 1.510545e+01 -1.709028e+01 0.000000e+00 -1.709028e+01 9.235762e+00 0.000000e+00 0.000000e+00 0.000000e+00 0.000000e+00 1.304104e+01 -1.480911e+01 0.000000e+00 -1.480911e+01 -2.390152e+00 0.000000e+00 0.000000e+00 0.000000e+00 0.000000e+00 1.733931e+01 -1.727033e+01 0.000000e+00 -1.727033e+01 1.568279e+01 0.000000e+00 0.000000e+00 0.000000e+00 0.000000e+00 1.488341e+01 -1.136128e+01 0.000000e+00 -1.136128e+01 4.701444e+01 0.000000e+00 0.000000e+00 0.000000e+00 0.000000e+00 8.364189e+00 6.085136e+00 0.000000e+00 6.085136e+00 4.222152e+01 0.000000e+00 0.000000e+00 0.000000e+00 0.000000e+00 1.606804e+01 -1.445263e+01 0.000000e+00 -1.445263e+01 4.027878e+01 0.000000e+00 0.000000e+00 0.000000e+00 0.000000e+00 1.382768e+01 -1.634947e+01 0.000000e+00 -1.634947e+01 3.079913e+00 0.000000e+00 0.000000e+00 0.000000e+00 0.000000e+00 7.150351e+00 -2.490112e+00 0.000000e+00 -2.490112e+00 4.309996e+01 0.000000e+00 0.000000e+00 0.000000e+00 0.000000e+00 6.972802e+00 -1.820463e+01 0.000000e+00 -1.820463e+01 1.231722e+01 0.000000e+00 0.000000e+00 0.000000e+00 0.000000e+00 1.722277e+01 -1.742583e+01 0.000000e+00 -1.742583e+01 2.733612e+01 0.000000e+00 0.000000e+00 0.000000e+00 0.000000e+00 1.117505e+01 -1.512408e+01 0.000000e+00 -1.512408e+01 3.019848e+01 0.000000e+00 0.000000e+00 0.000000e+00 0.000000e+00 1.141764e+01 -1.795959e+01 0.000000e+00 -1.795959e+01 1.481341e+01 0.000000e+00 0.000000e+00 0.000000e+00 0.000000e+00 1.364661e+01 -1.754285e+01 0.000000e+00 -1.754285e+01 2.129559e+01 0.000000e+00 0.000000e+00 0.000000e+00 0.000000e+00 </DataArray>
 <DataArray type="Float64" Name="IST_StrainTensor" NumberOfComponents="9" format="ascii"> 3.585135e-06 9.253853e-06 0.000000e+00 9.253853e-06 -5.765914e-06 0.000000e+00 0.000000e+00 0.000000e+00 0.000000e+00 -9.369849e-07 -1.842793e-06 0.000000e+00 -1.842793e-06 -1.048469e-06 0.000000e+00 0.000000e+00 0.000000e+00 0.000000e+00 6.717433e-05 2.921983e-05 0.000000e+00 2.921983e-05 -9.590205e-06 0.000000e+00 0.000000e+00 0.000000e+00 0.000000e+00 6.790331e-07 -1.816766e-06 0.000000e+00 -1.816766e-06 3.840030e-07 0.000000e+00 0.000000e+00 0.000000e+00 0.000000e+00 3.879079e-05 1.542949e-05 0.000000e+00 1.542949e-05 -8.572543e-06 0.000000e+00 0.000000e+00 0.000000e+00 0.000000e+00 -6.407028e-06 -1.177891e-05 0.000000e+00 -1.177891e-05 -5.778587e-06 0.000000e+00 0.000000e+00 0.000000e+00 0.000000e+00 2.858905e-04 1.944951e-04 0.000000e+00 1.944951e-04 3.789986e-04 0.000000e+00 0.000000e+00 0.000000e+00 0.000000e+00 9.700282e-05 -1.546145e-05 0.000000e+00 -1.546145e-05 -3.075527e-04 0.000000e+00 0.000000e+00 0.000000e+00 0.000000e+00 -9.326417e-07 8.750880e-06 0.000000e+00 8.750880e-06 -4.563649e-06 0.000000e+00 0.000000e+00 0.000000e+00 0.000000e+00 -3.584087e-06 5.724895e-06 0.000000e+00 5.724895e-06 -5.549385e-06 0.000000e+00 0.000000e+00 0.000000e+00 0.000000e+00 -2.865005e-06 2.281739e-06 0.000000e+00 2.281739e-06 -1.004279e-05 0.000000e+00 0.000000e+00 0.000000e+00 0.000000e+00 2.062131e-06 1.659713e-06 0.000000e+00 1.659713e-06 -1.878819e-05 0.000000e+00 0.000000e+00 0.000000e+00 0.000000e+00 9.512671e-06 8.942024e-06 0.000000e+00 8.942024e-06 -2.916680e-05 0.000000e+00 0.000000e+00 0.000000e+00 0.000000e+00 1.321177e-05 2.200842e-05 0.000000e+00 2.200842e-05 -3.473620e-05 0.000000e+00 0.000000e+00 0.000000e+00 0.000000e+00 1.239724e-05 3.858835e-05 0.000000e+00 3.858835e-05 -3.504463e-05 0.000000e+00 0.000000e+00 0.000000e+00 0.000000e+00 7.549886e-06 5.294588e-05 0.000000e+00 5.294588e-05 -3.091171e-05 0.000000e+00 0.000000e+00 0.000000e+00 0.000000e+00 7.980430e-07 6.597555e-05 0.000000e+00 6.597555e-05 -2.427452e-05 0.000000e+00 0.000000e+00 0.000000e+00 0.000000e+00 -6.316230e-06 7.463397e-05 0.000000e+00 7.463397e-05 -1.526567e-05 0.000000e+00 0.000000e+00 0.000000e+00 0.000000e+00 -1.042587e-05 7.705315e-05 0.000000e+00 7.705315e-05 -5.952903e-06 0.000000e+00 0.000000e+00 0.000000e+00 0.000000e+00 -8.256707e-06 7.434693e-05 0.000000e+00 7.434693e-05 -7.653676e-07 0.000000e+00 0.000000e+00 0.000000e+00 0.000000e+00 1.042466e-06 7.021144e-05 0.000000e+00 7.021144e-05 -1.552967e-06 0.000000e+00 0.000000e+00 0.000000e+00 0.000000e+00 1.359003e-05 6.834687e-05 0.000000e+00 6.834687e-05 -5.672607e-06 0.000000e+00 0.000000e+00 0.000000e+00 0.000000e+00 2.399231e-05 6.868824e-05 0.000000e+00 6.868824e-05 -8.701199e-06 0.000000e+00 0.000000e+00 0.000000e+00 0.000000e+00 2.992744e-05 6.935613e-05 0.000000e+00 6.935613e-05 -9.074860e-06 0.000000e+00 0.000000e+00 0.000000e+00 0.000000e+00 3.006896e-05 6.844579e-05 0.000000e+00 6.844579e-05 -5.426189e-06 0.000000e+00 0.000000e+00 0.000000e+00 0.000000e+00 2.434282e-05 6.470401e-05 0.000000e+00 6.470401e-05 1.844986e-06 0.000000e+00 0.000000e+00 0.000000e+00 0.000000e+00 1.275641e-05 5.528656e-05 0.000000e+00 5.528656e-05 1.079832e-05 0.000000e+00 0.000000e+00 0.000000e+00 0.000000e+00 1.524387e-06 4.030765e-05 0.000000e+00 4.030765e-05 1.640745e-05 0.000000e+00 0.000000e+00 0.000000e+00 0.000000e+00 -3.406746e-06 2.360152e-05 0.000000e+00 2.360152e-05 1.994466e-05 0.000000e+00 0.000000e+00 0.000000e+00 0.000000e+00 -4.212663e-06 8.575470e-06 0.000000e+00 8.575470e-06 1.820960e-05 0.000000e+00 0.000000e+00 0.000000e+00 0.000000e+00 -1.030156e-06 -1.705570e-06 0.000000e+00 -1.705570e-06 1.347910e-05 0.000000e+00 0.000000e+00 0.000000e+00 0.000000e+00 6.135265e-06 -6.630229e-06 0.000000e+00 -6.630229e-06 4.455016e-06 0.000000e+00 0.000000e+00 0.000000e+00 0.000000e+00 1.064786e-05 -4.476500e-06 0.000000e+00 -4.476500e-06 -2.880174e-06 0.000000e+00 0.000000e+00 0.000000e+00 0.000000e+00 1.156946e-05 8.624752e-07 0.000000e+00 8.624752e-07 -6.886218e-06 0.000000e+00 0.000000e+00 0.000000e+00 0.000000e+00 8.734326e-06 6.182684e-06 0.000000e+00 6.182684e-06 -7.305619e-06 0.000000e+00 0.000000e+00 0.000000e+00 0.000000e+00 2.754001e-06 -2.148739e-05 0.000000e+00 -2.148739e-05 -2.814354e-05 0.000000e+00 0.000000e+00 0.000000e+00 0.000000e+00 2.719688e-05 -2.878049e-05 0.000000e+00 -2.878049e-05 -9.019931e-05 0.000000e+00 0.000000e+00 0.000000e+00 0.000000e+00 5.851363e-05 -2.253707e-05 0.000000e+00 -2.253707e-05 -1.815489e-04 0.000000e+00 0.000000e+00 0.000000e+00 0.000000e+00 8.367905e-05 -1.136586e-05 0.000000e+00 -1.136586e-05 -2.649190e-04 0.000000e+00 0.000000e+00 0.000000e+00 0.000000e+00 2.250346e-04 8.708850e-05 0.000000e+00 8.708850e-05 -3.614969e-05 0.000000e+00 0.000000e+00 0.000000e+00 0.000000e+00 1.172316e-04 4.165143e-06 0.000000e+00 4.165143e-06 -3.613065e-05 0.000000e+00 0.000000e+00 0.000000e+00 0.000000e+00 1.084885e-04 7.336389e-06 0.000000e+00 7.336389e-06 -3.179356e-05 0.000000e+00 0.000000e+00 0.000000e+00 0.000000e+00 9.880734e-05 7.798013e-06 0.000000e+00 7.798013e-06 -3.012671e-05 0.000000e+00 0.000000e+00 0.000000e+00 0.000000e+00 8.837938e-05 8.879875e-06 0.000000e+00 8.879875e-06 -2.711338e-05 0.000000e+00 0.000000e+00 0.000000e+00 0.000000e+00 7.722600e-05 1.004427e-05 0.000000e+00 1.004427e-05 -2.361038e-05 0.000000e+00 0.000000e+00 0.000000e+00 0.000000e+00 6.523528e-05 1.151077e-05 0.000000e+00 1.151077e-05 -2.017110e-05 0.000000e+00 0.000000e+00 0.000000e+00 0.000000e+00 5.070507e-05 1.318607e-05 0.000000e+00 1.318607e-05 -1.535715e-05 0.000000e+00 0.000000e+00 0.000000e+00 0.000000e+00 2.846565e-06 -1.611032e-06 0.000000e+00 -1.611032e-06 -1.088340e-06 0.000000e+00 0.000000e+00 0.000000e+00 0.000000e+00 4.219479e-06 -8.813134e-07 0.000000e+00 -8.813134e-07 -1.819499e-06 0.000000e+00 0.000000e+00 0.000000e+00 0.000000e+00 3.998964e-06 1.788105e-06 0.000000e+00 1.788105e-06 -2.767605e-06 0.000000e+00 0.000000e+00 0.000000e+00 0.000000e+00 -2.892543e-06 5.907004e-06 0.000000e+00 5.907004e-06 -9.690003e-07 0.000000e+00 0.000000e+00 0.000000e+00 0.000000e+00 -1.801121e-05 1.081571e-05 0.000000e+00 1.081571e-05 3.516613e-06 0.000000e+00 0.000000e+00 0.000000e+00 0.000000e+00 -4.125965e-05 1.534750e-05 0.000000e+00 1.534750e-05 1.098353e-05 0.000000e+00 0.000000e+00 0.000000e+00 0.000000e+00 -6.793231e-05 1.817717e-05 0.000000e+00 1.817717e-05 1.982295e-05 0.000000e+00 0.000000e+00 0.000000e+00 0.000000e+00 -9.858214e-05 1.873596e-05 0.000000e+00 1.873596e-05 2.996609e-05 0.000000e+00 0.000000e+00 0.000000e+00 0.000000e+00 -1.263963e-04 1.675025e-05 0.000000e+00 1.675025e-05 3.984349e-05 0.000000e+00 0.000000e+00 0.000000e+00 0.000000e+00 -1.469625e-04 1.159189e-05 0.000000e+00 1.159189e-05 4.773498e-05 0.000000e+00 0.000000e+00 0.000000e+00 0.000000e+00 -1.526210e-04 8.284889e-07 0.000000e+00 8.284889e-07 5.210056e-05 0.000000e+00 0.000000e+00 0.000000e+00 0.000000e+00 -1.342492e-04 -1.664200e-05 0.000000e+00 -1.664200e-05 4.706357e-05 0.000000e+00 0.000000e+00 0.000000e+00 0.000000e+00 -9.010175e-05 -2.617693e-05 0.000000e+00 -2.617693e-05 3.067818e-05 0.000000e+00 0.000000e+00 0.000000e+00 0.000000e+00 -3.414652e-05 -2.291411e-05 0.000000e+00 -2.291411e-05 6.205527e-06 0.000000e+00 0.000000e+00 0.000000e+00 0.000000e+00 5.512844e-05 2.777977e-05 0.000000e+00 2.777977e-05 -1.016397e-05 0.000000e+00 0.000000e+00 0.000000e+00 0.000000e+00 1.494248e-07 -2.061348e-06 0.000000e+00 -2.061348e-06 -2.307390e-06 0.000000e+00 0.000000e+00 0.000000e+00 0.000000e+00 2.335620e-06 -1.733565e-06 0.000000e+00 -1.733565e-06 -6.721193e-06 0.000000e+00 0.000000e+00 0.000000e+00 0.000000e+00 3.514885e-06 2.760761e-07 0.000000e+00 2.760761e-07 -8.603118e-06 0.000000e+00 0.000000e+00 0.000000e+00 0.000000e+00 2.724233e-06 2.319838e-06 0.000000e+00 2.319838e-06 -6.772595e-06 0.000000e+00 0.000000e+00 0.000000e+00 0.000000e+00 8.624130e-07 3.460125e-06 0.000000e+00 3.460125e-06 -2.202064e-06 0.000000e+00 0.000000e+00 0.000000e+00 0.000000e+00 -1.126112e-06 3.240608e-06 0.000000e+00 3.240608e-06 2.341381e-06 0.000000e+00 0.000000e+00 0.000000e+00 0.000000e+00 -2.351730e-06 1.735464e-06 0.000000e+00 1.735464e-06 5.757812e-06 0.000000e+00 0.000000e+00 0.000000e+00 0.000000e+00 -2.691122e-06 1.922210e-07 0.000000e+00 1.922210e-07 6.807605e-06 0.000000e+00 0.000000e+00 0.000000e+00 0.000000e+00 -2.087114e-06 -1.351247e-06 0.000000e+00 -1.351247e-06 5.176039e-06 0.000000e+00 0.000000e+00 0.000000e+00 0.000000e+00 -5.655411e-07 -1.909278e-06 0.000000e+00 -1.909278e-06 2.181775e-06 0.000000e+00 0.000000e+00 0.000000e+00 0.000000e+00 6.051264e-05 1.962133e-05 0.000000e+00 1.962133e-05 -1.518804e-05 0.000000e+00 0.000000e+00 0.000000e+00 0.000000e+00 3.412426e-05 1.472507e-05 0.000000e+00 1.472507e-05 -9.184269e-06 0.000000e+00 0.000000e+00 0.000000e+00 0.000000e+00 1.156768e-05 1.203938e-05 0.000000e+00 1.203938e-05 -1.838209e-06 0.000000e+00 0.000000e+00 0.000000e+00 0.000000e+00 -7.565202e-06 7.959114e-06 0.000000e+00 7.959114e-06 4.816075e-06 0.000000e+00 0.000000e+00 0.000000e+00 0.000000e+00 -1.751415e-05 2.196787e-06 0.000000e+00 2.196787e-06 7.740817e-06 0.000000e+00 0.000000e+00 0.000000e+00 0.000000e+00 -1.620995e-05 -2.286901e-06 0.000000e+00 -2.286901e-06 6.373221e-06 0.000000e+00 0.000000e+00 0.000000e+00 0.000000e+00 -9.217303e-06 -4.027899e-06 0.000000e+00 -4.027899e-06 3.007336e-06 0.000000e+00 0.000000e+00 0.000000e+00 0.000000e+00 -1.927566e-06 -3.062797e-06 0.000000e+00 -3.062797e-06 -5.227694e-07 0.000000e+00 0.000000e+00 0.000000e+00 0.000000e+00 3.830427e-05 -1.707033e-05 0.000000e+00 -1.707033e-05 -2.713900e-04 0.000000e+00 0.000000e+00 0.000000e+00 0.000000e+00 5.806732e-05 -1.259208e-05 0.000000e+00 -1.259208e-05 -2.659614e-04 0.000000e+00 0.000000e+00 0.000000e+00 0.000000e+00 6.384541e-05 -7.719593e-06 0.000000e+00 -7.719593e-06 -2.549227e-04 0.000000e+00 0.000000e+00 0.000000e+00 0.000000e+00 6.666006e-05 -5.519237e-06 0.000000e+00 -5.519237e-06 -2.426866e-04 0.000000e+00 0.000000e+00 0.000000e+00 0.000000e+00 6.833051e-05 -4.410805e-06 0.000000e+00 -4.410805e-06 -2.308430e-04 0.000000e+00 0.000000e+00 0.000000e+00 0.000000e+00 6.884405e-05 -3.835728e-06 0.000000e+00 -3.835728e-06 -2.188563e-04 0.000000e+00 0.000000e+00 0.000000e+00 0.000000e+00 6.909320e-05 -3.628003e-06 0.000000e+00 -3.628003e-06 -2.072519e-04 0.000000e+00 0.000000e+00 0.000000e+00 0.000000e+00 6.912275e-05 -3.466348e-06 0.000000e+00 -3.466348e-06 -1.960843e-04 0.000000e+00 0.000000e+00 0.000000e+00 0.000000e+00 6.933391e-05 -3.551007e-06 0.000000e+00 -3.551007e-06 -1.853673e-04 0.000000e+00 0.000000e+00 0.000000e+00 0.000000e+00 6.963851e-05 -3.630470e-06 0.000000e+00 -3.630470e-06 -1.748566e-04 0.000000e+00 0.000000e+00 0.000000e+00 0.000000e+00 7.050195e-05 -3.772225e-06 0.000000e+00 -3.772225e-06 -1.647440e-04 0.000000e+00 0.000000e+00 0.000000e+00 0.000000e+00 7.144244e-05 -3.700645e-06 0.000000e+00 -3.700645e-06 -1.548991e-04 0.000000e+00 0.000000e+00 0.000000e+00 0.000000e+00 7.271205e-05 -3.740300e-06 0.000000e+00 -3.740300e-06 -1.456591e-04 0.000000e+00 0.000000e+00 0.000000e+00 0.000000e+00 7.447667e-05 -3.802506e-06 0.000000e+00 -3.802506e-06 -1.372607e-04 0.000000e+00 0.000000e+00 0.000000e+00 0.000000e+00 7.626446e-05 -3.776519e-06 0.000000e+00 -3.776519e-06 -1.286231e-04 0.000000e+00 0.000000e+00 0.000000e+00 0.000000e+00 7.813487e-05 -3.999829e-06 0.000000e+00 -3.999829e-06 -1.199311e-04 0.000000e+00 0.000000e+00 0.000000e+00 0.000000e+00 8.062952e-05 -4.220433e-06 0.000000e+00 -4.220433e-06 -1.119226e-04 0.000000e+00 0.000000e+00 0.000000e+00 0.000000e+00 8.326913e-05 -4.336821e-06 0.000000e+00 -4.336821e-06 -1.041896e-04 0.000000e+00 0.000000e+00 0.000000e+00 0.000000e+00 8.634700e-05 -4.606041e-06 0.000000e+00 -4.606041e-06 -9.675245e-05 0.000000e+00 0.000000e+00 0.000000e+00 0.000000e+00 8.955335e-05 -4.737238e-06 0.000000e+00 -4.737238e-06 -8.947221e-05 0.000000e+00 0.000000e+00 0.000000e+00 0.000000e+00 9.288179e-05 -4.891132e-06 0.000000e+00 -4.891132e-06 -8.188600e-05 0.000000e+00 0.000000e+00 0.000000e+00 0.000000e+00 9.661054e-05 -5.110661e-06 0.000000e+00 -5.110661e-06 -7.455766e-05 0.000000e+00 0.000000e+00 0.000000e+00 0.000000e+00 1.007568e-04 -5.244597e-06 0.000000e+00 -5.244597e-06 -6.776245e-05 0.000000e+00 0.000000e+00 0.000000e+00 0.000000e+00 1.051664e-04 -5.395216e-06 0.000000e+00 -5.395216e-06 -6.119734e-05 0.000000e+00 0.000000e+00 0.000000e+00 0.000000e+00 1.097810e-04 -5.656582e-06 0.000000e+00 -5.656582e-06 -5.454730e-05 0.000000e+00 0.000000e+00 0.000000e+00 0.000000e+00 1.147823e-04 -5.893113e-06 0.000000e+00 -5.893113e-06 -4.783093e-05 0.000000e+00 0.000000e+00 0.000000e+00 0.000000e+00 1.197626e-04 -5.982204e-06 0.000000e+00 -5.982204e-06 -4.063653e-05 0.000000e+00 0.000000e+00 0.000000e+00 0.000000e+00 1.250616e-04 -6.196915e-06 0.000000e+00 -6.196915e-06 -3.321487e-05 0.000000e+00 0.000000e+00 0.000000e+00 0.000000e+00 1.307888e-04 -6.499027e-06 0.000000e+00 -6.499027e-06 -2.630603e-05 0.000000e+00 0.000000e+00 0.000000e+00 0.000000e+00 1.369301e-04 -6.740197e-06 0.000000e+00 -6.740197e-06 -1.936572e-05 0.000000e+00 0.000000e+00 0.000000e+00 0.000000e+00 1.431382e-04 -7.043296e-06 0.000000e+00 -7.043296e-06 -1.145079e-05 0.000000e+00 0.000000e+00 0.000000e+00 0.000000e+00 1.494000e-04 -7.536447e-06 0.000000e+00 -7.536447e-06 -2.912785e-06 0.000000e+00 0.000000e+00 0.000000e+00 0.000000e+00 1.562824e-04 -8.156419e-06 0.000000e+00 -8.156419e-06 5.588773e-06 0.000000e+00 0.000000e+00 0.000000e+00 0.000000e+00 1.640985e-04 -8.907213e-06 0.000000e+00 -8.907213e-06 1.365794e-05 0.000000e+00 0.000000e+00 0.000000e+00 0.000000e+00 1.726813e-04 -9.317624e-06 0.000000e+00 -9.317624e-06 2.189712e-05 0.000000e+00 0.000000e+00 0.000000e+00 0.000000e+00 1.814996e-04 -9.425777e-06 0.000000e+00 -9.425777e-06 3.165993e-05 0.000000e+00 0.000000e+00 0.000000e+00 0.000000e+00 1.906259e-04 -9.630475e-06 0.000000e+00 -9.630475e-06 4.255644e-05 0.000000e+00 0.000000e+00 0.000000e+00 0.000000e+00 2.007283e-04 -1.019769e-05 0.000000e+00 -1.019769e-05 5.343722e-05 0.000000e+00 0.000000e+00 0.000000e+00 0.000000e+00 2.110601e-04 -1.175493e-05 0.000000e+00 -1.175493e-05 6.552465e-05 0.000000e+00 0.000000e+00 0.000000e+00 0.000000e+00 2.236780e-04 -1.395922e-05 0.000000e+00 -1.395922e-05 7.833288e-05 0.000000e+00 0.000000e+00 0.000000e+00 0.000000e+00 2.378133e-04 -1.585539e-05 0.000000e+00 -1.585539e-05 9.228752e-05 0.000000e+00 0.000000e+00 0.000000e+00 0.000000e+00 2.542087e-04 -1.834155e-05 0.000000e+00 -1.834155e-05 1.078942e-04 0.000000e+00 0.000000e+00 0.000000e+00 0.000000e+00 2.737818e-04 -2.068915e-05 0.000000e+00 -2.068915e-05 1.266048e-04 0.000000e+00 0.000000e+00 0.000000e+00 0.000000e+00 2.963743e-04 -2.498964e-05 0.000000e+00 -2.498964e-05 1.493536e-04 0.000000e+00 0.000000e+00 0.000000e+00 0.000000e+00 3.229807e-04 -3.403453e-05 0.000000e+00 -3.403453e-05 1.759480e-04 0.000000e+00 0.000000e+00 0.000000e+00 0.000000e+00 3.573070e-04 -4.949193e-05 0.000000e+00 -4.949193e-05 2.102267e-04 0.000000e+00 0.000000e+00 0.000000e+00 0.000000e+00 4.023381e-04 -7.823373e-05 0.000000e+00 -7.823373e-05 2.597384e-04 0.000000e+00 0.000000e+00 0.000000e+00 0.000000e+00 4.545427e-04 -1.314238e-04 0.000000e+00 -1.314238e-04 3.448609e-04 0.000000e+00 0.000000e+00 0.000000e+00 0.000000e+00 4.841713e-04 -2.196813e-04 0.000000e+00 -2.196813e-04 5.290334e-04 0.000000e+00 0.000000e+00 0.000000e+00 0.000000e+00 6.707130e-05 -2.317409e-05 0.000000e+00 -2.317409e-05 -2.841988e-04 0.000000e+00 0.000000e+00 0.000000e+00 0.000000e+00 6.852249e-05 -9.279036e-06 0.000000e+00 -9.279036e-06 -2.506651e-04 0.000000e+00 0.000000e+00 0.000000e+00 0.000000e+00 6.973041e-05 -5.963691e-06 0.000000e+00 -5.963691e-06 -2.253713e-04 0.000000e+00 0.000000e+00 0.000000e+00 0.000000e+00 6.956101e-05 -5.350390e-06 0.000000e+00 -5.350390e-06 -2.020368e-04 0.000000e+00 0.000000e+00 0.000000e+00 0.000000e+00 6.932667e-05 -5.613899e-06 0.000000e+00 -5.613899e-06 -1.798971e-04 0.000000e+00 0.000000e+00 0.000000e+00 0.000000e+00 7.086221e-05 -6.176505e-06 0.000000e+00 -6.176505e-06 -1.595980e-04 0.000000e+00 0.000000e+00 0.000000e+00 0.000000e+00 7.351185e-05 -6.136068e-06 0.000000e+00 -6.136068e-06 -1.413994e-04 0.000000e+00 0.000000e+00 0.000000e+00 0.000000e+00 7.705202e-05 -6.644514e-06 0.000000e+00 -6.644514e-06 -1.241371e-04 0.000000e+00 0.000000e+00 0.000000e+00 0.000000e+00 8.177646e-05 -7.050736e-06 0.000000e+00 -7.050736e-06 -1.079549e-04 0.000000e+00 0.000000e+00 0.000000e+00 0.000000e+00 8.732283e-05 -8.236120e-06 0.000000e+00 -8.236120e-06 -9.283244e-05 0.000000e+00 0.000000e+00 0.000000e+00 0.000000e+00 9.446353e-05 -9.129512e-06 0.000000e+00 -9.129512e-06 -7.815051e-05 0.000000e+00 0.000000e+00 0.000000e+00 0.000000e+00 1.024418e-04 -9.593668e-06 0.000000e+00 -9.593668e-06 -6.426932e-05 0.000000e+00 0.000000e+00 0.000000e+00 0.000000e+00 1.115513e-04 -1.084462e-05 0.000000e+00 -1.084462e-05 -5.096301e-05 0.000000e+00 0.000000e+00 0.000000e+00 0.000000e+00 1.217638e-04 -1.165859e-05 0.000000e+00 -1.165859e-05 -3.682419e-05 0.000000e+00 0.000000e+00 0.000000e+00 0.000000e+00 1.329984e-04 -1.197677e-05 0.000000e+00 -1.197677e-05 -2.235841e-05 0.000000e+00 0.000000e+00 0.000000e+00 0.000000e+00 1.451759e-04 -1.381803e-05 0.000000e+00 -1.381803e-05 -6.683785e-06 0.000000e+00 0.000000e+00 0.000000e+00 0.000000e+00 1.590745e-04 -1.582417e-05 0.000000e+00 -1.582417e-05 1.042894e-05 0.000000e+00 0.000000e+00 0.000000e+00 0.000000e+00 1.749790e-04 -1.805400e-05 0.000000e+00 -1.805400e-05 2.821444e-05 0.000000e+00 0.000000e+00 0.000000e+00 0.000000e+00 1.942289e-04 -1.812735e-05 0.000000e+00 -1.812735e-05 4.895114e-05 0.000000e+00 0.000000e+00 0.000000e+00 0.000000e+00 2.137979e-04 -2.415286e-05 0.000000e+00 -2.415286e-05 7.325999e-05 0.000000e+00 0.000000e+00 0.000000e+00 0.000000e+00 2.395690e-04 -3.204660e-05 0.000000e+00 -3.204660e-05 1.035015e-04 0.000000e+00 0.000000e+00 0.000000e+00 0.000000e+00 2.762708e-04 -3.826580e-05 0.000000e+00 -3.826580e-05 1.416813e-04 0.000000e+00 0.000000e+00 0.000000e+00 0.000000e+00 3.139186e-04 -6.319995e-05 0.000000e+00 -6.319995e-05 2.027192e-04 0.000000e+00 0.000000e+00 0.000000e+00 0.000000e+00 3.408392e-04 -1.137679e-04 0.000000e+00 -1.137679e-04 3.268651e-04 0.000000e+00 0.000000e+00 0.000000e+00 0.000000e+00 2.230705e-04 -4.230785e-05 0.000000e+00 -4.230785e-05 6.572140e-04 0.000000e+00 0.000000e+00 0.000000e+00 0.000000e+00 1.344072e-04 2.533317e-05 0.000000e+00 2.533317e-05 -3.477505e-05 0.000000e+00 0.000000e+00 0.000000e+00 0.000000e+00 9.910528e-05 1.776265e-05 0.000000e+00 1.776265e-05 -2.936447e-05 0.000000e+00 0.000000e+00 0.000000e+00 0.000000e+00 7.478157e-05 1.791614e-05 0.000000e+00 1.791614e-05 -2.312317e-05 0.000000e+00 0.000000e+00 0.000000e+00 0.000000e+00 5.287761e-05 2.080781e-05 0.000000e+00 2.080781e-05 -1.539093e-05 0.000000e+00 0.000000e+00 0.000000e+00 0.000000e+00 6.141588e-05 2.789111e-05 0.000000e+00 2.789111e-05 -1.386435e-05 0.000000e+00 0.000000e+00 0.000000e+00 0.000000e+00 5.731664e-05 2.880297e-05 0.000000e+00 2.880297e-05 -9.865301e-06 0.000000e+00 0.000000e+00 0.000000e+00 0.000000e+00 2.416285e-05 2.378974e-05 0.000000e+00 2.378974e-05 -5.085679e-06 0.000000e+00 0.000000e+00 0.000000e+00 0.000000e+00 -7.699390e-06 6.878021e-06 0.000000e+00 6.878021e-06 5.501030e-06 0.000000e+00 0.000000e+00 0.000000e+00 0.000000e+00 -7.934192e-06 -4.706368e-06 0.000000e+00 -4.706368e-06 3.275629e-06 0.000000e+00 0.000000e+00 0.000000e+00 0.000000e+00 6.770313e-07 -3.442843e-06 0.000000e+00 -3.442843e-06 -2.994784e-06 0.000000e+00 0.000000e+00 0.000000e+00 0.000000e+00 3.882169e-06 1.571652e-06 0.000000e+00 1.571652e-06 -6.900849e-06 0.000000e+00 0.000000e+00 0.000000e+00 0.000000e+00 1.345338e-07 4.901606e-06 0.000000e+00 4.901606e-06 -1.179485e-06 0.000000e+00 0.000000e+00 0.000000e+00 0.000000e+00 -2.097536e-06 1.217296e-06 0.000000e+00 1.217296e-06 3.264138e-06 0.000000e+00 0.000000e+00 0.000000e+00 0.000000e+00 -9.234873e-07 -1.834314e-06 0.000000e+00 -1.834314e-06 1.274692e-06 0.000000e+00 0.000000e+00 0.000000e+00 0.000000e+00 1.010393e-06 -1.695595e-06 0.000000e+00 -1.695595e-06 -3.639544e-07 0.000000e+00 0.000000e+00 0.000000e+00 0.000000e+00 1.683196e-06 9.004572e-07 0.000000e+00 9.004572e-07 -2.649371e-06 0.000000e+00 0.000000e+00 0.000000e+00 0.000000e+00 -1.188262e-05 1.403789e-05 0.000000e+00 1.403789e-05 4.057283e-07 0.000000e+00 0.000000e+00 0.000000e+00 0.000000e+00 -4.824692e-05 2.792260e-05 0.000000e+00 2.792260e-05 1.303173e-05 0.000000e+00 0.000000e+00 0.000000e+00 0.000000e+00 -9.331557e-05 2.835592e-05 0.000000e+00 2.835592e-05 3.018551e-05 0.000000e+00 0.000000e+00 0.000000e+00 0.000000e+00 -1.222405e-04 8.101018e-06 0.000000e+00 8.101018e-06 4.420465e-05 0.000000e+00 0.000000e+00 0.000000e+00 0.000000e+00 -9.706116e-05 -3.382570e-05 0.000000e+00 -3.382570e-05 3.608181e-05 0.000000e+00 0.000000e+00 0.000000e+00 0.000000e+00 -5.517313e-05 -4.173480e-05 0.000000e+00 -4.173480e-05 1.514028e-05 0.000000e+00 0.000000e+00 0.000000e+00 0.000000e+00 -1.460362e-05 -2.931424e-05 0.000000e+00 -2.931424e-05 -9.077973e-06 0.000000e+00 0.000000e+00 0.000000e+00 0.000000e+00 9.280567e-06 -4.036001e-05 0.000000e+00 -4.036001e-05 -4.776186e-05 0.000000e+00 0.000000e+00 0.000000e+00 0.000000e+00 5.220790e-06 7.316852e-06 0.000000e+00 7.316852e-06 -5.986376e-06 0.000000e+00 0.000000e+00 0.000000e+00 0.000000e+00 8.860936e-06 2.913588e-06 0.000000e+00 2.913588e-06 -6.909182e-06 0.000000e+00 0.000000e+00 0.000000e+00 0.000000e+00 9.671116e-06 -2.666595e-06 0.000000e+00 -2.666595e-06 -5.185784e-06 0.000000e+00 0.000000e+00 0.000000e+00 0.000000e+00 7.509944e-06 -6.602749e-06 0.000000e+00 -6.602749e-06 1.107724e-07 0.000000e+00 0.000000e+00 0.000000e+00 0.000000e+00 1.909066e-06 -5.531846e-06 0.000000e+00 -5.531846e-06 7.201689e-06 0.000000e+00 0.000000e+00 0.000000e+00 0.000000e+00 -2.854929e-06 1.818136e-06 0.000000e+00 1.818136e-06 1.301351e-05 0.000000e+00 0.000000e+00 0.000000e+00 0.000000e+00 -3.053601e-06 1.413769e-05 0.000000e+00 1.413769e-05 1.602381e-05 0.000000e+00 0.000000e+00 0.000000e+00 0.000000e+00 1.251159e-06 2.932639e-05 0.000000e+00 2.932639e-05 1.519884e-05 0.000000e+00 0.000000e+00 0.000000e+00 0.000000e+00 1.020115e-05 4.477763e-05 0.000000e+00 4.477763e-05 1.048148e-05 0.000000e+00 0.000000e+00 0.000000e+00 0.000000e+00 2.201365e-05 5.638868e-05 0.000000e+00 5.638868e-05 3.839864e-06 0.000000e+00 0.000000e+00 0.000000e+00 0.000000e+00 3.045154e-05 6.353172e-05 0.000000e+00 6.353172e-05 -3.214650e-06 0.000000e+00 0.000000e+00 0.000000e+00 0.000000e+00 3.286813e-05 6.686690e-05 0.000000e+00 6.686690e-05 -7.959441e-06 0.000000e+00 0.000000e+00 0.000000e+00 0.000000e+00 2.889684e-05 6.834613e-05 0.000000e+00 6.834613e-05 -8.879852e-06 0.000000e+00 0.000000e+00 0.000000e+00 0.000000e+00 1.954875e-05 6.880882e-05 0.000000e+00 6.880882e-05 -6.321436e-06 0.000000e+00 0.000000e+00 0.000000e+00 0.000000e+00 6.701093e-06 7.011708e-05 0.000000e+00 7.011708e-05 -1.862667e-06 0.000000e+00 0.000000e+00 0.000000e+00 0.000000e+00 -5.449352e-06 7.271732e-05 0.000000e+00 7.271732e-05 1.224559e-06 0.000000e+00 0.000000e+00 0.000000e+00 0.000000e+00 -1.234149e-05 7.511478e-05 0.000000e+00 7.511478e-05 -4.585175e-07 0.000000e+00 0.000000e+00 0.000000e+00 0.000000e+00 -1.269009e-05 7.427738e-05 0.000000e+00 7.427738e-05 -7.262569e-06 0.000000e+00 0.000000e+00 0.000000e+00 0.000000e+00 -7.888278e-06 6.821573e-05 0.000000e+00 6.821573e-05 -1.576178e-05 0.000000e+00 0.000000e+00 0.000000e+00 0.000000e+00 -1.368855e-06 5.706083e-05 0.000000e+00 5.706083e-05 -2.292867e-05 0.000000e+00 0.000000e+00 0.000000e+00 0.000000e+00 4.955093e-06 4.380692e-05 0.000000e+00 4.380692e-05 -2.825835e-05 0.000000e+00 0.000000e+00 0.000000e+00 0.000000e+00 9.038618e-06 2.851185e-05 0.000000e+00 2.851185e-05 -3.091462e-05 0.000000e+00 0.000000e+00 0.000000e+00 0.000000e+00 8.361525e-06 1.416206e-05 0.000000e+00 1.416206e-05 -2.790027e-05 0.000000e+00 0.000000e+00 0.000000e+00 0.000000e+00 3.670943e-06 4.180905e-06 0.000000e+00 4.180905e-06 -2.021194e-05 0.000000e+00 0.000000e+00 0.000000e+00 0.000000e+00 -1.250027e-06 1.416933e-06 0.000000e+00 1.416933e-06 -1.168487e-05 0.000000e+00 0.000000e+00 0.000000e+00 0.000000e+00 -3.452852e-06 3.699939e-06 0.000000e+00 3.699939e-06 -6.046423e-06 0.000000e+00 0.000000e+00 0.000000e+00 0.000000e+00 -2.339629e-06 6.857704e-06 0.000000e+00 6.857704e-06 -3.750911e-06 0.000000e+00 0.000000e+00 0.000000e+00 0.000000e+00 9.235070e-07 8.607342e-06 0.000000e+00 8.607342e-06 -4.247160e-06 0.000000e+00 0.000000e+00 0.000000e+00 0.000000e+00 6.701798e-05 -1.438731e-05 0.000000e+00 -1.438731e-05 -2.642557e-04 0.000000e+00 0.000000e+00 0.000000e+00 0.000000e+00 6.951057e-05 -7.048166e-06 0.000000e+00 -7.048166e-06 -2.377586e-04 0.000000e+00 0.000000e+00 0.000000e+00 0.000000e+00 6.966546e-05 -5.625159e-06 0.000000e+00 -5.625159e-06 -2.136065e-04 0.000000e+00 0.000000e+00 0.000000e+00 0.000000e+00 6.933921e-05 -5.359557e-06 0.000000e+00 -5.359557e-06 -1.908328e-04 0.000000e+00 0.000000e+00 0.000000e+00 0.000000e+00 6.994465e-05 -5.987677e-06 0.000000e+00 -5.987677e-06 -1.695884e-04 0.000000e+00 0.000000e+00 0.000000e+00 0.000000e+00 7.220838e-05 -6.164173e-06 0.000000e+00 -6.164173e-06 -1.503635e-04 0.000000e+00 0.000000e+00 0.000000e+00 0.000000e+00 7.501596e-05 -6.377268e-06 0.000000e+00 -6.377268e-06 -1.326349e-04 0.000000e+00 0.000000e+00 0.000000e+00 0.000000e+00 7.925735e-05 -6.997011e-06 0.000000e+00 -6.997011e-06 -1.159619e-04 0.000000e+00 0.000000e+00 0.000000e+00 0.000000e+00 8.449517e-05 -7.627290e-06 0.000000e+00 -7.627290e-06 -1.002008e-04 0.000000e+00 0.000000e+00 0.000000e+00 0.000000e+00 9.072281e-05 -8.841414e-06 0.000000e+00 -8.841414e-06 -8.547359e-05 0.000000e+00 0.000000e+00 0.000000e+00 0.000000e+00 9.833348e-05 -9.314995e-06 0.000000e+00 -9.314995e-06 -7.108241e-05 0.000000e+00 0.000000e+00 0.000000e+00 0.000000e+00 1.068129e-04 -1.028796e-05 0.000000e+00 -1.028796e-05 -5.756516e-05 0.000000e+00 0.000000e+00 0.000000e+00 0.000000e+00 1.164226e-04 -1.131535e-05 0.000000e+00 -1.131535e-05 -4.387954e-05 0.000000e+00 0.000000e+00 0.000000e+00 0.000000e+00 1.275125e-04 -1.149595e-05 0.000000e+00 -1.149595e-05 -2.972934e-05 0.000000e+00 0.000000e+00 0.000000e+00 0.000000e+00 1.389016e-04 -1.281399e-05 0.000000e+00 -1.281399e-05 -1.488698e-05 0.000000e+00 0.000000e+00 0.000000e+00 0.000000e+00 1.520420e-04 -1.478845e-05 0.000000e+00 -1.478845e-05 2.026818e-06 0.000000e+00 0.000000e+00 0.000000e+00 0.000000e+00 1.668487e-04 -1.712384e-05 0.000000e+00 -1.712384e-05 1.900761e-05 0.000000e+00 0.000000e+00 0.000000e+00 0.000000e+00 1.841682e-04 -1.834214e-05 0.000000e+00 -1.834214e-05 3.826005e-05 0.000000e+00 0.000000e+00 0.000000e+00 0.000000e+00 2.034666e-04 -2.029212e-05 0.000000e+00 -2.029212e-05 6.064215e-05 0.000000e+00 0.000000e+00 0.000000e+00 0.000000e+00 2.259906e-04 -2.811290e-05 0.000000e+00 -2.811290e-05 8.789151e-05 0.000000e+00 0.000000e+00 0.000000e+00 0.000000e+00 2.561241e-04 -3.534736e-05 0.000000e+00 -3.534736e-05 1.210544e-04 0.000000e+00 0.000000e+00 0.000000e+00 0.000000e+00 2.948910e-04 -4.741663e-05 0.000000e+00 -4.741663e-05 1.685413e-04 0.000000e+00 0.000000e+00 0.000000e+00 0.000000e+00 3.324228e-04 -8.457670e-05 0.000000e+00 -8.457670e-05 2.510485e-04 0.000000e+00 0.000000e+00 0.000000e+00 0.000000e+00 3.199294e-04 -1.368931e-04 0.000000e+00 -1.368931e-04 4.519350e-04 0.000000e+00 0.000000e+00 0.000000e+00 0.000000e+00 1.637912e-04 3.906330e-05 0.000000e+00 3.906330e-05 -4.660098e-05 0.000000e+00 0.000000e+00 0.000000e+00 0.000000e+00 1.147372e-04 1.969010e-05 0.000000e+00 1.969010e-05 -3.275991e-05 0.000000e+00 0.000000e+00 0.000000e+00 0.000000e+00 8.620656e-05 1.747127e-05 0.000000e+00 1.747127e-05 -2.599594e-05 0.000000e+00 0.000000e+00 0.000000e+00 0.000000e+00 6.423878e-05 1.903335e-05 0.000000e+00 1.903335e-05 -2.054170e-05 0.000000e+00 0.000000e+00 0.000000e+00 0.000000e+00 5.457253e-05 3.067932e-05 0.000000e+00 3.067932e-05 -9.078162e-06 0.000000e+00 0.000000e+00 0.000000e+00 0.000000e+00 4.196974e-05 2.641840e-05 0.000000e+00 2.641840e-05 -9.859799e-06 0.000000e+00 0.000000e+00 0.000000e+00 0.000000e+00 6.085667e-06 1.783465e-05 0.000000e+00 1.783465e-05 1.614904e-06 0.000000e+00 0.000000e+00 0.000000e+00 0.000000e+00 -1.118585e-05 -6.391411e-07 0.000000e+00 -6.391411e-07 5.758120e-06 0.000000e+00 0.000000e+00 0.000000e+00 0.000000e+00 -2.963073e-06 -5.144979e-06 0.000000e+00 -5.144979e-06 -2.458454e-08 0.000000e+00 0.000000e+00 0.000000e+00 0.000000e+00 3.563846e-06 -1.872744e-06 0.000000e+00 -1.872744e-06 -6.452581e-06 0.000000e+00 0.000000e+00 0.000000e+00 0.000000e+00 2.303460e-06 4.122145e-06 0.000000e+00 4.122145e-06 -4.627495e-06 0.000000e+00 0.000000e+00 0.000000e+00 0.000000e+00 -1.662188e-06 3.615874e-06 0.000000e+00 3.615874e-06 1.515658e-06 0.000000e+00 0.000000e+00 0.000000e+00 0.000000e+00 -1.854284e-06 -6.712244e-07 0.000000e+00 -6.712244e-07 2.712363e-06 0.000000e+00 0.000000e+00 0.000000e+00 0.000000e+00 -7.014885e-05 3.056256e-05 0.000000e+00 3.056256e-05 2.102233e-05 0.000000e+00 0.000000e+00 0.000000e+00 0.000000e+00 -2.011199e-06 6.797784e-06 0.000000e+00 6.797784e-06 -2.538069e-06 0.000000e+00 0.000000e+00 0.000000e+00 0.000000e+00 -2.781650e-05 2.155187e-05 0.000000e+00 2.155187e-05 5.498619e-06 0.000000e+00 0.000000e+00 0.000000e+00 0.000000e+00 -1.116681e-04 2.141770e-05 0.000000e+00 2.141770e-05 3.801971e-05 0.000000e+00 0.000000e+00 0.000000e+00 0.000000e+00 -1.159052e-04 -1.552157e-05 0.000000e+00 -1.552157e-05 4.577355e-05 0.000000e+00 0.000000e+00 0.000000e+00 0.000000e+00 2.401933e-05 -4.615169e-05 0.000000e+00 -4.615169e-05 -8.655265e-05 0.000000e+00 0.000000e+00 0.000000e+00 0.000000e+00 7.216762e-05 -1.031497e-05 0.000000e+00 -1.031497e-05 -2.211360e-04 0.000000e+00 0.000000e+00 0.000000e+00 0.000000e+00 6.996517e-05 -1.018567e-05 0.000000e+00 -1.018567e-05 -1.969261e-04 0.000000e+00 0.000000e+00 0.000000e+00 0.000000e+00 7.507732e-05 -1.420639e-05 0.000000e+00 -1.420639e-05 -1.273461e-04 0.000000e+00 0.000000e+00 0.000000e+00 0.000000e+00 7.280165e-05 -1.246136e-05 0.000000e+00 -1.246136e-05 -1.459286e-04 0.000000e+00 0.000000e+00 0.000000e+00 0.000000e+00 7.064313e-05 -1.028375e-05 0.000000e+00 -1.028375e-05 -2.086459e-04 0.000000e+00 0.000000e+00 0.000000e+00 0.000000e+00 7.362760e-05 -1.286660e-05 0.000000e+00 -1.286660e-05 -1.362894e-04 0.000000e+00 0.000000e+00 0.000000e+00 0.000000e+00 7.143552e-05 -1.299985e-05 0.000000e+00 -1.299985e-05 -1.547425e-04 0.000000e+00 0.000000e+00 0.000000e+00 0.000000e+00 9.898061e-05 -1.858429e-05 0.000000e+00 -1.858429e-05 -6.709198e-05 0.000000e+00 0.000000e+00 0.000000e+00 0.000000e+00 9.157511e-05 -1.837263e-05 0.000000e+00 -1.837263e-05 -8.150294e-05 0.000000e+00 0.000000e+00 0.000000e+00 0.000000e+00 2.593396e-04 -9.047157e-05 0.000000e+00 -9.047157e-05 2.016605e-04 0.000000e+00 0.000000e+00 0.000000e+00 0.000000e+00 9.570452e-05 -1.847606e-05 0.000000e+00 -1.847606e-05 -7.444570e-05 0.000000e+00 0.000000e+00 0.000000e+00 0.000000e+00 8.795369e-05 -1.778568e-05 0.000000e+00 -1.778568e-05 -8.883220e-05 0.000000e+00 0.000000e+00 0.000000e+00 0.000000e+00 1.171417e-04 -2.324389e-05 0.000000e+00 -2.324389e-05 -3.931880e-05 0.000000e+00 0.000000e+00 0.000000e+00 0.000000e+00 1.285846e-04 -2.371151e-05 0.000000e+00 -2.371151e-05 -2.515931e-05 0.000000e+00 0.000000e+00 0.000000e+00 0.000000e+00 1.224823e-04 -2.369983e-05 0.000000e+00 -2.369983e-05 -3.236488e-05 0.000000e+00 0.000000e+00 0.000000e+00 0.000000e+00 1.117426e-04 -2.255155e-05 0.000000e+00 -2.255155e-05 -4.650767e-05 0.000000e+00 0.000000e+00 0.000000e+00 0.000000e+00 1.456707e-04 -2.939273e-05 0.000000e+00 -2.939273e-05 -8.205497e-07 0.000000e+00 0.000000e+00 0.000000e+00 0.000000e+00 1.838296e-04 -3.739588e-05 0.000000e+00 -3.739588e-05 4.834049e-05 0.000000e+00 0.000000e+00 0.000000e+00 0.000000e+00 1.592919e-04 -3.261288e-05 0.000000e+00 -3.261288e-05 1.775159e-05 0.000000e+00 0.000000e+00 0.000000e+00 0.000000e+00 1.737900e-04 -3.667862e-05 0.000000e+00 -3.667862e-05 3.817262e-05 0.000000e+00 0.000000e+00 0.000000e+00 0.000000e+00 2.405763e-04 -6.966791e-05 0.000000e+00 -6.966791e-05 1.463590e-04 0.000000e+00 0.000000e+00 0.000000e+00 0.000000e+00 2.170260e-04 -5.695137e-05 0.000000e+00 -5.695137e-05 1.041759e-04 0.000000e+00 0.000000e+00 0.000000e+00 0.000000e+00 1.656278e-04 -3.510474e-05 0.000000e+00 -3.510474e-05 2.765283e-05 0.000000e+00 0.000000e+00 0.000000e+00 0.000000e+00 2.270524e-04 -6.417124e-05 0.000000e+00 -6.417124e-05 1.243633e-04 0.000000e+00 0.000000e+00 0.000000e+00 0.000000e+00 2.072323e-04 -4.977302e-05 0.000000e+00 -4.977302e-05 8.561311e-05 0.000000e+00 0.000000e+00 0.000000e+00 0.000000e+00 2.623959e-04 -7.407590e-05 0.000000e+00 -7.407590e-05 1.657605e-04 0.000000e+00 0.000000e+00 0.000000e+00 0.000000e+00 1.087865e-04 4.040190e-05 0.000000e+00 4.040190e-05 -2.763261e-05 0.000000e+00 0.000000e+00 0.000000e+00 0.000000e+00 1.214885e-04 -4.613578e-05 0.000000e+00 -4.613578e-05 5.450796e-04 0.000000e+00 0.000000e+00 0.000000e+00 0.000000e+00 8.229604e-05 3.161727e-05 0.000000e+00 3.161727e-05 -2.473616e-05 0.000000e+00 0.000000e+00 0.000000e+00 0.000000e+00 1.275528e-04 5.203641e-05 0.000000e+00 5.203641e-05 -2.629108e-05 0.000000e+00 0.000000e+00 0.000000e+00 0.000000e+00 1.502954e-04 7.983383e-05 0.000000e+00 7.983383e-05 -1.776886e-05 0.000000e+00 0.000000e+00 0.000000e+00 0.000000e+00 1.989182e-04 -1.175040e-04 0.000000e+00 -1.175040e-04 4.236758e-04 0.000000e+00 0.000000e+00 0.000000e+00 0.000000e+00 9.396017e-05 3.476048e-05 0.000000e+00 3.476048e-05 -2.630922e-05 0.000000e+00 0.000000e+00 0.000000e+00 0.000000e+00 2.462443e-04 1.253391e-04 0.000000e+00 1.253391e-04 -5.073060e-05 0.000000e+00 0.000000e+00 0.000000e+00 0.000000e+00 3.344519e-05 4.142761e-05 0.000000e+00 4.142761e-05 -5.009038e-06 0.000000e+00 0.000000e+00 0.000000e+00 0.000000e+00 6.624049e-05 2.772806e-05 0.000000e+00 2.772806e-05 -2.070787e-05 0.000000e+00 0.000000e+00 0.000000e+00 0.000000e+00 4.440432e-05 3.821858e-05 0.000000e+00 3.821858e-05 -6.786707e-06 0.000000e+00 0.000000e+00 0.000000e+00 0.000000e+00 -9.107272e-07 -2.484993e-07 0.000000e+00 -2.484993e-07 -3.116296e-06 0.000000e+00 0.000000e+00 0.000000e+00 0.000000e+00 1.995005e-05 3.997014e-05 0.000000e+00 3.997014e-05 8.944427e-07 0.000000e+00 0.000000e+00 0.000000e+00 0.000000e+00 -2.513057e-06 2.783087e-06 0.000000e+00 2.783087e-06 -4.437911e-07 0.000000e+00 0.000000e+00 0.000000e+00 0.000000e+00 4.948162e-06 4.309476e-06 0.000000e+00 4.309476e-06 -6.074978e-06 0.000000e+00 0.000000e+00 0.000000e+00 0.000000e+00 -3.142268e-06 -3.873289e-06 0.000000e+00 -3.873289e-06 5.235791e-06 0.000000e+00 0.000000e+00 0.000000e+00 0.000000e+00 1.958710e-09 -6.898092e-06 0.000000e+00 -6.898092e-06 -2.507093e-08 0.000000e+00 0.000000e+00 0.000000e+00 0.000000e+00 7.461191e-05 -1.325952e-05 0.000000e+00 -1.325952e-05 -2.474891e-04 0.000000e+00 0.000000e+00 0.000000e+00 0.000000e+00 2.929069e-06 -5.144542e-06 0.000000e+00 -5.144542e-06 -3.637178e-06 0.000000e+00 0.000000e+00 0.000000e+00 0.000000e+00 6.168337e-06 -1.004974e-06 0.000000e+00 -1.004974e-06 -6.045215e-06 0.000000e+00 0.000000e+00 0.000000e+00 0.000000e+00 -3.079620e-05 4.115985e-05 0.000000e+00 4.115985e-05 4.849197e-06 0.000000e+00 0.000000e+00 0.000000e+00 0.000000e+00 -1.965856e-06 7.316883e-07 0.000000e+00 7.316883e-07 -1.659161e-06 0.000000e+00 0.000000e+00 0.000000e+00 0.000000e+00 -1.692783e-05 3.055777e-05 0.000000e+00 3.055777e-05 -1.211967e-06 0.000000e+00 0.000000e+00 0.000000e+00 0.000000e+00 -4.504509e-05 5.012275e-05 0.000000e+00 5.012275e-05 1.245497e-05 0.000000e+00 0.000000e+00 0.000000e+00 0.000000e+00 -4.406210e-08 1.715368e-07 0.000000e+00 1.715368e-07 -3.025942e-06 0.000000e+00 0.000000e+00 0.000000e+00 0.000000e+00 -7.487924e-05 4.209640e-05 0.000000e+00 4.209640e-05 3.071536e-05 0.000000e+00 0.000000e+00 0.000000e+00 0.000000e+00 -8.255303e-05 -4.646323e-05 0.000000e+00 -4.646323e-05 4.777905e-05 0.000000e+00 0.000000e+00 0.000000e+00 0.000000e+00 -6.474515e-06 1.872525e-05 0.000000e+00 1.872525e-05 -5.113044e-06 0.000000e+00 0.000000e+00 0.000000e+00 0.000000e+00 -6.132757e-05 4.916355e-05 0.000000e+00 4.916355e-05 2.180607e-05 0.000000e+00 0.000000e+00 0.000000e+00 0.000000e+00 -6.050795e-05 -6.568703e-05 0.000000e+00 -6.568703e-05 2.779287e-05 0.000000e+00 0.000000e+00 0.000000e+00 0.000000e+00 5.937992e-06 -7.298802e-05 0.000000e+00 -7.298802e-05 -4.951126e-05 0.000000e+00 0.000000e+00 0.000000e+00 0.000000e+00 -3.256849e-05 -6.854867e-05 0.000000e+00 -6.854867e-05 1.549165e-06 0.000000e+00 0.000000e+00 0.000000e+00 0.000000e+00 7.328690e-05 -1.102828e-05 0.000000e+00 -1.102828e-05 -2.338439e-04 0.000000e+00 0.000000e+00 0.000000e+00 0.000000e+00 1.526813e-04 -3.046135e-05 0.000000e+00 -3.046135e-05 7.997144e-06 0.000000e+00 0.000000e+00 0.000000e+00 0.000000e+00 1.480903e-04 2.359612e-04 0.000000e+00 2.359612e-04 5.191060e-04 0.000000e+00 0.000000e+00 0.000000e+00 0.000000e+00 -8.813444e-07 7.670752e-06 0.000000e+00 7.670752e-06 -6.380081e-06 0.000000e+00 0.000000e+00 0.000000e+00 0.000000e+00 4.208876e-05 -3.529194e-05 0.000000e+00 -3.529194e-05 -1.339993e-04 0.000000e+00 0.000000e+00 0.000000e+00 0.000000e+00 7.971169e-05 -1.446858e-05 0.000000e+00 -1.446858e-05 -1.115627e-04 0.000000e+00 0.000000e+00 0.000000e+00 0.000000e+00 6.023705e-06 -5.796580e-06 0.000000e+00 -5.796580e-06 -3.168598e-06 0.000000e+00 0.000000e+00 0.000000e+00 0.000000e+00 2.932689e-06 -7.280270e-06 0.000000e+00 -7.280270e-06 1.826312e-06 0.000000e+00 0.000000e+00 0.000000e+00 0.000000e+00 -4.715538e-06 4.700748e-06 0.000000e+00 4.700748e-06 8.440935e-06 0.000000e+00 0.000000e+00 0.000000e+00 0.000000e+00 7.875899e-06 3.045586e-05 0.000000e+00 3.045586e-05 6.942685e-06 0.000000e+00 0.000000e+00 0.000000e+00 0.000000e+00 3.079967e-05 5.396955e-05 0.000000e+00 5.396955e-05 -2.918689e-06 0.000000e+00 0.000000e+00 0.000000e+00 0.000000e+00 3.601809e-05 6.491041e-05 0.000000e+00 6.491041e-05 -9.464571e-06 0.000000e+00 0.000000e+00 0.000000e+00 0.000000e+00 1.345700e-05 7.004627e-05 0.000000e+00 7.004627e-05 -1.780313e-06 0.000000e+00 0.000000e+00 0.000000e+00 0.000000e+00 -1.383242e-05 7.318536e-05 0.000000e+00 7.318536e-05 5.325351e-06 0.000000e+00 0.000000e+00 0.000000e+00 0.000000e+00 -1.959852e-05 7.194143e-05 0.000000e+00 7.194143e-05 2.538953e-06 0.000000e+00 0.000000e+00 0.000000e+00 0.000000e+00 -1.885763e-05 6.676772e-05 0.000000e+00 6.676772e-05 -3.737933e-06 0.000000e+00 0.000000e+00 0.000000e+00 0.000000e+00 -1.286057e-05 5.792793e-05 0.000000e+00 5.792793e-05 -1.059830e-05 0.000000e+00 0.000000e+00 0.000000e+00 0.000000e+00 1.115565e-06 3.215571e-05 0.000000e+00 3.215571e-05 -2.060068e-05 0.000000e+00 0.000000e+00 0.000000e+00 0.000000e+00 4.552444e-06 1.883488e-05 0.000000e+00 1.883488e-05 -2.127690e-05 0.000000e+00 0.000000e+00 0.000000e+00 0.000000e+00 3.028538e-06 7.330905e-06 0.000000e+00 7.330905e-06 -1.681040e-05 0.000000e+00 0.000000e+00 0.000000e+00 0.000000e+00 -2.642488e-06 2.249037e-06 0.000000e+00 2.249037e-06 -5.016014e-06 0.000000e+00 0.000000e+00 0.000000e+00 0.000000e+00 -2.548961e-06 4.791999e-06 0.000000e+00 4.791999e-06 -2.279449e-06 0.000000e+00 0.000000e+00 0.000000e+00 0.000000e+00 2.631392e-04 2.461549e-04 0.000000e+00 2.461549e-04 1.409930e-04 0.000000e+00 0.000000e+00 0.000000e+00 0.000000e+00 1.588415e-04 1.332836e-04 0.000000e+00 1.332836e-04 2.753853e-05 0.000000e+00 0.000000e+00 0.000000e+00 0.000000e+00 3.411871e-05 -6.492166e-05 0.000000e+00 -6.492166e-05 -1.057408e-04 0.000000e+00 0.000000e+00 0.000000e+00 0.000000e+00 1.672382e-04 2.039632e-04 0.000000e+00 2.039632e-04 1.156138e-04 0.000000e+00 0.000000e+00 0.000000e+00 0.000000e+00 8.404739e-05 -2.055268e-05 0.000000e+00 -2.055268e-05 -2.821982e-04 0.000000e+00 0.000000e+00 0.000000e+00 0.000000e+00 6.927179e-05 -1.201606e-05 0.000000e+00 -1.201606e-05 -1.742477e-04 0.000000e+00 0.000000e+00 0.000000e+00 0.000000e+00 1.031396e-04 -2.006851e-05 0.000000e+00 -2.006851e-05 -6.018601e-05 0.000000e+00 0.000000e+00 0.000000e+00 0.000000e+00 7.815013e-05 -1.474967e-05 0.000000e+00 -1.474967e-05 -1.199927e-04 0.000000e+00 0.000000e+00 0.000000e+00 0.000000e+00 1.328715e-04 -2.548900e-05 0.000000e+00 -2.548900e-05 -1.713343e-05 0.000000e+00 0.000000e+00 0.000000e+00 0.000000e+00 1.941388e-04 -3.559128e-05 0.000000e+00 -3.559128e-05 5.696754e-05 0.000000e+00 0.000000e+00 0.000000e+00 0.000000e+00 6.464436e-05 1.164993e-04 0.000000e+00 1.164993e-04 5.498272e-04 0.000000e+00 0.000000e+00 0.000000e+00 0.000000e+00 7.317387e-05 2.967963e-05 0.000000e+00 2.967963e-05 -2.328296e-05 0.000000e+00 0.000000e+00 0.000000e+00 0.000000e+00 2.577098e-04 -1.085152e-04 0.000000e+00 -1.085152e-04 2.521148e-04 0.000000e+00 0.000000e+00 0.000000e+00 0.000000e+00 -8.536264e-05 2.836728e-05 0.000000e+00 2.836728e-05 4.037158e-05 0.000000e+00 0.000000e+00 0.000000e+00 0.000000e+00 6.006823e-05 3.301633e-05 0.000000e+00 3.301633e-05 -1.551697e-05 0.000000e+00 0.000000e+00 0.000000e+00 0.000000e+00 4.013472e-05 -4.035534e-05 0.000000e+00 -4.035534e-05 -1.450635e-04 0.000000e+00 0.000000e+00 0.000000e+00 0.000000e+00 1.921585e-05 -7.678622e-05 0.000000e+00 -7.678622e-05 -7.205443e-05 0.000000e+00 0.000000e+00 0.000000e+00 0.000000e+00 6.915892e-05 -1.085107e-05 0.000000e+00 -1.085107e-05 -1.848953e-04 0.000000e+00 0.000000e+00 0.000000e+00 0.000000e+00 -8.568037e-05 -2.141022e-05 0.000000e+00 -2.141022e-05 5.409978e-05 0.000000e+00 0.000000e+00 0.000000e+00 0.000000e+00 1.226175e-04 2.187834e-04 0.000000e+00 2.187834e-04 3.053871e-04 0.000000e+00 0.000000e+00 0.000000e+00 0.000000e+00 -1.016696e-05 -6.424118e-05 0.000000e+00 -6.424118e-05 -2.223510e-05 0.000000e+00 0.000000e+00 0.000000e+00 0.000000e+00 1.995043e-06 7.154740e-06 0.000000e+00 7.154740e-06 -4.020701e-06 0.000000e+00 0.000000e+00 0.000000e+00 0.000000e+00 8.278550e-05 -1.502981e-05 0.000000e+00 -1.502981e-05 -1.038044e-04 0.000000e+00 0.000000e+00 0.000000e+00 0.000000e+00 -8.928670e-07 6.931895e-06 0.000000e+00 6.931895e-06 -1.961626e-06 0.000000e+00 0.000000e+00 0.000000e+00 0.000000e+00 -2.837174e-07 1.848721e-06 0.000000e+00 1.848721e-06 -9.295876e-06 0.000000e+00 0.000000e+00 0.000000e+00 0.000000e+00 -5.223803e-06 4.580053e-05 0.000000e+00 4.580053e-05 -1.640932e-05 0.000000e+00 0.000000e+00 0.000000e+00 0.000000e+00 -2.691939e-05 5.623868e-05 0.000000e+00 5.623868e-05 1.518711e-06 0.000000e+00 0.000000e+00 0.000000e+00 0.000000e+00 -1.807218e-06 7.188517e-05 0.000000e+00 7.188517e-05 3.335879e-06 0.000000e+00 0.000000e+00 0.000000e+00 0.000000e+00 2.752324e-05 6.802484e-05 0.000000e+00 6.802484e-05 -7.034939e-06 0.000000e+00 0.000000e+00 0.000000e+00 0.000000e+00 3.753243e-05 5.948857e-05 0.000000e+00 5.948857e-05 -7.928804e-06 0.000000e+00 0.000000e+00 0.000000e+00 0.000000e+00 -7.212765e-07 1.742171e-05 0.000000e+00 1.742171e-05 9.114371e-06 0.000000e+00 0.000000e+00 0.000000e+00 0.000000e+00 7.767941e-05 -1.688109e-05 0.000000e+00 -1.688109e-05 -2.634323e-04 0.000000e+00 0.000000e+00 0.000000e+00 0.000000e+00 7.007102e-05 -1.269578e-05 0.000000e+00 -1.269578e-05 -1.640087e-04 0.000000e+00 0.000000e+00 0.000000e+00 0.000000e+00 8.485668e-05 -1.648761e-05 0.000000e+00 -1.648761e-05 -9.597131e-05 0.000000e+00 0.000000e+00 0.000000e+00 0.000000e+00 1.073050e-04 -2.137894e-05 0.000000e+00 -2.137894e-05 -5.358503e-05 0.000000e+00 0.000000e+00 0.000000e+00 0.000000e+00 1.386606e-04 -2.779984e-05 0.000000e+00 -2.779984e-05 -8.985975e-06 0.000000e+00 0.000000e+00 0.000000e+00 0.000000e+00 1.994974e-04 -4.302322e-05 0.000000e+00 -4.302322e-05 6.962131e-05 0.000000e+00 0.000000e+00 0.000000e+00 0.000000e+00 2.405780e-04 -1.231442e-04 0.000000e+00 -1.231442e-04 3.254401e-04 0.000000e+00 0.000000e+00 0.000000e+00 0.000000e+00 -9.170088e-05 6.107112e-06 0.000000e+00 6.107112e-06 5.015594e-05 0.000000e+00 0.000000e+00 0.000000e+00 0.000000e+00 4.668272e-05 -5.116223e-05 0.000000e+00 -5.116223e-05 -1.493566e-04 0.000000e+00 0.000000e+00 0.000000e+00 0.000000e+00 3.772996e-05 -6.959338e-05 0.000000e+00 -6.959338e-05 -1.150344e-04 0.000000e+00 0.000000e+00 0.000000e+00 0.000000e+00 5.695135e-05 -2.076321e-05 0.000000e+00 -2.076321e-05 -1.928136e-04 0.000000e+00 0.000000e+00 0.000000e+00 0.000000e+00 4.833988e-05 -6.538977e-05 0.000000e+00 -6.538977e-05 -1.339444e-04 0.000000e+00 0.000000e+00 0.000000e+00 0.000000e+00 5.798242e-05 -4.426641e-05 0.000000e+00 -4.426641e-05 -1.737597e-04 0.000000e+00 0.000000e+00 0.000000e+00 0.000000e+00 7.318119e-05 -1.374605e-05 0.000000e+00 -1.374605e-05 -2.169024e-04 0.000000e+00 0.000000e+00 0.000000e+00 0.000000e+00 8.752732e-05 -2.835264e-05 0.000000e+00 -2.835264e-05 -8.411668e-05 0.000000e+00 0.000000e+00 0.000000e+00 0.000000e+00 1.904650e-04 -7.375226e-05 0.000000e+00 -7.375226e-05 1.030742e-04 0.000000e+00 0.000000e+00 0.000000e+00 0.000000e+00 1.108675e-04 -3.575935e-05 0.000000e+00 -3.575935e-05 -4.094393e-05 0.000000e+00 0.000000e+00 0.000000e+00 0.000000e+00 -6.435817e-05 2.928190e-05 0.000000e+00 2.928190e-05 5.268731e-05 0.000000e+00 0.000000e+00 0.000000e+00 0.000000e+00 1.708051e-04 -5.783089e-05 0.000000e+00 -5.783089e-05 5.257130e-05 0.000000e+00 0.000000e+00 0.000000e+00 0.000000e+00 9.172263e-05 5.640156e-05 0.000000e+00 5.640156e-05 -1.814330e-05 0.000000e+00 0.000000e+00 0.000000e+00 0.000000e+00 7.531288e-05 -2.434648e-05 0.000000e+00 -2.434648e-05 -1.216445e-04 0.000000e+00 0.000000e+00 0.000000e+00 0.000000e+00 1.031830e-04 6.820244e-05 0.000000e+00 6.820244e-05 -1.227180e-05 0.000000e+00 0.000000e+00 0.000000e+00 0.000000e+00 5.021186e-05 4.108228e-05 0.000000e+00 4.108228e-05 -1.032224e-05 0.000000e+00 0.000000e+00 0.000000e+00 0.000000e+00 7.423065e-05 4.215926e-05 0.000000e+00 4.215926e-05 -2.187807e-05 0.000000e+00 0.000000e+00 0.000000e+00 0.000000e+00 3.620900e-05 9.161034e-05 0.000000e+00 9.161034e-05 4.706849e-04 0.000000e+00 0.000000e+00 0.000000e+00 0.000000e+00 6.732480e-05 3.742663e-05 0.000000e+00 3.742663e-05 -2.038734e-05 0.000000e+00 0.000000e+00 0.000000e+00 0.000000e+00 1.164036e-04 8.661345e-05 0.000000e+00 8.661345e-05 -4.605406e-07 0.000000e+00 0.000000e+00 0.000000e+00 0.000000e+00 7.158671e-05 -3.725346e-05 0.000000e+00 -3.725346e-05 4.593145e-04 0.000000e+00 0.000000e+00 0.000000e+00 0.000000e+00 8.298769e-05 4.802442e-05 0.000000e+00 4.802442e-05 -2.106094e-05 0.000000e+00 0.000000e+00 0.000000e+00 0.000000e+00 7.349703e-05 1.751289e-04 0.000000e+00 1.751289e-04 2.554878e-04 0.000000e+00 0.000000e+00 0.000000e+00 0.000000e+00 -7.084387e-05 -3.933036e-05 0.000000e+00 -3.933036e-05 6.587889e-05 0.000000e+00 0.000000e+00 0.000000e+00 0.000000e+00 -1.661886e-05 4.553146e-05 0.000000e+00 4.553146e-05 -4.964451e-06 0.000000e+00 0.000000e+00 0.000000e+00 0.000000e+00 -5.456137e-05 4.882568e-05 0.000000e+00 4.882568e-05 3.646895e-05 0.000000e+00 0.000000e+00 0.000000e+00 0.000000e+00 2.359241e-05 -8.850715e-05 0.000000e+00 -8.850715e-05 -7.274393e-05 0.000000e+00 0.000000e+00 0.000000e+00 0.000000e+00 6.887959e-05 -1.672221e-05 0.000000e+00 -1.672221e-05 -1.801040e-04 0.000000e+00 0.000000e+00 0.000000e+00 0.000000e+00 7.092297e-05 -1.952362e-05 0.000000e+00 -1.952362e-05 -1.488562e-04 0.000000e+00 0.000000e+00 0.000000e+00 0.000000e+00 -3.789764e-05 -8.682847e-05 0.000000e+00 -8.682847e-05 1.675383e-05 0.000000e+00 0.000000e+00 0.000000e+00 0.000000e+00 3.998994e-05 4.971187e-05 0.000000e+00 4.971187e-05 -6.708266e-06 0.000000e+00 0.000000e+00 0.000000e+00 0.000000e+00 1.160361e-04 1.163462e-04 0.000000e+00 1.163462e-04 3.894199e-05 0.000000e+00 0.000000e+00 0.000000e+00 0.000000e+00 -7.479321e-06 3.300401e-05 0.000000e+00 3.300401e-05 -1.021389e-05 0.000000e+00 0.000000e+00 0.000000e+00 0.000000e+00 -1.315261e-05 7.220281e-05 0.000000e+00 7.220281e-05 9.598748e-06 0.000000e+00 0.000000e+00 0.000000e+00 0.000000e+00 2.205193e-05 6.965712e-05 0.000000e+00 6.965712e-05 -1.991590e-06 0.000000e+00 0.000000e+00 0.000000e+00 0.000000e+00 3.565480e-06 -9.187173e-05 0.000000e+00 -9.187173e-05 -4.019659e-05 0.000000e+00 0.000000e+00 0.000000e+00 0.000000e+00 -1.456294e-05 -8.607017e-05 0.000000e+00 -8.607017e-05 -1.441641e-05 0.000000e+00 0.000000e+00 0.000000e+00 0.000000e+00 4.204311e-05 5.974152e-05 0.000000e+00 5.974152e-05 -1.097315e-05 0.000000e+00 0.000000e+00 0.000000e+00 0.000000e+00 3.804466e-05 6.517671e-05 0.000000e+00 6.517671e-05 -8.509602e-06 0.000000e+00 0.000000e+00 0.000000e+00 0.000000e+00 3.634556e-06 7.190420e-05 0.000000e+00 7.190420e-05 4.747622e-06 0.000000e+00 0.000000e+00 0.000000e+00 0.000000e+00 -2.521663e-05 7.047862e-05 0.000000e+00 7.047862e-05 1.016113e-05 0.000000e+00 0.000000e+00 0.000000e+00 0.000000e+00 -2.977955e-05 6.431252e-05 0.000000e+00 6.431252e-05 6.557992e-06 0.000000e+00 0.000000e+00 0.000000e+00 0.000000e+00 -1.115978e-06 2.040606e-05 0.000000e+00 2.040606e-05 -1.342243e-05 0.000000e+00 0.000000e+00 0.000000e+00 0.000000e+00 1.570500e-06 1.092220e-05 0.000000e+00 1.092220e-05 -1.350700e-05 0.000000e+00 0.000000e+00 0.000000e+00 0.000000e+00 5.788585e-05 -5.643870e-05 0.000000e+00 -5.643870e-05 -1.558948e-04 0.000000e+00 0.000000e+00 0.000000e+00 0.000000e+00 3.809947e-05 -8.427595e-05 0.000000e+00 -8.427595e-05 -9.624277e-05 0.000000e+00 0.000000e+00 0.000000e+00 0.000000e+00 -5.763724e-05 -7.159498e-05 0.000000e+00 -7.159498e-05 4.877932e-05 0.000000e+00 0.000000e+00 0.000000e+00 0.000000e+00 7.000958e-05 -1.442200e-05 0.000000e+00 -1.442200e-05 -2.011027e-04 0.000000e+00 0.000000e+00 0.000000e+00 0.000000e+00 1.360525e-04 -4.365055e-05 0.000000e+00 -4.365055e-05 -2.193963e-06 0.000000e+00 0.000000e+00 0.000000e+00 0.000000e+00 8.468449e-05 -2.630029e-05 0.000000e+00 -2.630029e-05 -9.265930e-05 0.000000e+00 0.000000e+00 0.000000e+00 0.000000e+00 7.406898e-05 -2.071765e-05 0.000000e+00 -2.071765e-05 -1.320279e-04 0.000000e+00 0.000000e+00 0.000000e+00 0.000000e+00 9.910949e-05 -2.916907e-05 0.000000e+00 -2.916907e-05 -6.360885e-05 0.000000e+00 0.000000e+00 0.000000e+00 0.000000e+00 1.599194e-04 -5.618642e-05 0.000000e+00 -5.618642e-05 4.136331e-05 0.000000e+00 0.000000e+00 0.000000e+00 0.000000e+00 1.845327e-04 -6.587931e-05 0.000000e+00 -6.587931e-05 8.194496e-05 0.000000e+00 0.000000e+00 0.000000e+00 0.000000e+00 1.341500e-04 -1.013962e-04 0.000000e+00 -1.013962e-04 3.831954e-04 0.000000e+00 0.000000e+00 0.000000e+00 0.000000e+00 1.991894e-04 -9.284187e-05 0.000000e+00 -9.284187e-05 1.561236e-04 0.000000e+00 0.000000e+00 0.000000e+00 0.000000e+00 1.209406e-04 -3.614608e-05 0.000000e+00 -3.614608e-05 -2.558030e-05 0.000000e+00 0.000000e+00 0.000000e+00 0.000000e+00 1.553212e-04 -5.117092e-05 0.000000e+00 -5.117092e-05 2.863881e-05 0.000000e+00 0.000000e+00 0.000000e+00 0.000000e+00 9.527649e-05 -2.771814e-05 0.000000e+00 -2.771814e-05 -6.975438e-05 0.000000e+00 0.000000e+00 0.000000e+00 0.000000e+00 2.127829e-04 -9.876557e-05 0.000000e+00 -9.876557e-05 1.881838e-04 0.000000e+00 0.000000e+00 0.000000e+00 0.000000e+00 6.969778e-05 -1.512614e-05 0.000000e+00 -1.512614e-05 -1.908561e-04 0.000000e+00 0.000000e+00 0.000000e+00 0.000000e+00 9.304490e-05 1.641103e-04 0.000000e+00 1.641103e-04 1.500055e-04 0.000000e+00 0.000000e+00 0.000000e+00 0.000000e+00 1.946676e-04 -8.441367e-05 0.000000e+00 -8.441367e-05 1.292157e-04 0.000000e+00 0.000000e+00 0.000000e+00 0.000000e+00 -4.775121e-05 5.883564e-05 0.000000e+00 5.883564e-05 2.427418e-05 0.000000e+00 0.000000e+00 0.000000e+00 0.000000e+00 6.864215e-05 -1.955859e-05 0.000000e+00 -1.955859e-05 -1.675590e-04 0.000000e+00 0.000000e+00 0.000000e+00 0.000000e+00 1.502123e-04 -4.692436e-05 0.000000e+00 -4.692436e-05 1.665991e-05 0.000000e+00 0.000000e+00 0.000000e+00 0.000000e+00 2.850153e-07 3.321395e-06 0.000000e+00 3.321395e-06 -8.694808e-06 0.000000e+00 0.000000e+00 0.000000e+00 0.000000e+00 1.837332e-04 -5.489670e-05 0.000000e+00 -5.489670e-05 6.326945e-05 0.000000e+00 0.000000e+00 0.000000e+00 0.000000e+00 4.662442e-05 5.189165e-05 0.000000e+00 5.189165e-05 -1.096627e-05 0.000000e+00 0.000000e+00 0.000000e+00 0.000000e+00 1.059255e-04 -3.422973e-05 0.000000e+00 -3.422973e-05 -4.853368e-05 0.000000e+00 0.000000e+00 0.000000e+00 0.000000e+00 1.427612e-04 -4.537040e-05 0.000000e+00 -4.537040e-05 7.020650e-06 0.000000e+00 0.000000e+00 0.000000e+00 0.000000e+00 -2.764622e-05 6.857341e-05 0.000000e+00 6.857341e-05 1.664976e-05 0.000000e+00 0.000000e+00 0.000000e+00 0.000000e+00 7.262857e-05 -1.797334e-05 0.000000e+00 -1.797334e-05 -1.407009e-04 0.000000e+00 0.000000e+00 0.000000e+00 0.000000e+00 7.659833e-05 -1.261722e-05 0.000000e+00 -1.261722e-05 -2.313356e-04 0.000000e+00 0.000000e+00 0.000000e+00 0.000000e+00 8.027626e-05 -2.258282e-05 0.000000e+00 -2.258282e-05 -1.066158e-04 0.000000e+00 0.000000e+00 0.000000e+00 0.000000e+00 7.040351e-05 -2.063928e-05 0.000000e+00 -2.063928e-05 -1.583118e-04 0.000000e+00 0.000000e+00 0.000000e+00 0.000000e+00 -7.165019e-05 -1.887021e-06 0.000000e+00 -1.887021e-06 6.545740e-05 0.000000e+00 0.000000e+00 0.000000e+00 0.000000e+00 1.277607e-04 -3.621343e-05 0.000000e+00 -3.621343e-05 -1.963929e-05 0.000000e+00 0.000000e+00 0.000000e+00 0.000000e+00 2.006961e-04 -1.129428e-04 0.000000e+00 -1.129428e-04 2.443869e-04 0.000000e+00 0.000000e+00 0.000000e+00 0.000000e+00 7.665463e-05 1.307938e-04 0.000000e+00 1.307938e-04 1.079732e-04 0.000000e+00 0.000000e+00 0.000000e+00 0.000000e+00 9.062309e-05 -1.509675e-05 0.000000e+00 -1.509675e-05 -2.747165e-04 0.000000e+00 0.000000e+00 0.000000e+00 0.000000e+00 7.748574e-05 -2.125776e-05 0.000000e+00 -2.125776e-05 -1.141307e-04 0.000000e+00 0.000000e+00 0.000000e+00 0.000000e+00 7.943293e-05 -1.375842e-05 0.000000e+00 -1.375842e-05 -2.459340e-04 0.000000e+00 0.000000e+00 0.000000e+00 0.000000e+00 6.516369e-05 -4.323466e-05 0.000000e+00 -4.323466e-05 -1.914687e-04 0.000000e+00 0.000000e+00 0.000000e+00 0.000000e+00 8.265458e-05 -1.513468e-05 0.000000e+00 -1.513468e-05 -2.570107e-04 0.000000e+00 0.000000e+00 0.000000e+00 0.000000e+00 1.166474e-04 -3.633428e-05 0.000000e+00 -3.633428e-05 -3.342808e-05 0.000000e+00 0.000000e+00 0.000000e+00 0.000000e+00 9.202902e-05 -2.905203e-05 0.000000e+00 -2.905203e-05 -7.621749e-05 0.000000e+00 0.000000e+00 0.000000e+00 0.000000e+00 -4.103125e-05 6.244075e-05 0.000000e+00 6.244075e-05 1.547036e-05 0.000000e+00 0.000000e+00 0.000000e+00 0.000000e+00 7.370688e-05 -3.461001e-05 0.000000e+00 -3.461001e-05 -2.097907e-04 0.000000e+00 0.000000e+00 0.000000e+00 0.000000e+00 4.988230e-05 -7.372342e-05 0.000000e+00 -7.372342e-05 -1.188351e-04 0.000000e+00 0.000000e+00 0.000000e+00 0.000000e+00 6.333910e-05 -2.351967e-05 0.000000e+00 -2.351967e-05 -2.267587e-04 0.000000e+00 0.000000e+00 0.000000e+00 0.000000e+00 6.460363e-05 -3.167370e-05 0.000000e+00 -3.167370e-05 -2.021630e-04 0.000000e+00 0.000000e+00 0.000000e+00 0.000000e+00 7.018314e-05 -1.651629e-05 0.000000e+00 -1.651629e-05 -2.267998e-04 0.000000e+00 0.000000e+00 0.000000e+00 0.000000e+00 7.049266e-05 -2.288452e-05 0.000000e+00 -2.288452e-05 -2.124885e-04 0.000000e+00 0.000000e+00 0.000000e+00 0.000000e+00 7.611407e-05 -8.432445e-06 0.000000e+00 -8.432445e-06 -2.441576e-04 0.000000e+00 0.000000e+00 0.000000e+00 0.000000e+00 6.603389e-05 -3.428705e-05 0.000000e+00 -3.428705e-05 -1.862492e-04 0.000000e+00 0.000000e+00 0.000000e+00 0.000000e+00 7.406366e-05 -1.588589e-05 0.000000e+00 -1.588589e-05 -2.235563e-04 0.000000e+00 0.000000e+00 0.000000e+00 0.000000e+00 7.490151e-05 4.026994e-06 0.000000e+00 4.026994e-06 -2.668277e-04 0.000000e+00 0.000000e+00 0.000000e+00 0.000000e+00 9.417220e-05 -7.954628e-06 0.000000e+00 -7.954628e-06 -2.780855e-04 0.000000e+00 0.000000e+00 0.000000e+00 0.000000e+00 6.344044e-05 -4.641046e-05 0.000000e+00 -4.641046e-05 -1.729244e-04 0.000000e+00 0.000000e+00 0.000000e+00 0.000000e+00 8.486324e-05 -1.213528e-05 0.000000e+00 -1.213528e-05 -2.518933e-04 0.000000e+00 0.000000e+00 0.000000e+00 0.000000e+00 8.339647e-05 -2.310066e-05 0.000000e+00 -2.310066e-05 -9.994505e-05 0.000000e+00 0.000000e+00 0.000000e+00 0.000000e+00 1.024224e-04 -3.171900e-05 0.000000e+00 -3.171900e-05 -5.608972e-05 0.000000e+00 0.000000e+00 0.000000e+00 0.000000e+00 -3.646885e-05 5.330509e-05 0.000000e+00 5.330509e-05 4.914337e-05 0.000000e+00 0.000000e+00 0.000000e+00 0.000000e+00 7.747017e-05 -3.020533e-05 0.000000e+00 -3.020533e-05 -1.110045e-04 0.000000e+00 0.000000e+00 0.000000e+00 0.000000e+00 1.299038e-04 -4.060715e-05 0.000000e+00 -4.060715e-05 -1.132382e-05 0.000000e+00 0.000000e+00 0.000000e+00 0.000000e+00 1.756867e-04 -1.157830e-04 0.000000e+00 -1.157830e-04 3.057402e-04 0.000000e+00 0.000000e+00 0.000000e+00 0.000000e+00 5.725938e-05 4.503642e-05 0.000000e+00 4.503642e-05 -1.518275e-05 0.000000e+00 0.000000e+00 0.000000e+00 0.000000e+00 2.405069e-05 -1.005859e-04 0.000000e+00 -1.005859e-04 -5.598288e-05 0.000000e+00 0.000000e+00 0.000000e+00 0.000000e+00 7.353135e-05 6.520861e-05 0.000000e+00 6.520861e-05 -9.691292e-06 0.000000e+00 0.000000e+00 0.000000e+00 0.000000e+00 2.046889e-05 4.111540e-05 0.000000e+00 4.111540e-05 4.060837e-04 0.000000e+00 0.000000e+00 0.000000e+00 0.000000e+00 -2.726854e-05 6.516388e-05 0.000000e+00 6.516388e-05 2.750675e-05 0.000000e+00 0.000000e+00 0.000000e+00 0.000000e+00 5.344033e-06 -1.034572e-04 0.000000e+00 -1.034572e-04 -2.928449e-05 0.000000e+00 0.000000e+00 0.000000e+00 0.000000e+00 1.539424e-04 -1.070928e-04 0.000000e+00 -1.070928e-04 1.946791e-04 0.000000e+00 0.000000e+00 0.000000e+00 0.000000e+00 3.596249e-05 1.316170e-04 0.000000e+00 1.316170e-04 3.669983e-04 0.000000e+00 0.000000e+00 0.000000e+00 0.000000e+00 5.113912e-05 5.606878e-05 0.000000e+00 5.606878e-05 -1.363959e-05 0.000000e+00 0.000000e+00 0.000000e+00 0.000000e+00 7.052645e-05 -1.828975e-05 0.000000e+00 -1.828975e-05 -2.050758e-04 0.000000e+00 0.000000e+00 0.000000e+00 0.000000e+00 8.195943e-05 -2.053494e-05 0.000000e+00 -2.053494e-05 -2.364713e-04 0.000000e+00 0.000000e+00 0.000000e+00 0.000000e+00 8.542406e-05 1.034357e-04 0.000000e+00 1.034357e-04 3.959769e-05 0.000000e+00 0.000000e+00 0.000000e+00 0.000000e+00 2.756524e-05 1.145173e-04 0.000000e+00 1.145173e-04 2.487779e-04 0.000000e+00 0.000000e+00 0.000000e+00 0.000000e+00 6.977679e-05 -2.537674e-05 0.000000e+00 -2.537674e-05 -1.977977e-04 0.000000e+00 0.000000e+00 0.000000e+00 0.000000e+00 -1.605386e-05 -9.985981e-05 0.000000e+00 -9.985981e-05 -3.090470e-06 0.000000e+00 0.000000e+00 0.000000e+00 0.000000e+00 3.110721e-05 7.004060e-05 0.000000e+00 7.004060e-05 -1.333245e-06 0.000000e+00 0.000000e+00 0.000000e+00 0.000000e+00 6.712017e-05 -3.272244e-05 0.000000e+00 -3.272244e-05 -1.739473e-04 0.000000e+00 0.000000e+00 0.000000e+00 0.000000e+00 7.522554e-05 7.532526e-05 0.000000e+00 7.532526e-05 1.626751e-06 0.000000e+00 0.000000e+00 0.000000e+00 0.000000e+00 9.715703e-05 -3.961725e-05 0.000000e+00 -3.961725e-05 -5.954999e-05 0.000000e+00 0.000000e+00 0.000000e+00 0.000000e+00 3.104389e-05 1.155181e-04 0.000000e+00 1.155181e-04 1.840297e-04 0.000000e+00 0.000000e+00 0.000000e+00 0.000000e+00 8.104625e-05 -3.254386e-05 0.000000e+00 -3.254386e-05 -9.971864e-05 0.000000e+00 0.000000e+00 0.000000e+00 0.000000e+00 -5.132537e-05 2.693507e-05 0.000000e+00 2.693507e-05 7.260463e-05 0.000000e+00 0.000000e+00 0.000000e+00 0.000000e+00 1.592520e-04 -8.688455e-05 0.000000e+00 -8.688455e-05 1.032905e-04 0.000000e+00 0.000000e+00 0.000000e+00 0.000000e+00 1.739152e-05 9.155281e-05 0.000000e+00 9.155281e-05 3.243810e-04 0.000000e+00 0.000000e+00 0.000000e+00 0.000000e+00 1.462592e-04 -6.938550e-05 0.000000e+00 -6.938550e-05 4.105182e-05 0.000000e+00 0.000000e+00 0.000000e+00 0.000000e+00 1.294213e-04 -5.988189e-05 0.000000e+00 -5.988189e-05 8.026137e-06 0.000000e+00 0.000000e+00 0.000000e+00 0.000000e+00 5.119520e-05 -4.655223e-05 0.000000e+00 -4.655223e-05 3.858454e-04 0.000000e+00 0.000000e+00 0.000000e+00 0.000000e+00 8.721433e-05 -4.064800e-05 0.000000e+00 -4.064800e-05 -7.770826e-05 0.000000e+00 0.000000e+00 0.000000e+00 0.000000e+00 8.034189e-05 8.782486e-05 0.000000e+00 8.782486e-05 1.745060e-05 0.000000e+00 0.000000e+00 0.000000e+00 0.000000e+00 5.020889e-05 6.310705e-05 0.000000e+00 6.310705e-05 -1.007176e-05 0.000000e+00 0.000000e+00 0.000000e+00 0.000000e+00 9.237112e-05 -3.970757e-05 0.000000e+00 -3.970757e-05 -6.793916e-05 0.000000e+00 0.000000e+00 0.000000e+00 0.000000e+00 5.486287e-05 1.075741e-04 0.000000e+00 1.075741e-04 8.962692e-05 0.000000e+00 0.000000e+00 0.000000e+00 0.000000e+00 6.249365e-05 5.087364e-05 0.000000e+00 5.087364e-05 -1.724314e-05 0.000000e+00 0.000000e+00 0.000000e+00 0.000000e+00 1.631203e-04 -1.102705e-04 0.000000e+00 -1.102705e-04 2.283320e-04 0.000000e+00 0.000000e+00 0.000000e+00 0.000000e+00 6.854156e-05 5.607139e-05 0.000000e+00 5.607139e-05 -1.603586e-05 0.000000e+00 0.000000e+00 0.000000e+00 0.000000e+00 6.857554e-05 -2.134326e-05 0.000000e+00 -2.134326e-05 -1.885696e-04 0.000000e+00 0.000000e+00 0.000000e+00 0.000000e+00 1.561525e-04 -1.023125e-04 0.000000e+00 -1.023125e-04 1.575484e-04 0.000000e+00 0.000000e+00 0.000000e+00 0.000000e+00 1.152631e-04 -4.896684e-05 0.000000e+00 -4.896684e-05 -2.598022e-05 0.000000e+00 0.000000e+00 0.000000e+00 0.000000e+00 1.450667e-04 -6.156960e-05 0.000000e+00 -6.156960e-05 2.703205e-05 0.000000e+00 0.000000e+00 0.000000e+00 0.000000e+00 8.286667e-05 -3.849235e-05 0.000000e+00 -3.849235e-05 -8.739020e-05 0.000000e+00 0.000000e+00 0.000000e+00 0.000000e+00 6.827508e-05 -2.746789e-05 0.000000e+00 -2.746789e-05 -1.490381e-04 0.000000e+00 0.000000e+00 0.000000e+00 0.000000e+00 1.029213e-04 -4.812697e-05 0.000000e+00 -4.812697e-05 -4.212974e-05 0.000000e+00 0.000000e+00 0.000000e+00 0.000000e+00 1.022573e-04 -6.401732e-06 0.000000e+00 -6.401732e-06 -3.022009e-04 0.000000e+00 0.000000e+00 0.000000e+00 0.000000e+00 6.392327e-05 -4.573083e-05 0.000000e+00 -4.573083e-05 -1.596970e-04 0.000000e+00 0.000000e+00 0.000000e+00 0.000000e+00 7.396387e-05 -3.568272e-05 0.000000e+00 -3.568272e-05 -1.180651e-04 0.000000e+00 0.000000e+00 0.000000e+00 0.000000e+00 7.133687e-05 -2.446455e-05 0.000000e+00 -2.446455e-05 -1.399436e-04 0.000000e+00 0.000000e+00 0.000000e+00 0.000000e+00 -6.087096e-05 -1.331273e-05 0.000000e+00 -1.331273e-05 8.557562e-05 0.000000e+00 0.000000e+00 0.000000e+00 0.000000e+00 1.086480e-04 -4.970723e-05 0.000000e+00 -4.970723e-05 -3.293708e-05 0.000000e+00 0.000000e+00 0.000000e+00 0.000000e+00 1.051862e-05 7.241604e-05 0.000000e+00 7.241604e-05 7.121419e-06 0.000000e+00 0.000000e+00 0.000000e+00 0.000000e+00 1.683977e-04 -9.356408e-05 0.000000e+00 -9.356408e-05 1.244237e-04 0.000000e+00 0.000000e+00 0.000000e+00 0.000000e+00 6.944079e-05 -2.466767e-05 0.000000e+00 -2.466767e-05 -1.750128e-04 0.000000e+00 0.000000e+00 0.000000e+00 0.000000e+00 1.191785e-04 -5.143902e-05 0.000000e+00 -5.143902e-05 -1.579503e-05 0.000000e+00 0.000000e+00 0.000000e+00 0.000000e+00 -5.767709e-05 -5.400566e-05 0.000000e+00 -5.400566e-05 8.051810e-05 0.000000e+00 0.000000e+00 0.000000e+00 0.000000e+00 5.920763e-05 -6.024091e-05 0.000000e+00 -6.024091e-05 -1.409980e-04 0.000000e+00 0.000000e+00 0.000000e+00 0.000000e+00 9.916460e-05 -4.453269e-05 0.000000e+00 -4.453269e-05 -5.135950e-05 0.000000e+00 0.000000e+00 0.000000e+00 0.000000e+00 -5.253241e-05 -2.813914e-05 0.000000e+00 -2.813914e-05 1.077248e-04 0.000000e+00 0.000000e+00 0.000000e+00 0.000000e+00 7.284059e-05 -3.018466e-05 0.000000e+00 -3.018466e-05 -1.289171e-04 0.000000e+00 0.000000e+00 0.000000e+00 0.000000e+00 -3.578224e-05 -9.574455e-05 0.000000e+00 -9.574455e-05 3.280670e-05 0.000000e+00 0.000000e+00 0.000000e+00 0.000000e+00 1.241367e-04 -5.712329e-05 0.000000e+00 -5.712329e-05 -3.480084e-06 0.000000e+00 0.000000e+00 0.000000e+00 0.000000e+00 1.645599e-04 -7.558688e-05 0.000000e+00 -7.558688e-05 7.502400e-05 0.000000e+00 0.000000e+00 0.000000e+00 0.000000e+00 4.074511e-05 -9.085040e-05 0.000000e+00 -9.085040e-05 -8.212038e-05 0.000000e+00 0.000000e+00 0.000000e+00 0.000000e+00 7.514467e-05 -4.086378e-05 0.000000e+00 -4.086378e-05 -1.053908e-04 0.000000e+00 0.000000e+00 0.000000e+00 0.000000e+00 8.788119e-06 -1.099407e-04 0.000000e+00 -1.099407e-04 -1.556017e-05 0.000000e+00 0.000000e+00 0.000000e+00 0.000000e+00 6.739575e-05 -2.993856e-05 0.000000e+00 -2.993856e-05 -1.599893e-04 0.000000e+00 0.000000e+00 0.000000e+00 0.000000e+00 4.812424e-05 7.684598e-05 0.000000e+00 7.684598e-05 1.186024e-05 0.000000e+00 0.000000e+00 0.000000e+00 0.000000e+00 4.599581e-05 9.397909e-05 0.000000e+00 9.397909e-05 6.168333e-05 0.000000e+00 0.000000e+00 0.000000e+00 0.000000e+00 1.366619e-04 -6.105684e-05 0.000000e+00 -6.105684e-05 1.843873e-05 0.000000e+00 0.000000e+00 0.000000e+00 0.000000e+00 -4.479295e-05 -8.363946e-05 0.000000e+00 -8.363946e-05 6.434709e-05 0.000000e+00 0.000000e+00 0.000000e+00 0.000000e+00 4.544887e-05 8.486334e-05 0.000000e+00 8.486334e-05 3.372597e-05 0.000000e+00 0.000000e+00 0.000000e+00 0.000000e+00 6.540900e-05 -4.267169e-05 0.000000e+00 -4.267169e-05 -1.497531e-04 0.000000e+00 0.000000e+00 0.000000e+00 0.000000e+00 -1.075180e-05 7.126813e-05 0.000000e+00 7.126813e-05 1.388726e-05 0.000000e+00 0.000000e+00 0.000000e+00 0.000000e+00 1.153037e-04 -7.334759e-05 0.000000e+00 -7.334759e-05 9.769078e-06 0.000000e+00 0.000000e+00 0.000000e+00 0.000000e+00 6.065397e-05 -5.758101e-05 0.000000e+00 -5.758101e-05 -1.305786e-04 0.000000e+00 0.000000e+00 0.000000e+00 0.000000e+00 5.383561e-05 -7.655757e-05 0.000000e+00 -7.655757e-05 -1.042596e-04 0.000000e+00 0.000000e+00 0.000000e+00 0.000000e+00 1.521846e-05 7.359917e-05 0.000000e+00 7.359917e-05 1.311407e-05 0.000000e+00 0.000000e+00 0.000000e+00 0.000000e+00 1.479531e-04 -7.719881e-05 0.000000e+00 -7.719881e-05 6.151166e-05 0.000000e+00 0.000000e+00 0.000000e+00 0.000000e+00 -2.145488e-05 5.721126e-05 0.000000e+00 5.721126e-05 6.893103e-05 0.000000e+00 0.000000e+00 0.000000e+00 0.000000e+00 -6.548347e-06 6.953120e-05 0.000000e+00 6.953120e-05 3.450086e-05 0.000000e+00 0.000000e+00 0.000000e+00 0.000000e+00 -1.954429e-06 7.275210e-05 0.000000e+00 7.275210e-05 1.722876e-05 0.000000e+00 0.000000e+00 0.000000e+00 0.000000e+00 1.386155e-04 -9.369802e-05 0.000000e+00 -9.369802e-05 9.456340e-05 0.000000e+00 0.000000e+00 0.000000e+00 0.000000e+00 -4.429802e-05 1.987521e-05 0.000000e+00 1.987521e-05 9.969033e-05 0.000000e+00 0.000000e+00 0.000000e+00 0.000000e+00 -4.466980e-05 -6.839420e-05 0.000000e+00 -6.839420e-05 9.526399e-05 0.000000e+00 0.000000e+00 0.000000e+00 0.000000e+00 1.222743e-04 -7.564576e-05 0.000000e+00 -7.564576e-05 2.245416e-05 0.000000e+00 0.000000e+00 0.000000e+00 0.000000e+00 7.041379e-05 -4.015335e-05 0.000000e+00 -4.015335e-05 -1.279892e-04 0.000000e+00 0.000000e+00 0.000000e+00 0.000000e+00 1.156366e-05 8.674915e-05 0.000000e+00 8.674915e-05 1.527958e-04 0.000000e+00 0.000000e+00 0.000000e+00 0.000000e+00 1.522978e-05 1.349607e-06 0.000000e+00 1.349607e-06 3.409256e-04 0.000000e+00 0.000000e+00 0.000000e+00 0.000000e+00 1.276964e-04 -8.644904e-05 0.000000e+00 -8.644904e-05 5.577211e-05 0.000000e+00 0.000000e+00 0.000000e+00 0.000000e+00 1.007106e-04 -9.215576e-05 0.000000e+00 -9.215576e-05 3.384512e-04 0.000000e+00 0.000000e+00 0.000000e+00 0.000000e+00 9.394210e-05 -5.842230e-05 0.000000e+00 -5.842230e-05 -4.509369e-05 0.000000e+00 0.000000e+00 0.000000e+00 0.000000e+00 1.265332e-04 -1.077381e-04 0.000000e+00 -1.077381e-04 2.841253e-04 0.000000e+00 0.000000e+00 0.000000e+00 0.000000e+00 4.039826e-05 7.245413e-05 0.000000e+00 7.245413e-05 2.637162e-06 0.000000e+00 0.000000e+00 0.000000e+00 0.000000e+00 4.568997e-05 -9.249115e-05 0.000000e+00 -9.249115e-05 -7.015278e-05 0.000000e+00 0.000000e+00 0.000000e+00 0.000000e+00 9.098155e-07 4.356964e-05 0.000000e+00 4.356964e-05 2.890692e-04 0.000000e+00 0.000000e+00 0.000000e+00 0.000000e+00 -1.227036e-05 -1.071593e-04 0.000000e+00 -1.071593e-04 9.224441e-06 0.000000e+00 0.000000e+00 0.000000e+00 0.000000e+00 2.963222e-05 -1.051054e-04 0.000000e+00 -1.051054e-04 -3.929517e-05 0.000000e+00 0.000000e+00 0.000000e+00 0.000000e+00 1.091653e-04 -1.077396e-04 0.000000e+00 -1.077396e-04 1.932747e-04 0.000000e+00 0.000000e+00 0.000000e+00 0.000000e+00 1.048492e-04 -6.517280e-05 0.000000e+00 -6.517280e-05 -1.944053e-05 0.000000e+00 0.000000e+00 0.000000e+00 0.000000e+00 5.795407e-05 6.683093e-05 0.000000e+00 6.683093e-05 -7.191066e-06 0.000000e+00 0.000000e+00 0.000000e+00 0.000000e+00 7.941846e-05 -5.404037e-05 0.000000e+00 -5.404037e-05 -8.156788e-05 0.000000e+00 0.000000e+00 0.000000e+00 0.000000e+00 1.119189e-04 -6.870683e-05 0.000000e+00 -6.870683e-05 -5.623764e-06 0.000000e+00 0.000000e+00 0.000000e+00 0.000000e+00 1.266005e-04 -1.029480e-04 0.000000e+00 -1.029480e-04 1.368808e-04 0.000000e+00 0.000000e+00 0.000000e+00 0.000000e+00 9.822003e-05 -6.343271e-05 0.000000e+00 -6.343271e-05 -3.222915e-05 0.000000e+00 0.000000e+00 0.000000e+00 0.000000e+00 6.954317e-05 -3.144981e-05 0.000000e+00 -3.144981e-05 -1.381331e-04 0.000000e+00 0.000000e+00 0.000000e+00 0.000000e+00 -2.679916e-05 -1.024201e-04 0.000000e+00 -1.024201e-04 4.269498e-05 0.000000e+00 0.000000e+00 0.000000e+00 0.000000e+00 7.045041e-05 -4.668728e-05 0.000000e+00 -4.668728e-05 -1.136339e-04 0.000000e+00 0.000000e+00 0.000000e+00 0.000000e+00 6.682415e-05 -3.758098e-05 0.000000e+00 -3.758098e-05 -1.422346e-04 0.000000e+00 0.000000e+00 0.000000e+00 0.000000e+00 8.484950e-05 -5.371021e-05 0.000000e+00 -5.371021e-05 -6.752647e-05 0.000000e+00 0.000000e+00 0.000000e+00 0.000000e+00 -2.670056e-06 6.340155e-05 0.000000e+00 6.340155e-05 2.239655e-04 0.000000e+00 0.000000e+00 0.000000e+00 0.000000e+00 1.037339e-04 -1.022573e-04 0.000000e+00 -1.022573e-04 2.430675e-04 0.000000e+00 0.000000e+00 0.000000e+00 0.000000e+00 9.207221e-05 -5.113814e-05 0.000000e+00 -5.113814e-05 -5.787804e-05 0.000000e+00 0.000000e+00 0.000000e+00 0.000000e+00 -2.521032e-05 -9.790698e-05 0.000000e+00 -9.790698e-05 6.658846e-05 0.000000e+00 0.000000e+00 0.000000e+00 0.000000e+00 6.208369e-05 -6.665349e-05 0.000000e+00 -6.665349e-05 -1.049694e-04 0.000000e+00 0.000000e+00 0.000000e+00 0.000000e+00 8.673130e-05 -7.282052e-05 0.000000e+00 -7.282052e-05 -3.569324e-05 0.000000e+00 0.000000e+00 0.000000e+00 0.000000e+00 1.448564e-05 -1.139720e-04 0.000000e+00 -1.139720e-04 1.360750e-06 0.000000e+00 0.000000e+00 0.000000e+00 0.000000e+00 5.596752e-05 -8.114475e-05 0.000000e+00 -8.114475e-05 -7.783868e-05 0.000000e+00 0.000000e+00 0.000000e+00 0.000000e+00 1.227642e-04 -9.303823e-05 0.000000e+00 -9.303823e-05 8.011236e-05 0.000000e+00 0.000000e+00 0.000000e+00 0.000000e+00 8.007822e-05 -4.287345e-05 0.000000e+00 -4.287345e-05 -9.475830e-05 0.000000e+00 0.000000e+00 0.000000e+00 0.000000e+00 -7.607028e-06 -1.104502e-04 0.000000e+00 -1.104502e-04 2.472311e-05 0.000000e+00 0.000000e+00 0.000000e+00 0.000000e+00 1.326334e-04 -7.545321e-05 0.000000e+00 -7.545321e-05 3.404281e-05 0.000000e+00 0.000000e+00 0.000000e+00 0.000000e+00 9.662236e-06 8.063317e-05 0.000000e+00 8.063317e-05 1.090247e-04 0.000000e+00 0.000000e+00 0.000000e+00 0.000000e+00 6.505554e-05 -5.053759e-05 0.000000e+00 -5.053759e-05 -1.256430e-04 0.000000e+00 0.000000e+00 0.000000e+00 0.000000e+00 1.508633e-05 -3.542862e-05 0.000000e+00 -3.542862e-05 2.876173e-04 0.000000e+00 0.000000e+00 0.000000e+00 0.000000e+00 9.918412e-05 -1.039059e-04 0.000000e+00 -1.039059e-04 1.158703e-04 0.000000e+00 0.000000e+00 0.000000e+00 0.000000e+00 1.029266e-04 -9.983239e-05 0.000000e+00 -9.983239e-05 7.433281e-05 0.000000e+00 0.000000e+00 0.000000e+00 0.000000e+00 -4.207186e-05 -4.583174e-05 0.000000e+00 -4.583174e-05 1.290708e-04 0.000000e+00 0.000000e+00 0.000000e+00 0.000000e+00 1.477345e-05 7.714849e-05 0.000000e+00 7.714849e-05 4.221360e-05 0.000000e+00 0.000000e+00 0.000000e+00 0.000000e+00 5.512021e-05 -7.074419e-05 0.000000e+00 -7.074419e-05 3.063737e-04 0.000000e+00 0.000000e+00 0.000000e+00 0.000000e+00 8.246359e-05 -1.045060e-04 0.000000e+00 -1.045060e-04 1.694087e-04 0.000000e+00 0.000000e+00 0.000000e+00 0.000000e+00 4.725616e-05 -9.770868e-05 0.000000e+00 -9.770868e-05 -4.643580e-05 0.000000e+00 0.000000e+00 0.000000e+00 0.000000e+00 7.556408e-05 -6.912536e-05 0.000000e+00 -6.912536e-05 -6.464375e-05 0.000000e+00 0.000000e+00 0.000000e+00 0.000000e+00 1.030427e-04 -8.807419e-05 0.000000e+00 -8.807419e-05 2.719905e-05 0.000000e+00 0.000000e+00 0.000000e+00 0.000000e+00 -9.018397e-06 5.374416e-08 0.000000e+00 5.374416e-08 2.597586e-04 0.000000e+00 0.000000e+00 0.000000e+00 0.000000e+00 6.119726e-05 -1.033332e-04 0.000000e+00 -1.033332e-04 1.473116e-04 0.000000e+00 0.000000e+00 0.000000e+00 0.000000e+00 8.977966e-05 -7.843756e-05 0.000000e+00 -7.843756e-05 -1.871055e-05 0.000000e+00 0.000000e+00 0.000000e+00 0.000000e+00 8.450374e-05 -6.471762e-05 0.000000e+00 -6.471762e-05 -5.284121e-05 0.000000e+00 0.000000e+00 0.000000e+00 0.000000e+00 -2.692532e-05 -8.302331e-05 0.000000e+00 -8.302331e-05 1.033977e-04 0.000000e+00 0.000000e+00 0.000000e+00 0.000000e+00 2.443768e-05 7.717363e-05 0.000000e+00 7.717363e-05 1.891739e-05 0.000000e+00 0.000000e+00 0.000000e+00 0.000000e+00 1.127687e-04 -8.984067e-05 0.000000e+00 -8.984067e-05 4.408331e-05 0.000000e+00 0.000000e+00 0.000000e+00 0.000000e+00 6.760945e-05 -6.797281e-05 0.000000e+00 -6.797281e-05 -8.186338e-05 0.000000e+00 0.000000e+00 0.000000e+00 0.000000e+00 -2.199633e-05 4.991668e-05 0.000000e+00 4.991668e-05 1.076865e-04 0.000000e+00 0.000000e+00 0.000000e+00 0.000000e+00 9.982803e-06 7.723754e-05 0.000000e+00 7.723754e-05 7.116379e-05 0.000000e+00 0.000000e+00 0.000000e+00 0.000000e+00 1.029955e-04 -8.421549e-05 0.000000e+00 -8.421549e-05 9.659221e-06 0.000000e+00 0.000000e+00 0.000000e+00 0.000000e+00 -4.143561e-05 4.037172e-06 0.000000e+00 4.037172e-06 1.316435e-04 0.000000e+00 0.000000e+00 0.000000e+00 0.000000e+00 6.213517e-05 -8.494037e-05 0.000000e+00 -8.494037e-05 -5.411493e-05 0.000000e+00 0.000000e+00 0.000000e+00 0.000000e+00 1.125975e-05 -5.780902e-05 0.000000e+00 -5.780902e-05 2.415125e-04 0.000000e+00 0.000000e+00 0.000000e+00 0.000000e+00 7.426582e-05 -1.063189e-04 0.000000e+00 -1.063189e-04 9.890950e-05 0.000000e+00 0.000000e+00 0.000000e+00 0.000000e+00 9.498039e-05 -8.153035e-05 0.000000e+00 -8.153035e-05 -3.491027e-06 0.000000e+00 0.000000e+00 0.000000e+00 0.000000e+00 7.703020e-05 -8.785861e-05 0.000000e+00 -8.785861e-05 -2.175429e-05 0.000000e+00 0.000000e+00 0.000000e+00 0.000000e+00 -7.767524e-06 -1.049657e-04 0.000000e+00 -1.049657e-04 7.256707e-05 0.000000e+00 0.000000e+00 0.000000e+00 0.000000e+00 8.544863e-05 -1.005955e-04 0.000000e+00 -1.005955e-04 5.498749e-05 0.000000e+00 0.000000e+00 0.000000e+00 0.000000e+00 7.318655e-05 -5.396650e-05 0.000000e+00 -5.396650e-05 -9.549511e-05 0.000000e+00 0.000000e+00 0.000000e+00 0.000000e+00 -7.282919e-07 -1.123146e-04 0.000000e+00 -1.123146e-04 4.224874e-05 0.000000e+00 0.000000e+00 0.000000e+00 0.000000e+00 7.556049e-05 -7.847902e-05 0.000000e+00 -7.847902e-05 -4.492285e-05 0.000000e+00 0.000000e+00 0.000000e+00 0.000000e+00 5.410520e-05 -8.686919e-05 0.000000e+00 -8.686919e-05 2.395330e-04 0.000000e+00 0.000000e+00 0.000000e+00 0.000000e+00 3.756153e-05 -9.091198e-05 0.000000e+00 -9.091198e-05 1.992866e-04 0.000000e+00 0.000000e+00 0.000000e+00 0.000000e+00 -2.176851e-05 -7.008675e-05 0.000000e+00 -7.008675e-05 1.369556e-04 0.000000e+00 0.000000e+00 0.000000e+00 0.000000e+00 -1.989880e-05 1.246343e-05 0.000000e+00 1.246343e-05 2.206365e-04 0.000000e+00 0.000000e+00 0.000000e+00 0.000000e+00 3.411444e-05 -1.096634e-04 0.000000e+00 -1.096634e-04 -1.295934e-05 0.000000e+00 0.000000e+00 0.000000e+00 0.000000e+00 5.194375e-05 -1.012657e-04 0.000000e+00 -1.012657e-04 -2.259764e-05 0.000000e+00 0.000000e+00 0.000000e+00 0.000000e+00 -2.218740e-05 4.228966e-05 0.000000e+00 4.228966e-05 1.463223e-04 0.000000e+00 0.000000e+00 0.000000e+00 0.000000e+00 6.861370e-05 -5.766703e-05 0.000000e+00 -5.766703e-05 -1.050313e-04 0.000000e+00 0.000000e+00 0.000000e+00 0.000000e+00 -3.418913e-05 -1.795387e-05 0.000000e+00 -1.795387e-05 1.620003e-04 0.000000e+00 0.000000e+00 0.000000e+00 0.000000e+00 7.781287e-05 -9.408075e-05 0.000000e+00 -9.408075e-05 -1.195854e-07 0.000000e+00 0.000000e+00 0.000000e+00 0.000000e+00 2.858163e-06 -1.016417e-04 0.000000e+00 -1.016417e-04 9.379592e-05 0.000000e+00 0.000000e+00 0.000000e+00 0.000000e+00 8.322459e-05 -9.733459e-05 0.000000e+00 -9.733459e-05 2.284020e-05 0.000000e+00 0.000000e+00 0.000000e+00 0.000000e+00 2.026993e-05 -1.143768e-04 0.000000e+00 -1.143768e-04 1.914087e-05 0.000000e+00 0.000000e+00 0.000000e+00 0.000000e+00 -1.555174e-05 -3.503090e-05 0.000000e+00 -3.503090e-05 2.213200e-04 0.000000e+00 0.000000e+00 0.000000e+00 0.000000e+00 3.920891e-05 -1.108817e-04 0.000000e+00 -1.108817e-04 1.578037e-05 0.000000e+00 0.000000e+00 0.000000e+00 0.000000e+00 6.324036e-05 -1.080347e-04 0.000000e+00 -1.080347e-04 7.536140e-05 0.000000e+00 0.000000e+00 0.000000e+00 0.000000e+00 -1.493400e-05 -6.124576e-05 0.000000e+00 -6.124576e-05 1.750733e-04 0.000000e+00 0.000000e+00 0.000000e+00 0.000000e+00 4.439212e-05 -1.028534e-04 0.000000e+00 -1.028534e-04 1.268625e-04 0.000000e+00 0.000000e+00 0.000000e+00 0.000000e+00 5.873677e-05 -1.057969e-04 0.000000e+00 -1.057969e-04 2.240061e-05 0.000000e+00 0.000000e+00 0.000000e+00 0.000000e+00 6.551468e-05 -9.167546e-05 0.000000e+00 -9.167546e-05 -3.001173e-05 0.000000e+00 0.000000e+00 0.000000e+00 0.000000e+00 6.016417e-05 -1.069116e-04 0.000000e+00 -1.069116e-04 4.990950e-05 0.000000e+00 0.000000e+00 0.000000e+00 0.000000e+00 3.709916e-06 -7.033172e-05 0.000000e+00 -7.033172e-05 2.026163e-04 0.000000e+00 0.000000e+00 0.000000e+00 0.000000e+00 -2.048699e-05 3.766989e-05 0.000000e+00 3.766989e-05 1.891060e-04 0.000000e+00 0.000000e+00 0.000000e+00 0.000000e+00 1.897334e-05 -8.946868e-05 0.000000e+00 -8.946868e-05 1.688494e-04 0.000000e+00 0.000000e+00 0.000000e+00 0.000000e+00 6.144624e-05 -1.012110e-04 0.000000e+00 -1.012110e-04 -5.087581e-06 0.000000e+00 0.000000e+00 0.000000e+00 0.000000e+00 -2.752208e-05 -1.541498e-05 0.000000e+00 -1.541498e-05 1.950231e-04 0.000000e+00 0.000000e+00 0.000000e+00 0.000000e+00 1.560779e-05 -1.126953e-04 0.000000e+00 -1.126953e-04 4.869230e-05 0.000000e+00 0.000000e+00 0.000000e+00 0.000000e+00 4.296158e-05 -1.078742e-04 0.000000e+00 -1.078742e-04 1.055680e-04 0.000000e+00 0.000000e+00 0.000000e+00 0.000000e+00 1.007383e-05 -9.362526e-05 0.000000e+00 -9.362526e-05 1.278379e-04 0.000000e+00 0.000000e+00 0.000000e+00 0.000000e+00 3.320770e-05 -1.111784e-04 0.000000e+00 -1.111784e-04 5.422915e-05 0.000000e+00 0.000000e+00 0.000000e+00 0.000000e+00 3.456157e-05 -1.085986e-04 0.000000e+00 -1.085986e-04 8.191242e-05 0.000000e+00 0.000000e+00 0.000000e+00 0.000000e+00 </DataArray>
</PointData>
<CellData Scalars="" Vectors="" Tensors="" >
</CellData>
</Piece>
</UnstructuredGrid>
</VTKFile>