<!-- TimeStep 6 Computed 2021-08-30 at 9:26:11 -->
<VTKFile type="UnstructuredGrid" version="0.1" byte_order="LittleEndian">
<UnstructuredGrid>
<Piece NumberOfPoints="658" NumberOfCells="1187">
<Points>
 <DataArray type="Float64" NumberOfComponents="3" format="ascii"> 3.225000e-02 1.380000e-02 0.000000e+00 3.850000e-02 2.000000e-03 0.000000e+00 1.790000e-02 2.000000e-03 0.000000e+00 3.850000e-02 3.000000e-02 0.000000e+00 1.610000e-02 5.000000e-04 0.000000e+00 -2.400000e-02 3.000000e-02 0.000000e+00 0.000000e+00 0.000000e+00 0.000000e+00 -2.400000e-02 0.000000e+00 0.000000e+00 3.209060e-02 1.520260e-02 0.000000e+00 3.166140e-02 1.644790e-02 0.000000e+00 3.086510e-02 1.772340e-02 0.000000e+00 2.972250e-02 1.882050e-02 0.000000e+00 2.860520e-02 1.948120e-02 0.000000e+00 2.719700e-02 1.993430e-02 0.000000e+00 2.590380e-02 2.004930e-02 0.000000e+00 2.457020e-02 1.988430e-02 0.000000e+00 2.332460e-02 1.944840e-02 0.000000e+00 2.208010e-02 1.866800e-02 0.000000e+00 2.105550e-02 1.762290e-02 0.000000e+00 2.030070e-02 1.636520e-02 0.000000e+00 1.988720e-02 1.510250e-02 0.000000e+00 1.975010e-02 1.376650e-02 0.000000e+00 1.990830e-02 1.240220e-02 0.000000e+00 2.036540e-02 1.109550e-02 0.000000e+00 2.111820e-02 9.897330e-03 0.000000e+00 2.206020e-02 8.948140e-03 0.000000e+00 2.327140e-02 8.177090e-03 0.000000e+00 2.473380e-02 7.679600e-03 0.000000e+00 2.609570e-02 7.550730e-03 0.000000e+00 2.739940e-02 7.708680e-03 0.000000e+00 2.878200e-02 8.203300e-03 0.000000e+00 2.990320e-02 8.918690e-03 0.000000e+00 3.088920e-02 9.906670e-03 0.000000e+00 3.160900e-02 1.104290e-02 0.000000e+00 3.210220e-02 1.244870e-02 0.000000e+00 -2.400000e-02 2.335620e-02 0.000000e+00 -2.400000e-02 1.701100e-02 0.000000e+00 -2.400000e-02 1.072240e-02 0.000000e+00 -2.400000e-02 4.857510e-03 0.000000e+00 2.555380e-03 7.935950e-05 0.000000e+00 4.875910e-03 1.514260e-04 0.000000e+00 6.963700e-03 2.162640e-04 0.000000e+00 8.859870e-03 2.751510e-04 0.000000e+00 1.057630e-02 3.284580e-04 0.000000e+00 1.216970e-02 3.779410e-04 0.000000e+00 1.361520e-02 4.228320e-04 0.000000e+00 1.491400e-02 4.631670e-04 0.000000e+00 3.513720e-02 3.000000e-02 0.000000e+00 3.240430e-02 3.000000e-02 0.000000e+00 2.925060e-02 3.000000e-02 0.000000e+00 2.634890e-02 3.000000e-02 0.000000e+00 2.370540e-02 3.000000e-02 0.000000e+00 2.076670e-02 3.000000e-02 0.000000e+00 1.724780e-02 3.000000e-02 0.000000e+00 1.387080e-02 3.000000e-02 0.000000e+00 1.012770e-02 3.000000e-02 0.000000e+00 5.994200e-03 3.000000e-02 0.000000e+00 1.449760e-03 3.000000e-02 0.000000e+00 -3.587440e-03 3.000000e-02 0.000000e+00 -1.004840e-02 3.000000e-02 0.000000e+00 -1.697880e-02 3.000000e-02 0.000000e+00 1.699120e-02 1.242700e-03 0.000000e+00 3.850000e-02 5.026050e-03 0.000000e+00 3.850000e-02 7.576210e-03 0.000000e+00 3.850000e-02 9.994300e-03 0.000000e+00 3.850000e-02 1.226100e-02 0.000000e+00 3.850000e-02 1.414740e-02 0.000000e+00 3.850000e-02 1.624580e-02 0.000000e+00 3.850000e-02 1.834310e-02 0.000000e+00 3.850000e-02 2.066490e-02 0.000000e+00 3.850000e-02 2.323650e-02 0.000000e+00 3.850000e-02 2.633950e-02 0.000000e+00 1.914730e-02 2.000000e-03 0.000000e+00 2.068130e-02 2.000000e-03 0.000000e+00 2.253900e-02 2.000000e-03 0.000000e+00 2.480250e-02 2.000000e-03 0.000000e+00 2.727520e-02 2.000000e-03 0.000000e+00 3.001300e-02 2.000000e-03 0.000000e+00 3.284600e-02 2.000000e-03 0.000000e+00 3.556410e-02 2.000000e-03 0.000000e+00 -2.352000e-02 0.000000e+00 0.000000e+00 -2.304000e-02 0.000000e+00 0.000000e+00 -2.256000e-02 0.000000e+00 0.000000e+00 -2.208000e-02 0.000000e+00 0.000000e+00 -2.160000e-02 0.000000e+00 0.000000e+00 -2.112000e-02 0.000000e+00 0.000000e+00 -2.064000e-02 0.000000e+00 0.000000e+00 -2.016000e-02 0.000000e+00 0.000000e+00 -1.968000e-02 0.000000e+00 0.000000e+00 -1.920000e-02 0.000000e+00 0.000000e+00 -1.872000e-02 0.000000e+00 0.000000e+00 -1.824000e-02 0.000000e+00 0.000000e+00 -1.776000e-02 0.000000e+00 0.000000e+00 -1.728000e-02 0.000000e+00 0.000000e+00 -1.680000e-02 0.000000e+00 0.000000e+00 -1.632000e-02 0.000000e+00 0.000000e+00 -1.584000e-02 0.000000e+00 0.000000e+00 -1.536000e-02 0.000000e+00 0.000000e+00 -1.488000e-02 0.000000e+00 0.000000e+00 -1.440000e-02 0.000000e+00 0.000000e+00 -1.392000e-02 0.000000e+00 0.000000e+00 -1.344000e-02 0.000000e+00 0.000000e+00 -1.296000e-02 0.000000e+00 0.000000e+00 -1.248000e-02 0.000000e+00 0.000000e+00 -1.200000e-02 0.000000e+00 0.000000e+00 -1.152000e-02 0.000000e+00 0.000000e+00 -1.104000e-02 0.000000e+00 0.000000e+00 -1.056000e-02 0.000000e+00 0.000000e+00 -1.008000e-02 0.000000e+00 0.000000e+00 -9.600000e-03 0.000000e+00 0.000000e+00 -9.120000e-03 0.000000e+00 0.000000e+00 -8.640000e-03 0.000000e+00 0.000000e+00 -8.160000e-03 0.000000e+00 0.000000e+00 -7.680000e-03 0.000000e+00 0.000000e+00 -7.200000e-03 0.000000e+00 0.000000e+00 -6.720000e-03 0.000000e+00 0.000000e+00 -6.240000e-03 0.000000e+00 0.000000e+00 -5.760000e-03 0.000000e+00 0.000000e+00 -5.280000e-03 0.000000e+00 0.000000e+00 -4.800000e-03 0.000000e+00 0.000000e+00 -4.320000e-03 0.000000e+00 0.000000e+00 -3.840000e-03 0.000000e+00 0.000000e+00 -3.360000e-03 0.000000e+00 0.000000e+00 -2.880000e-03 0.000000e+00 0.000000e+00 -2.400000e-03 0.000000e+00 0.000000e+00 -1.920000e-03 0.000000e+00 0.000000e+00 -1.440000e-03 0.000000e+00 0.000000e+00 -9.600000e-04 0.000000e+00 0.000000e+00 -4.800000e-04 0.000000e+00 0.000000e+00 -2.340000e-02 5.208130e-04 0.000000e+00 -2.232960e-02 4.618260e-04 0.000000e+00 -2.136950e-02 4.810430e-04 0.000000e+00 -2.041540e-02 4.927590e-04 0.000000e+00 -1.945300e-02 4.966680e-04 0.000000e+00 -1.848070e-02 4.958900e-04 0.000000e+00 -1.751710e-02 4.691530e-04 0.000000e+00 -1.656600e-02 4.678350e-04 0.000000e+00 -1.561650e-02 4.775930e-04 0.000000e+00 -1.465390e-02 4.891080e-04 0.000000e+00 -1.370270e-02 4.971550e-04 0.000000e+00 -1.272340e-02 4.842530e-04 0.000000e+00 -1.178010e-02 4.967790e-04 0.000000e+00 -1.080540e-02 4.845440e-04 0.000000e+00 -9.864580e-03 4.765300e-04 0.000000e+00 -8.865750e-03 4.840670e-04 0.000000e+00 -7.905730e-03 5.011730e-04 0.000000e+00 -6.950840e-03 4.922920e-04 0.000000e+00 -6.019280e-03 4.246020e-04 0.000000e+00 -5.025350e-03 4.728720e-04 0.000000e+00 -4.065420e-03 4.835660e-04 0.000000e+00 -3.128960e-03 4.451670e-04 0.000000e+00 -2.171430e-03 4.762830e-04 0.000000e+00 -1.187460e-03 5.232410e-04 0.000000e+00 -1.169200e-04 6.148440e-04 0.000000e+00 5.857940e-03 1.696520e-03 0.000000e+00 9.466970e-03 1.890640e-03 0.000000e+00 1.285950e-02 1.842540e-03 0.000000e+00 1.567970e-02 1.589100e-03 0.000000e+00 1.654450e-02 2.586790e-03 0.000000e+00 1.870650e-02 3.039180e-03 0.000000e+00 2.161510e-02 3.508730e-03 0.000000e+00 2.644280e-02 3.572340e-03 0.000000e+00 3.127720e-02 3.918880e-03 0.000000e+00 3.629790e-02 5.896780e-03 0.000000e+00 3.653930e-02 1.078160e-02 0.000000e+00 3.658270e-02 1.517420e-02 0.000000e+00 3.649690e-02 1.966800e-02 0.000000e+00 3.564140e-02 2.453050e-02 0.000000e+00 3.471780e-02 2.738170e-02 0.000000e+00 3.097490e-02 2.763820e-02 0.000000e+00 2.500050e-02 2.778260e-02 0.000000e+00 1.911390e-02 2.734780e-02 0.000000e+00 1.195580e-02 2.690690e-02 0.000000e+00 3.452650e-03 2.633780e-02 0.000000e+00 -7.324260e-03 2.613160e-02 0.000000e+00 -1.270890e-02 2.610200e-02 0.000000e+00 -1.842590e-02 2.481480e-02 0.000000e+00 -2.078380e-02 2.023790e-02 0.000000e+00 3.351880e-02 1.299650e-02 0.000000e+00 3.321610e-02 1.125410e-02 0.000000e+00 3.240270e-02 9.708370e-03 0.000000e+00 3.124550e-02 8.531210e-03 0.000000e+00 2.994440e-02 7.484320e-03 0.000000e+00 2.846950e-02 6.692040e-03 0.000000e+00 2.682410e-02 6.398290e-03 0.000000e+00 2.522120e-02 6.457060e-03 0.000000e+00 2.358330e-02 6.768300e-03 0.000000e+00 2.202220e-02 7.395140e-03 0.000000e+00 2.065990e-02 8.488800e-03 0.000000e+00 1.961080e-02 9.755280e-03 0.000000e+00 1.888420e-02 1.131290e-02 0.000000e+00 1.849530e-02 1.294410e-02 0.000000e+00 1.849360e-02 1.454180e-02 0.000000e+00 1.881370e-02 1.618350e-02 0.000000e+00 1.956540e-02 1.777080e-02 0.000000e+00 2.064850e-02 1.913430e-02 0.000000e+00 2.199860e-02 2.018520e-02 0.000000e+00 2.351120e-02 2.085000e-02 0.000000e+00 2.512340e-02 2.121420e-02 0.000000e+00 2.667170e-02 2.118690e-02 0.000000e+00 2.831550e-02 2.085570e-02 0.000000e+00 2.991870e-02 2.021780e-02 0.000000e+00 3.132950e-02 1.919600e-02 0.000000e+00 3.236480e-02 1.776990e-02 0.000000e+00 3.311520e-02 1.621600e-02 0.000000e+00 3.347840e-02 1.467100e-02 0.000000e+00 -2.284400e-02 4.893670e-04 0.000000e+00 -2.185120e-02 4.651270e-04 0.000000e+00 -2.087950e-02 4.954800e-04 0.000000e+00 -1.992730e-02 4.905700e-04 0.000000e+00 -1.896440e-02 5.146960e-04 0.000000e+00 -1.799490e-02 4.750100e-04 0.000000e+00 -1.705020e-02 4.652250e-04 0.000000e+00 -1.607800e-02 4.701420e-04 0.000000e+00 -1.512950e-02 4.852050e-04 0.000000e+00 -1.419440e-02 4.972290e-04 0.000000e+00 -1.320410e-02 4.845360e-04 0.000000e+00 -1.225140e-02 4.886650e-04 0.000000e+00 -1.130790e-02 4.924130e-04 0.000000e+00 -1.033120e-02 4.774360e-04 0.000000e+00 -9.365120e-03 4.775410e-04 0.000000e+00 -8.389860e-03 4.925440e-04 0.000000e+00 -7.442720e-03 5.065380e-04 0.000000e+00 -6.466490e-03 4.625650e-04 0.000000e+00 -5.527350e-03 4.204680e-04 0.000000e+00 -4.553670e-03 4.855930e-04 0.000000e+00 -3.599350e-03 4.758930e-04 0.000000e+00 -2.637330e-03 4.397930e-04 0.000000e+00 -1.676010e-03 4.983490e-04 0.000000e+00 -6.774770e-04 5.559640e-04 0.000000e+00 4.116400e-03 1.544720e-03 0.000000e+00 7.691210e-03 1.775840e-03 0.000000e+00 1.126030e-02 1.890640e-03 0.000000e+00 1.429970e-02 1.759220e-03 0.000000e+00 1.756480e-02 3.582850e-03 0.000000e+00 1.998660e-02 3.276390e-03 0.000000e+00 2.393340e-02 3.733490e-03 0.000000e+00 2.887110e-02 3.696960e-03 0.000000e+00 3.388150e-02 4.409110e-03 0.000000e+00 3.644040e-02 8.532590e-03 0.000000e+00 3.666220e-02 1.303330e-02 0.000000e+00 3.624470e-02 1.730480e-02 0.000000e+00 3.612270e-02 2.204020e-02 0.000000e+00 1.561920e-02 2.705730e-02 0.000000e+00 2.783560e-02 2.771860e-02 0.000000e+00 2.222260e-02 2.767250e-02 0.000000e+00 7.971510e-03 2.667810e-02 0.000000e+00 -1.457570e-03 2.572150e-02 0.000000e+00 -2.083080e-02 1.620770e-02 0.000000e+00 -2.114540e-02 1.046000e-03 0.000000e+00 -2.018830e-02 1.019380e-03 0.000000e+00 -1.681430e-02 9.910220e-04 0.000000e+00 -1.776950e-02 9.521010e-04 0.000000e+00 -2.067570e-02 1.052860e-03 0.000000e+00 -1.727630e-02 9.377480e-04 0.000000e+00 -1.823140e-02 1.032910e-03 0.000000e+00 -1.298260e-02 9.876760e-04 0.000000e+00 -1.396810e-02 1.067390e-03 0.000000e+00 -2.457830e-03 9.476930e-04 0.000000e+00 -1.347010e-02 1.016030e-03 0.000000e+00 -1.445740e-02 1.046670e-03 0.000000e+00 -1.107320e-02 1.059790e-03 0.000000e+00 -1.011690e-02 9.539410e-04 0.000000e+00 -1.056780e-02 1.013760e-03 0.000000e+00 -1.157310e-02 1.056340e-03 0.000000e+00 -8.623990e-03 1.038970e-03 0.000000e+00 -6.189430e-03 9.536710e-04 0.000000e+00 -7.664510e-03 1.040370e-03 0.000000e+00 -6.660790e-03 1.046330e-03 0.000000e+00 -3.328320e-03 9.685660e-04 0.000000e+00 -4.327420e-03 1.042660e-03 0.000000e+00 -7.157010e-03 1.050700e-03 0.000000e+00 -3.803170e-03 1.020190e-03 0.000000e+00 -4.831560e-03 1.021450e-03 0.000000e+00 -2.891810e-03 8.524400e-04 0.000000e+00 8.485410e-03 3.432940e-03 0.000000e+00 -3.736620e-04 1.188990e-03 0.000000e+00 1.208400e-02 3.413080e-03 0.000000e+00 6.715380e-03 3.280840e-03 0.000000e+00 4.997270e-03 3.185510e-03 0.000000e+00 -9.151520e-04 1.111380e-03 0.000000e+00 1.030580e-02 3.489760e-03 0.000000e+00 2.705650e-03 1.522090e-03 0.000000e+00 2.039490e-02 4.933730e-03 0.000000e+00 1.519830e-02 3.004380e-03 0.000000e+00 1.884210e-02 4.425300e-03 0.000000e+00 3.358290e-02 2.277120e-02 0.000000e+00 2.225360e-02 5.511080e-03 0.000000e+00 3.485680e-02 1.890660e-02 0.000000e+00 3.491090e-02 1.193930e-02 0.000000e+00 3.000610e-02 5.643160e-03 0.000000e+00 3.235230e-02 5.887860e-03 0.000000e+00 -2.209940e-02 9.181730e-04 0.000000e+00 3.445720e-02 7.084320e-03 0.000000e+00 3.439750e-02 9.622150e-03 0.000000e+00 2.104510e-02 2.526260e-02 0.000000e+00 3.428480e-02 2.067350e-02 0.000000e+00 2.375500e-02 2.570570e-02 0.000000e+00 1.776660e-02 2.436660e-02 0.000000e+00 3.252570e-02 2.530750e-02 0.000000e+00 1.000040e-02 2.369430e-02 0.000000e+00 -5.222370e-03 2.226790e-02 0.000000e+00 2.623900e-02 2.582870e-02 0.000000e+00 1.372330e-02 2.413330e-02 0.000000e+00 -9.640430e-03 2.255880e-02 0.000000e+00 -1.822220e-02 1.811490e-02 0.000000e+00 -1.412820e-02 2.232400e-02 0.000000e+00 -2.161440e-02 9.727400e-04 0.000000e+00 -8.127090e-03 1.038090e-03 0.000000e+00 5.986810e-04 8.564660e-04 0.000000e+00 2.919940e-02 2.548060e-02 0.000000e+00 -2.219370e-02 1.372400e-02 0.000000e+00 -1.584900e-02 9.464230e-04 0.000000e+00 3.277780e-02 8.016360e-03 0.000000e+00 3.130570e-02 7.065650e-03 0.000000e+00 2.773290e-02 5.134820e-03 0.000000e+00 2.416750e-02 5.438660e-03 0.000000e+00 2.051830e-02 6.767480e-03 0.000000e+00 1.794570e-02 9.989900e-03 0.000000e+00 1.698810e-02 1.376450e-02 0.000000e+00 1.769270e-02 1.761110e-02 0.000000e+00 1.884300e-02 1.943280e-02 0.000000e+00 2.041690e-02 2.092300e-02 0.000000e+00 2.214210e-02 2.190840e-02 0.000000e+00 2.592160e-02 2.259040e-02 0.000000e+00 2.774100e-02 2.232700e-02 0.000000e+00 2.968140e-02 2.187400e-02 0.000000e+00 3.309810e-02 1.924490e-02 0.000000e+00 3.412190e-02 1.750290e-02 0.000000e+00 1.570410e-03 8.416660e-04 0.000000e+00 3.243440e-03 3.109830e-03 0.000000e+00 -2.011680e-02 1.340120e-02 0.000000e+00 1.924930e-03 2.296040e-03 0.000000e+00 -2.304690e-02 1.038930e-03 0.000000e+00 -1.921250e-02 1.069290e-03 0.000000e+00 -1.251460e-02 1.011640e-03 0.000000e+00 -1.632520e-02 9.725270e-04 0.000000e+00 -9.608800e-03 9.760010e-04 0.000000e+00 -5.775390e-03 8.260340e-04 0.000000e+00 1.949790e-04 1.244240e-03 0.000000e+00 1.366400e-02 3.254490e-03 0.000000e+00 -1.954400e-03 9.997400e-04 0.000000e+00 5.956210e-03 2.320340e-02 0.000000e+00 1.613680e-02 4.138020e-03 0.000000e+00 -2.159150e-02 1.135960e-02 0.000000e+00 -1.862070e-02 1.532320e-02 0.000000e+00 -1.969900e-02 1.013850e-03 0.000000e+00 -1.429360e-03 2.184690e-02 0.000000e+00 8.938000e-04 1.758100e-03 0.000000e+00 -1.739860e-02 2.105290e-02 0.000000e+00 3.503010e-02 1.390550e-02 0.000000e+00 -1.538560e-02 9.531990e-04 0.000000e+00 3.477560e-02 1.583430e-02 0.000000e+00 3.186090e-02 2.104080e-02 0.000000e+00 2.402810e-02 2.247280e-02 0.000000e+00 2.043580e-02 2.297850e-02 0.000000e+00 1.712150e-02 1.568790e-02 0.000000e+00 1.719890e-02 1.184250e-02 0.000000e+00 1.891820e-02 8.124710e-03 0.000000e+00 2.580970e-02 5.034100e-03 0.000000e+00 -2.258690e-02 9.559390e-04 0.000000e+00 -1.871690e-02 1.070390e-03 0.000000e+00 -1.490240e-02 9.781250e-04 0.000000e+00 -1.203480e-02 1.046550e-03 0.000000e+00 -9.143920e-03 1.022430e-03 0.000000e+00 -5.328750e-03 9.594130e-04 0.000000e+00 -1.443410e-03 1.043280e-03 0.000000e+00 1.969480e-03 2.272860e-02 0.000000e+00 -2.071300e-02 9.788950e-03 0.000000e+00 -1.958230e-02 1.116720e-02 0.000000e+00 -2.215760e-02 9.118380e-03 0.000000e+00 -1.941500e-02 9.053100e-03 0.000000e+00 -2.076380e-02 8.120110e-03 0.000000e+00 -2.092830e-02 1.670000e-03 0.000000e+00 -1.422850e-02 1.696350e-03 0.000000e+00 -4.658650e-03 1.607000e-03 0.000000e+00 -1.132350e-02 1.693630e-03 0.000000e+00 4.262890e-03 1.984380e-02 0.000000e+00 -6.266330e-03 1.609810e-03 0.000000e+00 9.347380e-03 5.186120e-03 0.000000e+00 -1.652640e-02 1.692530e-03 0.000000e+00 7.541480e-03 5.084430e-03 0.000000e+00 1.748270e-02 5.199610e-03 0.000000e+00 1.306590e-02 4.915860e-03 0.000000e+00 2.080530e-05 1.841260e-03 0.000000e+00 1.469850e-02 4.628130e-03 0.000000e+00 5.792460e-03 4.871950e-03 0.000000e+00 -6.440500e-04 1.784460e-03 0.000000e+00 1.127780e-02 5.148840e-03 0.000000e+00 1.085750e-03 2.955270e-03 0.000000e+00 -3.179300e-03 1.891810e-02 0.000000e+00 2.274260e-02 2.375350e-02 0.000000e+00 8.310980e-03 2.037610e-02 0.000000e+00 -1.755530e-02 1.298870e-02 0.000000e+00 -1.950490e-02 1.671430e-03 0.000000e+00 -1.797420e-02 1.554430e-03 0.000000e+00 -1.151340e-02 1.943950e-02 0.000000e+00 1.890250e-02 6.092260e-03 0.000000e+00 4.184220e-03 4.874160e-03 0.000000e+00 2.495010e-02 2.409630e-02 0.000000e+00 1.570090e-02 1.714030e-02 0.000000e+00 1.539290e-02 1.272360e-02 0.000000e+00 -1.622490e-02 1.607980e-02 0.000000e+00 -1.513740e-02 1.901560e-02 0.000000e+00 1.709160e-02 8.657140e-03 0.000000e+00 1.574290e-02 1.018820e-02 0.000000e+00 1.540270e-02 1.492700e-02 0.000000e+00 1.656690e-02 1.939380e-02 0.000000e+00 1.823450e-02 2.152830e-02 0.000000e+00 2.704170e-02 2.404070e-02 0.000000e+00 2.896550e-02 2.347080e-02 0.000000e+00 -1.967140e-02 7.179610e-03 0.000000e+00 -1.783480e-02 1.020500e-02 0.000000e+00 -7.187160e-03 1.861690e-02 0.000000e+00 -2.042350e-02 1.621020e-03 0.000000e+00 -8.891590e-03 1.690860e-03 0.000000e+00 -1.473500e-02 1.624080e-03 0.000000e+00 -1.708810e-02 1.535920e-03 0.000000e+00 -1.280550e-02 1.533350e-03 0.000000e+00 -6.817630e-03 1.658350e-03 0.000000e+00 -5.205250e-03 1.561040e-03 0.000000e+00 -1.185630e-03 1.677410e-03 0.000000e+00 -3.512550e-03 1.587410e-03 0.000000e+00 -1.032760e-02 1.560550e-03 0.000000e+00 -7.360100e-03 1.597090e-03 0.000000e+00 -1.324550e-02 1.468750e-03 0.000000e+00 -2.907030e-03 1.434130e-03 0.000000e+00 -1.996470e-02 1.519740e-03 0.000000e+00 1.931370e-03 3.789880e-03 0.000000e+00 -4.079750e-03 1.619410e-03 0.000000e+00 1.197440e-02 2.104740e-02 0.000000e+00 -1.897920e-02 1.758730e-03 0.000000e+00 -7.886370e-03 1.578040e-03 0.000000e+00 3.103830e-02 2.336140e-02 0.000000e+00 -5.761230e-03 1.376150e-03 0.000000e+00 1.734660e-02 6.968860e-03 0.000000e+00 -1.183840e-02 1.658460e-03 0.000000e+00 -8.375160e-03 1.643890e-03 0.000000e+00 1.398700e-02 1.888430e-02 0.000000e+00 -1.754320e-02 1.377420e-03 0.000000e+00 -2.145750e-02 1.634970e-03 0.000000e+00 -1.560810e-02 1.497140e-03 0.000000e+00 -1.845720e-02 1.726330e-03 0.000000e+00 5.418650e-04 1.925980e-02 0.000000e+00 -9.876720e-03 1.465750e-03 0.000000e+00 -2.303880e-03 1.532840e-03 0.000000e+00 2.755290e-03 5.104590e-03 0.000000e+00 -2.280550e-02 1.623090e-03 0.000000e+00 -1.606410e-02 1.427410e-03 0.000000e+00 -2.188640e-02 1.411010e-03 0.000000e+00 -2.094230e-02 6.373350e-03 0.000000e+00 -2.232220e-02 1.406430e-03 0.000000e+00 -1.081290e-02 1.633740e-03 0.000000e+00 -1.370450e-02 1.654570e-03 0.000000e+00 1.528360e-02 2.157820e-02 0.000000e+00 -2.187280e-02 7.259610e-03 0.000000e+00 -1.815370e-02 8.007390e-03 0.000000e+00 -2.242760e-02 5.441030e-03 0.000000e+00 -2.111880e-02 4.871500e-03 0.000000e+00 -2.197930e-02 4.152140e-03 0.000000e+00 -2.116740e-02 3.600850e-03 0.000000e+00 -2.203540e-02 3.076390e-03 0.000000e+00 -2.023470e-02 4.145160e-03 0.000000e+00 -2.127800e-02 2.452930e-03 0.000000e+00 -2.298410e-02 3.664980e-03 0.000000e+00 -2.270040e-02 2.460280e-03 0.000000e+00 -1.999070e-02 5.511250e-03 0.000000e+00 -2.206850e-02 2.053180e-03 0.000000e+00 -1.517820e-02 1.440220e-03 0.000000e+00 -1.231230e-02 1.598230e-03 0.000000e+00 6.595770e-03 1.685960e-02 0.000000e+00 -1.592540e-02 2.049480e-03 0.000000e+00 -9.423340e-03 1.617440e-03 0.000000e+00 -1.759700e-03 1.588040e-03 0.000000e+00 1.584660e-02 5.852590e-03 0.000000e+00 -1.573680e-02 1.125250e-02 0.000000e+00 1.028020e-02 7.063320e-03 0.000000e+00 -3.487310e-04 2.505800e-03 0.000000e+00 1.069450e-02 1.770910e-02 0.000000e+00 -1.474740e-02 1.397010e-02 0.000000e+00 -3.193340e-03 2.222860e-03 0.000000e+00 3.816860e-04 2.456360e-03 0.000000e+00 1.558350e-02 7.891870e-03 0.000000e+00 -2.062510e-02 2.214170e-03 0.000000e+00 -2.300510e-02 7.309920e-03 0.000000e+00 4.943630e-03 6.312230e-03 0.000000e+00 7.693650e-04 4.169100e-03 0.000000e+00 -2.045950e-02 3.007890e-03 0.000000e+00 -1.320390e-02 1.673890e-02 0.000000e+00 1.362080e-02 1.162150e-02 0.000000e+00 -1.951950e-02 3.249670e-03 0.000000e+00 8.291150e-03 7.213000e-03 0.000000e+00 -1.266920e-02 2.089280e-03 0.000000e+00 1.509320e-03 5.134000e-03 0.000000e+00 -1.527330e-02 2.093450e-03 0.000000e+00 2.634420e-03 1.638980e-02 0.000000e+00 -5.045840e-03 2.218060e-03 0.000000e+00 1.032670e-04 3.309100e-03 0.000000e+00 -7.065010e-03 2.281640e-03 0.000000e+00 -8.640040e-03 2.326170e-03 0.000000e+00 -9.974600e-04 2.426710e-03 0.000000e+00 -1.392370e-02 2.394960e-03 0.000000e+00 6.425320e-03 6.836580e-03 0.000000e+00 1.368060e-02 8.944580e-03 0.000000e+00 -1.324990e-02 2.163790e-03 0.000000e+00 3.459150e-03 6.713730e-03 0.000000e+00 1.420770e-02 6.458950e-03 0.000000e+00 -2.642010e-03 2.036210e-03 0.000000e+00 1.236770e-02 6.799520e-03 0.000000e+00 -2.000000e-02 2.247710e-03 0.000000e+00 -3.838250e-03 2.305580e-03 0.000000e+00 -1.048460e-02 2.166750e-03 0.000000e+00 -7.605190e-03 2.079640e-03 0.000000e+00 -1.458780e-02 2.330800e-03 0.000000e+00 -1.809020e-02 2.261400e-03 0.000000e+00 -1.160560e-02 2.374400e-03 0.000000e+00 -2.345370e-02 1.689690e-03 0.000000e+00 -1.919820e-02 4.653410e-03 0.000000e+00 -1.641330e-02 2.565530e-03 0.000000e+00 -1.756040e-02 1.950690e-03 0.000000e+00 -9.899080e-04 1.629390e-02 0.000000e+00 -1.101460e-02 2.356260e-03 0.000000e+00 1.356170e-02 1.392670e-02 0.000000e+00 -4.430740e-03 2.157270e-03 0.000000e+00 -1.934050e-02 2.352940e-03 0.000000e+00 -9.909980e-03 2.184850e-03 0.000000e+00 -4.350210e-03 1.600370e-02 0.000000e+00 -1.867810e-02 6.202350e-03 0.000000e+00 -1.219210e-02 2.273370e-03 0.000000e+00 -2.181920e-03 1.363960e-02 0.000000e+00 -1.701680e-02 2.237570e-03 0.000000e+00 -9.988580e-03 1.660220e-02 0.000000e+00 -9.258230e-03 2.324560e-03 0.000000e+00 -5.729720e-03 2.037550e-03 0.000000e+00 -1.647890e-02 9.011350e-03 0.000000e+00 -1.573620e-02 2.768090e-03 0.000000e+00 -1.315450e-02 1.204400e-02 0.000000e+00 -1.870420e-02 2.625320e-03 0.000000e+00 9.245580e-03 9.447760e-03 0.000000e+00 4.851590e-03 8.089660e-03 0.000000e+00 -8.097740e-03 2.235490e-03 0.000000e+00 -7.309900e-03 1.525420e-02 0.000000e+00 6.793080e-03 9.005710e-03 0.000000e+00 -1.852220e-02 3.799150e-03 0.000000e+00 1.357970e-02 1.634240e-02 0.000000e+00 -8.909860e-03 3.032160e-03 0.000000e+00 -1.788630e-02 5.150740e-03 0.000000e+00 -1.700150e-02 6.826470e-03 0.000000e+00 1.152840e-02 1.296890e-02 0.000000e+00 -6.360720e-03 2.399370e-03 0.000000e+00 4.561470e-03 1.344060e-02 0.000000e+00 8.747560e-03 1.435930e-02 0.000000e+00 1.156160e-02 1.514880e-02 0.000000e+00 -5.545620e-03 2.829420e-03 0.000000e+00 9.692160e-04 1.365760e-02 0.000000e+00 -5.239460e-03 1.322120e-02 0.000000e+00 -8.202260e-03 2.967140e-03 0.000000e+00 -1.709630e-02 3.087160e-03 0.000000e+00 1.709990e-03 6.891740e-03 0.000000e+00 -8.415540e-04 3.270690e-03 0.000000e+00 -6.923600e-03 3.038420e-03 0.000000e+00 -1.543670e-03 2.192360e-03 0.000000e+00 -1.207480e-02 3.051020e-03 0.000000e+00 -2.100420e-03 2.218900e-03 0.000000e+00 1.160490e-02 1.070880e-02 0.000000e+00 -1.533530e-02 7.875990e-03 0.000000e+00 -4.408490e-04 4.294140e-03 0.000000e+00 -1.183060e-02 1.440060e-02 0.000000e+00 -1.410050e-02 9.592400e-03 0.000000e+00 -3.500260e-03 3.046370e-03 0.000000e+00 -1.045890e-02 2.970590e-03 0.000000e+00 1.140890e-02 8.662630e-03 0.000000e+00 -1.438500e-02 3.322090e-03 0.000000e+00 -9.675450e-03 3.028560e-03 0.000000e+00 -4.540410e-03 2.965630e-03 0.000000e+00 -1.129200e-02 3.131170e-03 0.000000e+00 -1.758150e-02 2.555930e-03 0.000000e+00 -9.492890e-03 1.429740e-02 0.000000e+00 -1.632830e-02 3.443940e-03 0.000000e+00 -1.797410e-02 3.114580e-03 0.000000e+00 -1.347750e-02 3.099040e-03 0.000000e+00 2.259820e-04 5.677470e-03 0.000000e+00 -2.640870e-03 2.795250e-03 0.000000e+00 -1.274080e-02 2.757440e-03 0.000000e+00 -7.886550e-03 1.250410e-02 0.000000e+00 -1.644270e-02 5.346590e-03 0.000000e+00 -1.184280e-02 3.958520e-03 0.000000e+00 -1.174620e-02 1.050750e-02 0.000000e+00 -1.514600e-02 6.326280e-03 0.000000e+00 -6.203070e-03 3.226220e-03 0.000000e+00 -1.506810e-02 2.845480e-03 0.000000e+00 -1.063540e-02 1.246320e-02 0.000000e+00 -7.590500e-03 2.755570e-03 0.000000e+00 2.870920e-03 8.759280e-03 0.000000e+00 -1.725650e-02 4.106950e-03 0.000000e+00 -1.560390e-03 4.085660e-03 0.000000e+00 -5.468920e-03 3.836080e-03 0.000000e+00 -6.703370e-03 3.935240e-03 0.000000e+00 -3.376270e-03 1.124270e-02 0.000000e+00 7.156370e-03 1.158260e-02 0.000000e+00 -1.761550e-03 3.002010e-03 0.000000e+00 -4.089830e-03 3.905360e-03 0.000000e+00 -1.371550e-02 7.524910e-03 0.000000e+00 -1.367380e-02 4.248310e-03 0.000000e+00 -8.368120e-03 3.867030e-03 0.000000e+00 -1.171170e-03 5.217830e-03 0.000000e+00 -4.857990e-03 4.848200e-03 0.000000e+00 -1.090300e-02 4.029160e-03 0.000000e+00 -1.274650e-02 3.669680e-03 0.000000e+00 -5.919780e-03 1.083900e-02 0.000000e+00 9.558640e-03 1.189050e-02 0.000000e+00 -7.574440e-03 3.563860e-03 0.000000e+00 -1.492750e-02 4.771680e-03 0.000000e+00 2.236970e-03 1.119460e-02 0.000000e+00 4.733280e-03 1.045470e-02 0.000000e+00 -9.220580e-03 3.768400e-03 0.000000e+00 -5.148650e-04 1.135420e-02 0.000000e+00 -1.357850e-02 5.818830e-03 0.000000e+00 -2.366500e-03 4.946830e-03 0.000000e+00 -6.228020e-03 4.926570e-03 0.000000e+00 -9.983610e-03 3.980800e-03 0.000000e+00 -1.144050e-02 4.948540e-03 0.000000e+00 -7.759370e-03 1.033500e-02 0.000000e+00 -7.629040e-03 4.640490e-03 0.000000e+00 -1.538870e-02 3.648900e-03 0.000000e+00 -9.628720e-03 1.075910e-02 0.000000e+00 -1.257110e-02 4.731370e-03 0.000000e+00 -2.768930e-03 3.787840e-03 0.000000e+00 -3.622200e-03 4.846620e-03 0.000000e+00 -4.524900e-03 9.105610e-03 0.000000e+00 -8.939800e-04 6.451090e-03 0.000000e+00 -1.215260e-02 8.625950e-03 0.000000e+00 -1.217790e-02 7.025380e-03 0.000000e+00 8.168110e-04 9.212630e-03 0.000000e+00 -1.608840e-02 4.335870e-03 0.000000e+00 -1.711100e-03 9.213210e-03 0.000000e+00 -1.029650e-02 5.049540e-03 0.000000e+00 -6.909270e-03 8.648760e-03 0.000000e+00 -9.007840e-03 4.819760e-03 0.000000e+00 -1.058850e-02 9.286990e-03 0.000000e+00 -2.065190e-03 6.248940e-03 0.000000e+00 -1.039850e-02 7.639190e-03 0.000000e+00 -7.166850e-03 5.639700e-03 0.000000e+00 -3.354030e-03 7.400740e-03 0.000000e+00 -5.409180e-03 5.770720e-03 0.000000e+00 -9.516970e-03 6.165460e-03 0.000000e+00 -1.214120e-02 5.777600e-03 0.000000e+00 -8.233940e-03 5.873880e-03 0.000000e+00 -3.176660e-03 5.893430e-03 0.000000e+00 -8.382550e-05 7.590150e-03 0.000000e+00 -4.307220e-03 6.013980e-03 0.000000e+00 -1.097900e-02 6.151490e-03 0.000000e+00 -1.620360e-03 7.485480e-03 0.000000e+00 -8.906380e-03 8.940680e-03 0.000000e+00 -6.308780e-03 6.070970e-03 0.000000e+00 -5.450560e-03 7.209030e-03 0.000000e+00 -8.549410e-03 7.365900e-03 0.000000e+00 -7.178150e-03 6.864210e-03 0.000000e+00 </DataArray>
</Points>
<Cells>
 <DataArray type="Int32" Name="connectivity" format="ascii"> 80 81 129  82 83 130  84 85 131  86 87 132  88 89 133  90 91 134  92 93 135  94 95 136  96 97 137  98 99 138  100 101 139  102 103 140  104 105 141  106 107 142  108 109 143  110 111 144  112 113 145  114 115 146  116 117 147  118 119 148  120 121 149  122 123 150  124 125 151  126 127 152  128 6 153  40 41 154  42 43 155  44 45 156  46 4 157  4 61 157  61 2 158  2 72 159  73 74 160  75 76 161  77 78 162  79 1 62  62 63 163  64 65 164  66 67 165  68 69 166  70 71 167  71 3 168  167 71 168  3 47 168  47 48 168  48 49 169  50 51 170  52 53 171  54 55 172  56 57 173  58 59 174  59 60 175  60 5 176  175 60 176  5 35 176  35 36 177  0 34 178  34 33 179  33 32 180  32 31 181  31 30 182  30 29 183  29 28 184  28 27 185  27 26 186  26 25 187  25 24 188  24 23 189  23 22 190  22 21 191  21 20 192  20 19 193  19 18 194  18 17 195  17 16 196  16 15 197  15 14 198  14 13 199  13 12 200  12 11 201  11 10 202  10 9 203  9 8 204  8 0 205  79 62 163  7 80 129  81 82 206  129 81 206  82 130 206  83 84 207  84 131 207  85 86 208  87 88 209  89 90 210  133 89 210  90 134 210  91 92 211  93 94 212  95 96 213  97 98 214  137 97 214  98 138 214  99 100 215  101 102 216  103 104 217  140 103 217  104 141 217  105 106 218  107 108 219  109 110 220  143 109 220  110 144 220  111 112 221  112 145 221  113 114 222  115 116 223  117 118 224  147 117 224  118 148 224  119 120 225  121 122 226  123 124 227  125 126 228  151 125 228  126 152 228  127 128 229  40 154 230  39 40 230  41 42 231  43 44 232  45 46 233  157 61 158  158 2 234  2 159 234  72 73 235  74 75 236  75 161 236  77 162 237  76 77 237  78 79 238  163 63 239  63 64 239  64 164 239  65 66 240  67 68 241  69 70 242  171 53 243  53 54 243  168 48 169  169 49 244  49 50 244  50 170 244  51 52 245  54 172 243  55 56 246  58 174 247  57 58 247  59 175 174  178 34 179  0 178 205  33 180 179  32 181 180  31 182 181  30 183 182  29 184 183  28 185 184  27 186 185  26 187 186  25 188 187  24 189 188  23 190 189  22 191 190  21 192 191  20 193 192  19 194 193  18 195 194  17 196 195  16 197 196  15 198 197  14 199 198  13 200 199  12 201 200  11 202 201  10 203 202  9 204 203  8 205 204  649 635 652  130 83 207  131 85 208  132 87 209  211 92 135  134 91 211  135 93 212  136 95 213  215 100 139  138 99 215  139 101 216  218 106 142  141 105 218  142 107 219  144 111 221  145 113 222  146 115 223  225 120 149  148 119 225  149 121 226  150 123 227  229 128 153  152 127 229  154 41 231  155 43 232  156 45 233  159 72 235  160 74 236  161 76 237  162 78 238  164 65 240  165 67 241  166 69 242  170 51 245  172 55 246  173 57 247  177 36 248  213 96 137  227 124 151  232 44 156  233 46 157  242 70 167  209 88 133  208 86 132  212 94 136  216 102 140  219 108 143  223 116 147  222 114 146  226 122 150  231 42 155  235 73 160  241 68 166  240 66 165  245 52 171  246 56 173  131 208 249  132 209 250  212 136 251  211 135 252  208 132 253  132 250 253  135 212 254  252 135 254  212 251 254  134 211 255  211 252 255  216 140 256  215 139 257  227 151 258  139 216 259  257 139 259  216 256 259  138 215 260  215 257 260  218 142 261  219 143 262  142 219 263  261 142 263  219 262 263  141 218 264  218 261 264  144 221 265  223 147 266  145 222 267  146 223 268  223 266 268  226 150 269  225 149 270  222 146 271  267 222 271  146 268 271  149 226 272  270 149 272  226 269 272  148 225 273  225 270 273  150 227 274  269 150 274  227 258 274  231 155 275  229 153 276  232 156 277  154 231 278  231 275 278  230 154 279  154 278 279  152 229 280  229 276 280  155 232 281  232 277 281  39 230 282  235 160 283  233 157 284  159 235 285  235 283 285  242 167 286  157 158 284  160 236 287  241 166 288  164 240 289  237 162 290  162 238 291  238 79 163  130 207 292  163 239 293  239 164 294  293 239 294  164 289 294  245 171 295  166 242 296  288 166 296  242 286 296  165 350 240  170 245 297  171 243 298  167 168 299  286 167 299  168 169 299  172 246 300  247 174 301  244 170 302  170 297 302  243 172 303  298 243 303  172 300 303  174 175 304  177 248 305  175 176 306  35 177 176  207 131 307  292 207 307  131 249 307  221 145 308  265 221 308  145 267 308  153 6 309  169 244 310  299 169 310  244 302 310  248 36 311  178 179 289  213 137 312  180 181 313  181 182 314  182 183 290  183 184 315  185 186 316  186 187 287  187 188 317  189 190 318  191 192 319  193 194 320  194 195 321  195 196 322  196 197 323  198 199 324  199 200 325  200 201 326  202 203 327  203 204 328  39 282 329  282 230 330  230 279 330  238 163 293  248 311 331  329 282 332  129 206 333  160 287 283  208 253 249  133 210 334  256 140 335  140 217 335  136 213 336  238 293 291  262 143 337  143 220 337  136 336 251  266 147 338  147 224 338  153 309 339  275 155 281  153 339 276  277 156 340  156 233 340  282 330 332  258 151 341  151 228 341  233 284 340  159 285 234  300 246 342  246 173 342  284 158 343  158 234 343  287 236 316  245 295 297  161 237 315  237 290 315  162 291 290  331 311 344  248 331 345  171 298 295  209 133 346  247 301 347  329 332 348  250 209 346  305 248 345  133 334 346  175 306 304  176 177 349  36 37 311  205 178 350  312 137 351  137 214 351  328 204 352  204 205 352  327 203 328  326 201 353  201 202 353  325 200 326  324 199 325  323 197 354  197 198 354  196 323 322  355 322 323  321 195 322  320 194 321  319 192 356  192 193 356  318 190 357  190 191 357  317 188 358  188 189 358  287 187 317  316 186 287  315 184 359  161 315 359  184 185 359  290 183 315  313 181 314  306 176 349  289 179 294  213 312 336  185 316 359  189 318 358  191 319 357  193 320 356  198 324 354  202 327 353  179 180 294  206 130 360  333 206 360  130 292 360  210 134 361  334 210 361  134 255 361  214 138 362  351 214 362  138 260 362  217 141 363  335 217 363  141 264 363  220 144 364  337 220 364  144 265 364  224 148 365  338 224 365  148 273 365  228 152 366  341 228 366  152 280 366  236 161 359  165 241 352  173 247 367  311 37 344  37 370 344  344 368 369  339 309 348  342 173 367  205 350 352  349 177 305  368 344 370  294 180 313  331 344 369  369 368 371  371 368 372  368 370 372  283 287 317  249 253 373  260 257 374  291 293 313  273 270 375  264 261 376  342 367 377  268 266 378  275 281 379  251 336 380  278 275 381  275 379 381  234 285 382  277 340 383  276 339 384  340 284 385  383 340 385  284 343 385  279 278 386  278 381 386  280 276 387  276 384 387  281 277 388  277 383 388  6 39 329  348 332 389  347 301 390  297 295 391  300 342 392  345 331 393  339 348 384  346 334 394  295 298 355  293 294 313  255 252 395  304 306 396  299 433 286  301 174 304  283 317 397  285 283 397  317 358 397  350 178 289  330 279 398  279 386 398  654 655 657  354 324 399  356 320 400  357 319 401  314 182 290  305 345 402  331 369 393  306 349 403  396 306 403  349 305 403  358 318 404  318 357 405  319 356 406  401 319 406  356 400 406  320 321 407  321 322 408  407 321 408  322 355 408  323 354 391  324 325 409  325 326 410  655 637 657  371 372 411  352 241 328  369 371 412  301 304 413  390 301 413  304 396 413  373 253 414  253 250 414  364 265 415  362 260 416  260 374 416  254 251 417  251 380 417  256 335 418  271 268 419  268 378 419  365 273 420  273 375 420  342 377 392  366 280 421  280 387 421  234 382 343  272 269 422  263 262 423  267 271 424  271 419 424  382 285 397  259 256 425  256 418 425  274 258 426  281 388 379  367 247 347  236 359 316  414 250 427  250 346 427  332 330 428  375 270 429  270 272 429  300 392 430  345 393 402  241 288 328  394 334 431  334 361 431  308 267 432  267 424 432  353 286 433  404 318 405  266 338 434  378 266 434  338 365 434  286 353 296  397 358 435  382 397 435  358 404 435  332 428 389  303 300 430  363 264 436  264 376 436  265 308 437  415 265 437  308 432 437  320 407 400  438 400 407  395 252 439  252 254 439  307 249 440  312 351 441  361 255 442  255 395 442  129 333 516  354 399 391  355 323 391  357 401 405  299 310 433  165 352 350  367 347 443  377 367 443  347 390 443  427 346 394  423 262 444  262 337 444  426 258 445  258 341 445  428 330 446  330 398 446  440 249 373  516 333 447  333 360 447  328 288 327  302 297 399  336 312 448  355 298 408  403 305 402  292 307 449  307 440 449  409 325 410  326 353 433  411 372 450  360 292 451  447 360 451  292 449 451  380 336 448  376 261 452  261 263 452  374 257 453  257 259 453  448 312 441  399 297 391  408 298 454  407 408 454  298 303 454  450 372 455  327 288 296  412 371 456  371 411 456  455 372 370  327 296 353  450 455 457  455 484 457  450 457 458  38 464 457  457 459 458  458 459 460  460 459 461  458 460 462  460 461 463  461 459 464  459 457 464  461 464 465  450 458 466  411 450 466  458 462 466  461 465 467  461 467 463  351 362 468  441 351 468  362 416 468  335 363 469  418 335 469  363 436 469  291 313 314  392 377 470  448 441 471  369 412 393  337 364 472  444 337 472  364 415 472  422 269 426  341 366 473  445 341 473  366 421 473  343 382 474  382 435 474  393 412 475  291 314 290  263 423 452  467 465 447  379 388 476  391 295 355  387 384 477  303 430 454  430 392 478  272 422 429  402 393 479  422 426 480  384 348 481  404 405 482  373 414 483  329 348 309  455 370 484  370 37 484  465 464 516  398 386 485  389 428 486  310 302 409  460 463 487  410 326 433  462 460 487  380 448 471  396 403 488  403 402 488  516 447 465  409 302 399  487 463 483  481 348 389  384 481 477  409 399 324  405 401 489  462 487 490  381 379 491  379 476 491  38 457 484  438 407 454  418 469 492  483 463 373  254 417 439  486 428 493  428 446 493  471 441 494  441 468 494  470 377 495  420 375 496  426 269 274  481 389 497  477 481 497  389 486 497  424 419 498  415 437 499  421 387 500  387 477 500  374 453 501  365 420 434  485 386 502  386 381 502  482 405 503  405 489 503  425 418 504  418 492 504  6 329 309  446 398 505  398 485 505  383 385 506  402 479 488  480 426 507  426 445 507  454 430 438  388 383 508  289 240 350  478 392 470  427 394 509  430 478 438  429 422 510  422 480 510  479 393 475  414 427 509  431 361 442  452 423 511  404 482 435  432 424 512  424 498 512  414 509 483  416 374 513  374 501 513  490 487 509  442 395 514  436 376 515  259 425 453  647 657 656  383 506 508  466 462 517  380 471 518  410 433 310  395 439 519  514 395 519  439 417 519  476 388 508  443 390 520  376 452 521  515 376 521  452 511 521  440 373 463  343 474 385  401 406 522  463 467 440  462 490 517  381 491 502  487 483 509  496 375 523  375 429 523  495 377 443  509 394 524  490 509 524  394 431 524  511 423 525  423 444 525  410 310 409  520 390 526  401 522 489  645 647 656  411 466 527  456 411 527  464 38 516  526 390 413  492 469 528  469 436 528  520 526 529  385 474 506  417 380 530  519 417 530  380 518 530  396 488 531  415 499 532  472 415 532  434 420 533  420 496 533  474 435 482  475 412 534  466 517 527  495 443 520  518 471 535  479 475 536  431 442 537  524 431 537  442 514 537  491 476 538  485 502 539  412 456 534  436 515 528  453 425 504  437 432 540  499 437 540  432 512 540  526 413 541  508 506 503  502 491 542  539 502 542  491 538 542  517 490 543  400 438 544  506 474 482  532 499 545  472 532 525  527 517 546  534 456 547  400 544 406  506 482 503  468 416 494  644 655 654  416 513 494  489 522 548  419 378 549  470 495 550  449 440 467  378 434 533  522 406 544  478 470 551  470 550 551  378 533 549  449 467 451  522 544 552  533 496 553  419 549 498  657 642 654  648 643 650  495 520 554  550 495 554  520 529 554  456 527 547  129 516 7  529 526 555  545 499 556  499 540 556  530 518 557  493 446 558  446 505 558  548 522 552  500 477 559  527 546 547  498 549 560  501 453 504  473 421 561  421 500 561  528 515 562  445 473 563  473 561 563  503 489 564  489 548 564  477 497 559  534 547 565  497 486 566  488 479 567  507 445 563  536 475 568  471 494 535  510 480 569  479 536 567  475 534 568  521 511 570  485 539 505  476 508 571  478 551 552  476 571 538  513 501 572  525 532 573  532 545 573  526 541 555  496 523 574  517 543 546  523 429 510  396 531 413  531 488 567  515 521 575  521 570 575  549 533 553  514 519 576  519 530 576  531 567 577  553 496 574  557 518 578  518 535 578  534 565 568  514 576 579  501 504 580  562 515 575  566 486 581  486 493 581  569 480 582  480 507 582  641 645 656  511 525 570  572 501 580  413 531 541  514 579 537  492 528 583  504 492 583  528 562 583  580 504 583  555 541 584  547 546 585  559 497 566  562 575 586  536 568 587  548 552 551  565 547 588  547 585 588  549 553 589  535 494 590  648 640 643  567 536 591  577 567 591  536 587 591  490 537 543  512 498 592  540 512 592  498 560 592  505 539 593  571 508 503  478 552 544  574 523 510  546 543 594  549 589 560  559 566 595  589 553 596  571 503 564  560 589 597  529 555 598  576 530 557  574 510 569  444 472 525  579 543 537  553 574 596  551 550 599  500 559 600  559 595 600  574 569 601  568 565 602  572 580 603  576 557 579  579 557 594  545 556 604  602 565 588  513 572 590  595 566 605  589 596 597  541 531 577  574 601 596  606 596 601  586 575 607  575 570 607  543 579 594  580 583 608  583 562 608  581 493 558  647 642 657  555 584 609  548 551 610  564 548 610  507 563 582  571 564 538  562 586 608  585 546 594  566 581 605  570 525 573  438 478 544  592 560 611  540 592 556  555 609 598  612 624 572  610 551 599  538 564 610  541 577 584  538 610 599  550 554 613  580 608 603  542 538 599  593 539 614  577 591 584  611 560 597  539 542 614  37 38 484  594 557 578  537 490 524  613 614 550  573 545 615  545 604 615  554 529 616  613 554 616  529 598 616  447 451 467  572 603 612  602 588 617  563 561 600  595 605 618  597 596 619  596 606 619  607 570 620  586 607 621  561 500 600  609 584 622  611 597 623  588 585 612  600 582 563  535 590 624  578 535 624  590 572 624  591 587 625  556 592 611  604 556 611  608 586 626  603 608 626  505 593 558  569 582 627  604 611 623  569 627 601  601 627 628  627 582 600  598 609 629  605 581 630  587 568 631  631 568 602  631 602 632  602 617 632  593 614 613  593 613 633  558 593 633  613 616 633  573 615 620  597 619 623  644 650 655  606 601 628  586 621 626  612 585 634  620 570 573  600 595 627  598 629 635  588 612 617  607 620 636  513 590 494  621 607 636  516 38 7  584 591 625  594 578 634  629 609 637  609 622 637  604 623 638  628 627 618  614 542 599  616 598 635  625 587 639  587 631 639  618 605 640  605 630 640  639 631 641  631 632 641  585 594 634  623 619 642  635 629 643  636 620 638  578 624 634  603 626 617  619 606 644  636 638 645  617 626 646  632 617 646  626 621 646  638 623 647  623 642 647  628 618 648  618 640 648  630 581 649  616 635 633  606 628 650  644 606 650  628 648 650  622 584 625  621 636 651  646 621 651  636 645 651  581 558 649  630 649 652  622 625 653  625 639 653  641 651 645  635 643 652  558 633 649  617 612 603  599 550 614  642 619 654  619 644 654  637 622 653  630 652 640  653 639 641  645 638 647  604 638 615  618 627 595  652 643 640  643 629 655  646 651 632  620 615 638  637 653 656  629 637 655  653 641 656  643 655 650  656 657 637  624 612 634  641 632 651  649 633 635  </DataArray>
 <DataArray type="Int32" Name="offsets" format="ascii"> 3 6 9 12 15 18 21 24 27 30 33 36 39 42 45 48 51 54 57 60 63 66 69 72 75 78 81 84 87 90 93 96 99 102 105 108 111 114 117 120 123 126 129 132 135 138 141 144 147 150 153 156 159 162 165 168 171 174 177 180 183 186 189 192 195 198 201 204 207 210 213 216 219 222 225 228 231 234 237 240 243 246 249 252 255 258 261 264 267 270 273 276 279 282 285 288 291 294 297 300 303 306 309 312 315 318 321 324 327 330 333 336 339 342 345 348 351 354 357 360 363 366 369 372 375 378 381 384 387 390 393 396 399 402 405 408 411 414 417 420 423 426 429 432 435 438 441 444 447 450 453 456 459 462 465 468 471 474 477 480 483 486 489 492 495 498 501 504 507 510 513 516 519 522 525 528 531 534 537 540 543 546 549 552 555 558 561 564 567 570 573 576 579 582 585 588 591 594 597 600 603 606 609 612 615 618 621 624 627 630 633 636 639 642 645 648 651 654 657 660 663 666 669 672 675 678 681 684 687 690 693 696 699 702 705 708 711 714 717 720 723 726 729 732 735 738 741 744 747 750 753 756 759 762 765 768 771 774 777 780 783 786 789 792 795 798 801 804 807 810 813 816 819 822 825 828 831 834 837 840 843 846 849 852 855 858 861 864 867 870 873 876 879 882 885 888 891 894 897 900 903 906 909 912 915 918 921 924 927 930 933 936 939 942 945 948 951 954 957 960 963 966 969 972 975 978 981 984 987 990 993 996 999 1002 1005 1008 1011 1014 1017 1020 1023 1026 1029 1032 1035 1038 1041 1044 1047 1050 1053 1056 1059 1062 1065 1068 1071 1074 1077 1080 1083 1086 1089 1092 1095 1098 1101 1104 1107 1110 1113 1116 1119 1122 1125 1128 1131 1134 1137 1140 1143 1146 1149 1152 1155 1158 1161 1164 1167 1170 1173 1176 1179 1182 1185 1188 1191 1194 1197 1200 1203 1206 1209 1212 1215 1218 1221 1224 1227 1230 1233 1236 1239 1242 1245 1248 1251 1254 1257 1260 1263 1266 1269 1272 1275 1278 1281 1284 1287 1290 1293 1296 1299 1302 1305 1308 1311 1314 1317 1320 1323 1326 1329 1332 1335 1338 1341 1344 1347 1350 1353 1356 1359 1362 1365 1368 1371 1374 1377 1380 1383 1386 1389 1392 1395 1398 1401 1404 1407 1410 1413 1416 1419 1422 1425 1428 1431 1434 1437 1440 1443 1446 1449 1452 1455 1458 1461 1464 1467 1470 1473 1476 1479 1482 1485 1488 1491 1494 1497 1500 1503 1506 1509 1512 1515 1518 1521 1524 1527 1530 1533 1536 1539 1542 1545 1548 1551 1554 1557 1560 1563 1566 1569 1572 1575 1578 1581 1584 1587 1590 1593 1596 1599 1602 1605 1608 1611 1614 1617 1620 1623 1626 1629 1632 1635 1638 1641 1644 1647 1650 1653 1656 1659 1662 1665 1668 1671 1674 1677 1680 1683 1686 1689 1692 1695 1698 1701 1704 1707 1710 1713 1716 1719 1722 1725 1728 1731 1734 1737 1740 1743 1746 1749 1752 1755 1758 1761 1764 1767 1770 1773 1776 1779 1782 1785 1788 1791 1794 1797 1800 1803 1806 1809 1812 1815 1818 1821 1824 1827 1830 1833 1836 1839 1842 1845 1848 1851 1854 1857 1860 1863 1866 1869 1872 1875 1878 1881 1884 1887 1890 1893 1896 1899 1902 1905 1908 1911 1914 1917 1920 1923 1926 1929 1932 1935 1938 1941 1944 1947 1950 1953 1956 1959 1962 1965 1968 1971 1974 1977 1980 1983 1986 1989 1992 1995 1998 2001 2004 2007 2010 2013 2016 2019 2022 2025 2028 2031 2034 2037 2040 2043 2046 2049 2052 2055 2058 2061 2064 2067 2070 2073 2076 2079 2082 2085 2088 2091 2094 2097 2100 2103 2106 2109 2112 2115 2118 2121 2124 2127 2130 2133 2136 2139 2142 2145 2148 2151 2154 2157 2160 2163 2166 2169 2172 2175 2178 2181 2184 2187 2190 2193 2196 2199 2202 2205 2208 2211 2214 2217 2220 2223 2226 2229 2232 2235 2238 2241 2244 2247 2250 2253 2256 2259 2262 2265 2268 2271 2274 2277 2280 2283 2286 2289 2292 2295 2298 2301 2304 2307 2310 2313 2316 2319 2322 2325 2328 2331 2334 2337 2340 2343 2346 2349 2352 2355 2358 2361 2364 2367 2370 2373 2376 2379 2382 2385 2388 2391 2394 2397 2400 2403 2406 2409 2412 2415 2418 2421 2424 2427 2430 2433 2436 2439 2442 2445 2448 2451 2454 2457 2460 2463 2466 2469 2472 2475 2478 2481 2484 2487 2490 2493 2496 2499 2502 2505 2508 2511 2514 2517 2520 2523 2526 2529 2532 2535 2538 2541 2544 2547 2550 2553 2556 2559 2562 2565 2568 2571 2574 2577 2580 2583 2586 2589 2592 2595 2598 2601 2604 2607 2610 2613 2616 2619 2622 2625 2628 2631 2634 2637 2640 2643 2646 2649 2652 2655 2658 2661 2664 2667 2670 2673 2676 2679 2682 2685 2688 2691 2694 2697 2700 2703 2706 2709 2712 2715 2718 2721 2724 2727 2730 2733 2736 2739 2742 2745 2748 2751 2754 2757 2760 2763 2766 2769 2772 2775 2778 2781 2784 2787 2790 2793 2796 2799 2802 2805 2808 2811 2814 2817 2820 2823 2826 2829 2832 2835 2838 2841 2844 2847 2850 2853 2856 2859 2862 2865 2868 2871 2874 2877 2880 2883 2886 2889 2892 2895 2898 2901 2904 2907 2910 2913 2916 2919 2922 2925 2928 2931 2934 2937 2940 2943 2946 2949 2952 2955 2958 2961 2964 2967 2970 2973 2976 2979 2982 2985 2988 2991 2994 2997 3000 3003 3006 3009 3012 3015 3018 3021 3024 3027 3030 3033 3036 3039 3042 3045 3048 3051 3054 3057 3060 3063 3066 3069 3072 3075 3078 3081 3084 3087 3090 3093 3096 3099 3102 3105 3108 3111 3114 3117 3120 3123 3126 3129 3132 3135 3138 3141 3144 3147 3150 3153 3156 3159 3162 3165 3168 3171 3174 3177 3180 3183 3186 3189 3192 3195 3198 3201 3204 3207 3210 3213 3216 3219 3222 3225 3228 3231 3234 3237 3240 3243 3246 3249 3252 3255 3258 3261 3264 3267 3270 3273 3276 3279 3282 3285 3288 3291 3294 3297 3300 3303 3306 3309 3312 3315 3318 3321 3324 3327 3330 3333 3336 3339 3342 3345 3348 3351 3354 3357 3360 3363 3366 3369 3372 3375 3378 3381 3384 3387 3390 3393 3396 3399 3402 3405 3408 3411 3414 3417 3420 3423 3426 3429 3432 3435 3438 3441 3444 3447 3450 3453 3456 3459 3462 3465 3468 3471 3474 3477 3480 3483 3486 3489 3492 3495 3498 3501 3504 3507 3510 3513 3516 3519 3522 3525 3528 3531 3534 3537 3540 3543 3546 3549 3552 3555 3558 3561 </DataArray>
 <DataArray type="UInt8" Name="types" format="ascii"> 5 5 5 5 5 5 5 5 5 5 5 5 5 5 5 5 5 5 5 5 5 5 5 5 5 5 5 5 5 5 5 5 5 5 5 5 5 5 5 5 5 5 5 5 5 5 5 5 5 5 5 5 5 5 5 5 5 5 5 5 5 5 5 5 5 5 5 5 5 5 5 5 5 5 5 5 5 5 5 5 5 5 5 5 5 5 5 5 5 5 5 5 5 5 5 5 5 5 5 5 5 5 5 5 5 5 5 5 5 5 5 5 5 5 5 5 5 5 5 5 5 5 5 5 5 5 5 5 5 5 5 5 5 5 5 5 5 5 5 5 5 5 5 5 5 5 5 5 5 5 5 5 5 5 5 5 5 5 5 5 5 5 5 5 5 5 5 5 5 5 5 5 5 5 5 5 5 5 5 5 5 5 5 5 5 5 5 5 5 5 5 5 5 5 5 5 5 5 5 5 5 5 5 5 5 5 5 5 5 5 5 5 5 5 5 5 5 5 5 5 5 5 5 5 5 5 5 5 5 5 5 5 5 5 5 5 5 5 5 5 5 5 5 5 5 5 5 5 5 5 5 5 5 5 5 5 5 5 5 5 5 5 5 5 5 5 5 5 5 5 5 5 5 5 5 5 5 5 5 5 5 5 5 5 5 5 5 5 5 5 5 5 5 5 5 5 5 5 5 5 5 5 5 5 5 5 5 5 5 5 5 5 5 5 5 5 5 5 5 5 5 5 5 5 5 5 5 5 5 5 5 5 5 5 5 5 5 5 5 5 5 5 5 5 5 5 5 5 5 5 5 5 5 5 5 5 5 5 5 5 5 5 5 5 5 5 5 5 5 5 5 5 5 5 5 5 5 5 5 5 5 5 5 5 5 5 5 5 5 5 5 5 5 5 5 5 5 5 5 5 5 5 5 5 5 5 5 5 5 5 5 5 5 5 5 5 5 5 5 5 5 5 5 5 5 5 5 5 5 5 5 5 5 5 5 5 5 5 5 5 5 5 5 5 5 5 5 5 5 5 5 5 5 5 5 5 5 5 5 5 5 5 5 5 5 5 5 5 5 5 5 5 5 5 5 5 5 5 5 5 5 5 5 5 5 5 5 5 5 5 5 5 5 5 5 5 5 5 5 5 5 5 5 5 5 5 5 5 5 5 5 5 5 5 5 5 5 5 5 5 5 5 5 5 5 5 5 5 5 5 5 5 5 5 5 5 5 5 5 5 5 5 5 5 5 5 5 5 5 5 5 5 5 5 5 5 5 5 5 5 5 5 5 5 5 5 5 5 5 5 5 5 5 5 5 5 5 5 5 5 5 5 5 5 5 5 5 5 5 5 5 5 5 5 5 5 5 5 5 5 5 5 5 5 5 5 5 5 5 5 5 5 5 5 5 5 5 5 5 5 5 5 5 5 5 5 5 5 5 5 5 5 5 5 5 5 5 5 5 5 5 5 5 5 5 5 5 5 5 5 5 5 5 5 5 5 5 5 5 5 5 5 5 5 5 5 5 5 5 5 5 5 5 5 5 5 5 5 5 5 5 5 5 5 5 5 5 5 5 5 5 5 5 5 5 5 5 5 5 5 5 5 5 5 5 5 5 5 5 5 5 5 5 5 5 5 5 5 5 5 5 5 5 5 5 5 5 5 5 5 5 5 5 5 5 5 5 5 5 5 5 5 5 5 5 5 5 5 5 5 5 5 5 5 5 5 5 5 5 5 5 5 5 5 5 5 5 5 5 5 5 5 5 5 5 5 5 5 5 5 5 5 5 5 5 5 5 5 5 5 5 5 5 5 5 5 5 5 5 5 5 5 5 5 5 5 5 5 5 5 5 5 5 5 5 5 5 5 5 5 5 5 5 5 5 5 5 5 5 5 5 5 5 5 5 5 5 5 5 5 5 5 5 5 5 5 5 5 5 5 5 5 5 5 5 5 5 5 5 5 5 5 5 5 5 5 5 5 5 5 5 5 5 5 5 5 5 5 5 5 5 5 5 5 5 5 5 5 5 5 5 5 5 5 5 5 5 5 5 5 5 5 5 5 5 5 5 5 5 5 5 5 5 5 5 5 5 5 5 5 5 5 5 5 5 5 5 5 5 5 5 5 5 5 5 5 5 5 5 5 5 5 5 5 5 5 5 5 5 5 5 5 5 5 5 5 5 5 5 5 5 5 5 5 5 5 5 5 5 5 5 5 5 5 5 5 5 5 5 5 5 5 5 5 5 5 5 5 5 5 5 5 5 5 5 5 5 5 5 5 5 5 5 5 5 5 5 5 5 5 5 5 5 5 5 5 5 5 5 5 5 5 5 5 5 5 5 5 5 5 5 5 5 5 5 5 5 5 5 5 5 5 5 5 5 5 5 5 5 5 5 5 5 5 5 5 5 5 5 5 5 5 5 5 5 5 5 5 5 5 5 5 5 5 5 5 5 5 5 5 5 5 5 5 5 5 5 5 5 5 5 5 5 5 5 5 5 5 5 5 5 5 5 5 5 5 5 5 5 5 5 5 5 5 5 5 5 5 5 5 5 5 5 5 5 5 5 5 5 5 5 5 5 5 5 5 5 5 5 5 5 5 5 5 5 5 5 5 5 5 5 5 5 5 5 5 5 5 5 5 5 5 5 5 5 5 5 5 5 5 5 5 5 5 5 5 5 5 5 5 5 5 5 5 5 5 5 </DataArray>
</Cells>
<PointData Scalars="" Vectors="DisplacementVector " Tensors="IST_StressTensor IST_StrainTensor " >
 <DataArray type="Float64" Name="DisplacementVector" NumberOfComponents="3" format="ascii"> -5.767115e-06 4.480631e-05 0.000000e+00 7.421977e-06 5.185801e-05 0.000000e+00 7.348655e-06 2.717046e-05 0.000000e+00 -2.403978e-05 5.186988e-05 0.000000e+00 8.933286e-06 2.492146e-05 0.000000e+00 -1.636607e-05 -7.170608e-06 0.000000e+00 6.409677e-06 0.000000e+00 0.000000e+00 0.000000e+00 0.000000e+00 0.000000e+00 -7.276593e-06 4.461715e-05 0.000000e+00 -8.624165e-06 4.413065e-05 0.000000e+00 -1.001872e-05 4.322978e-05 0.000000e+00 -1.124038e-05 4.192544e-05 0.000000e+00 -1.200069e-05 4.062260e-05 0.000000e+00 -1.254300e-05 3.894292e-05 0.000000e+00 -1.270576e-05 3.736240e-05 0.000000e+00 -1.255392e-05 3.569634e-05 0.000000e+00 -1.209901e-05 3.412005e-05 0.000000e+00 -1.126473e-05 3.251811e-05 0.000000e+00 -1.013571e-05 3.117670e-05 0.000000e+00 -8.769474e-06 3.017667e-05 0.000000e+00 -7.386754e-06 2.962780e-05 0.000000e+00 -5.914130e-06 2.945541e-05 0.000000e+00 -4.398711e-06 2.968480e-05 0.000000e+00 -2.930148e-06 3.031858e-05 0.000000e+00 -1.563723e-06 3.134637e-05 0.000000e+00 -4.649036e-07 3.261428e-05 0.000000e+00 4.338541e-07 3.421415e-05 0.000000e+00 9.997872e-07 3.608735e-05 0.000000e+00 1.139515e-06 3.778828e-05 0.000000e+00 9.469708e-07 3.936005e-05 0.000000e+00 3.668282e-07 4.098338e-05 0.000000e+00 -4.471623e-07 4.225747e-05 0.000000e+00 -1.545724e-06 4.335035e-05 0.000000e+00 -2.790185e-06 4.413269e-05 0.000000e+00 -4.312789e-06 4.465814e-05 0.000000e+00 -1.207719e-05 -7.099603e-06 0.000000e+00 -7.585943e-06 -6.540146e-06 0.000000e+00 -3.438035e-06 -4.984948e-06 0.000000e+00 -7.839551e-07 -2.541291e-06 0.000000e+00 7.606943e-06 7.007056e-06 0.000000e+00 7.880931e-06 1.040140e-05 0.000000e+00 8.147728e-06 1.324557e-05 0.000000e+00 8.378915e-06 1.571643e-05 0.000000e+00 8.570731e-06 1.791682e-05 0.000000e+00 8.724362e-06 1.994959e-05 0.000000e+00 8.836815e-06 2.179061e-05 0.000000e+00 8.907775e-06 2.343974e-05 0.000000e+00 -2.404861e-05 4.800511e-05 0.000000e+00 -2.406870e-05 4.485408e-05 0.000000e+00 -2.410835e-05 4.116877e-05 0.000000e+00 -2.413022e-05 3.770168e-05 0.000000e+00 -2.410158e-05 3.446880e-05 0.000000e+00 -2.397043e-05 3.081397e-05 0.000000e+00 -2.363840e-05 2.643513e-05 0.000000e+00 -2.313312e-05 2.231971e-05 0.000000e+00 -2.236375e-05 1.795773e-05 0.000000e+00 -2.130877e-05 1.351405e-05 0.000000e+00 -2.000651e-05 9.193593e-06 0.000000e+00 -1.859670e-05 5.165441e-06 0.000000e+00 -1.715952e-05 9.838665e-07 0.000000e+00 -1.645299e-05 -2.894129e-06 0.000000e+00 8.106553e-06 2.602828e-05 0.000000e+00 4.013167e-06 5.185272e-05 0.000000e+00 1.144100e-06 5.182869e-05 0.000000e+00 -1.555907e-06 5.178988e-05 0.000000e+00 -4.057530e-06 5.175540e-05 0.000000e+00 -6.124054e-06 5.173964e-05 0.000000e+00 -8.423206e-06 5.174313e-05 0.000000e+00 -1.074022e-05 5.176369e-05 0.000000e+00 -1.333789e-05 5.179897e-05 0.000000e+00 -1.625775e-05 5.183517e-05 0.000000e+00 -1.982127e-05 5.186245e-05 0.000000e+00 7.528986e-06 2.881951e-05 0.000000e+00 7.653451e-06 3.082854e-05 0.000000e+00 7.719702e-06 3.323394e-05 0.000000e+00 7.713236e-06 3.609576e-05 0.000000e+00 7.635184e-06 3.911779e-05 0.000000e+00 7.530822e-06 4.231913e-05 0.000000e+00 7.455642e-06 4.552717e-05 0.000000e+00 7.426561e-06 4.856879e-05 0.000000e+00 2.199386e-08 0.000000e+00 0.000000e+00 6.128683e-08 0.000000e+00 0.000000e+00 1.087834e-07 0.000000e+00 0.000000e+00 1.601201e-07 0.000000e+00 0.000000e+00 2.138889e-07 0.000000e+00 0.000000e+00 2.687162e-07 0.000000e+00 0.000000e+00 3.236871e-07 0.000000e+00 0.000000e+00 3.788983e-07 0.000000e+00 0.000000e+00 4.341759e-07 0.000000e+00 0.000000e+00 4.898998e-07 0.000000e+00 0.000000e+00 5.459012e-07 0.000000e+00 0.000000e+00 6.025380e-07 0.000000e+00 0.000000e+00 6.599815e-07 0.000000e+00 0.000000e+00 7.187786e-07 0.000000e+00 0.000000e+00 7.792234e-07 0.000000e+00 0.000000e+00 8.409527e-07 0.000000e+00 0.000000e+00 9.044029e-07 0.000000e+00 0.000000e+00 9.700892e-07 0.000000e+00 0.000000e+00 1.037922e-06 0.000000e+00 0.000000e+00 1.108415e-06 0.000000e+00 0.000000e+00 1.181585e-06 0.000000e+00 0.000000e+00 1.257352e-06 0.000000e+00 0.000000e+00 1.336243e-06 0.000000e+00 0.000000e+00 1.418681e-06 0.000000e+00 0.000000e+00 1.504804e-06 0.000000e+00 0.000000e+00 1.594787e-06 0.000000e+00 0.000000e+00 1.688824e-06 0.000000e+00 0.000000e+00 1.786751e-06 0.000000e+00 0.000000e+00 1.889076e-06 0.000000e+00 0.000000e+00 1.996458e-06 0.000000e+00 0.000000e+00 2.108790e-06 0.000000e+00 0.000000e+00 2.225953e-06 0.000000e+00 0.000000e+00 2.348379e-06 0.000000e+00 0.000000e+00 2.476630e-06 0.000000e+00 0.000000e+00 2.611657e-06 0.000000e+00 0.000000e+00 2.753548e-06 0.000000e+00 0.000000e+00 2.902210e-06 0.000000e+00 0.000000e+00 3.058784e-06 0.000000e+00 0.000000e+00 3.224510e-06 0.000000e+00 0.000000e+00 3.399066e-06 0.000000e+00 0.000000e+00 3.584469e-06 0.000000e+00 0.000000e+00 3.782070e-06 0.000000e+00 0.000000e+00 3.994472e-06 0.000000e+00 0.000000e+00 4.223801e-06 0.000000e+00 0.000000e+00 4.474965e-06 0.000000e+00 0.000000e+00 4.754088e-06 0.000000e+00 0.000000e+00 5.071401e-06 0.000000e+00 0.000000e+00 5.445487e-06 0.000000e+00 0.000000e+00 5.897454e-06 0.000000e+00 0.000000e+00 1.987507e-11 -2.355724e-07 0.000000e+00 1.206308e-07 -1.913709e-07 0.000000e+00 2.304862e-07 -1.804709e-07 0.000000e+00 3.406376e-07 -1.656656e-07 0.000000e+00 4.516470e-07 -1.492859e-07 0.000000e+00 5.650748e-07 -1.319482e-07 0.000000e+00 6.816377e-07 -1.104920e-07 0.000000e+00 8.009320e-07 -9.680488e-08 0.000000e+00 9.260144e-07 -8.614799e-08 0.000000e+00 1.061349e-06 -7.605072e-08 0.000000e+00 1.205169e-06 -6.472861e-08 0.000000e+00 1.366274e-06 -5.207440e-08 0.000000e+00 1.534175e-06 -4.249513e-08 0.000000e+00 1.724423e-06 -2.976024e-08 0.000000e+00 1.924604e-06 -1.839332e-08 0.000000e+00 2.156384e-06 -5.788426e-09 0.000000e+00 2.399214e-06 8.207602e-09 0.000000e+00 2.666435e-06 2.170194e-08 0.000000e+00 2.957562e-06 3.407297e-08 0.000000e+00 3.292449e-06 5.655260e-08 0.000000e+00 3.656593e-06 8.050956e-08 0.000000e+00 4.065219e-06 1.020927e-07 0.000000e+00 4.534203e-06 1.503851e-07 0.000000e+00 5.071455e-06 2.518794e-07 0.000000e+00 5.548410e-06 6.889529e-07 0.000000e+00 5.975771e-06 1.167026e-05 0.000000e+00 6.439645e-06 1.641887e-05 0.000000e+00 6.989529e-06 2.077577e-05 0.000000e+00 7.599087e-06 2.437989e-05 0.000000e+00 6.512461e-06 2.544075e-05 0.000000e+00 6.181104e-06 2.820774e-05 0.000000e+00 5.802628e-06 3.202568e-05 0.000000e+00 5.778581e-06 3.813039e-05 0.000000e+00 5.297003e-06 4.377184e-05 0.000000e+00 3.028608e-06 4.938182e-05 0.000000e+00 -2.438241e-06 4.960215e-05 0.000000e+00 -7.247809e-06 4.961807e-05 0.000000e+00 -1.220991e-05 4.953413e-05 0.000000e+00 -1.773366e-05 4.858259e-05 0.000000e+00 -2.102303e-05 4.752716e-05 0.000000e+00 -2.132949e-05 4.320208e-05 0.000000e+00 -2.146560e-05 3.605615e-05 0.000000e+00 -2.066731e-05 2.868847e-05 0.000000e+00 -1.932868e-05 1.988533e-05 0.000000e+00 -1.721322e-05 1.072967e-05 0.000000e+00 -1.499014e-05 2.412371e-06 0.000000e+00 -1.429199e-05 -6.407188e-07 0.000000e+00 -1.306898e-05 -3.731164e-06 0.000000e+00 -9.796732e-06 -4.880749e-06 0.000000e+00 -4.888973e-06 4.622203e-05 0.000000e+00 -2.991789e-06 4.590574e-05 0.000000e+00 -1.295701e-06 4.502265e-05 0.000000e+00 1.045080e-08 4.374738e-05 0.000000e+00 1.194974e-06 4.228702e-05 0.000000e+00 2.111960e-06 4.058257e-05 0.000000e+00 2.460445e-06 3.863177e-05 0.000000e+00 2.398188e-06 3.666553e-05 0.000000e+00 2.027151e-06 3.458709e-05 0.000000e+00 1.273171e-06 3.255288e-05 0.000000e+00 -1.640751e-08 3.074057e-05 0.000000e+00 -1.484845e-06 2.932707e-05 0.000000e+00 -3.242997e-06 2.833567e-05 0.000000e+00 -5.046237e-06 2.779827e-05 0.000000e+00 -6.785137e-06 2.778403e-05 0.000000e+00 -8.556560e-06 2.820525e-05 0.000000e+00 -1.026630e-05 2.919819e-05 0.000000e+00 -1.174066e-05 3.061639e-05 0.000000e+00 -1.288513e-05 3.236431e-05 0.000000e+00 -1.361298e-05 3.429720e-05 0.000000e+00 -1.400552e-05 3.632187e-05 0.000000e+00 -1.395393e-05 3.823369e-05 0.000000e+00 -1.355476e-05 4.021266e-05 0.000000e+00 -1.281565e-05 4.209551e-05 0.000000e+00 -1.166174e-05 4.372043e-05 0.000000e+00 -1.007983e-05 4.490016e-05 0.000000e+00 -8.379222e-06 4.574874e-05 0.000000e+00 -6.702304e-06 4.616262e-05 0.000000e+00 6.160560e-08 -2.131291e-07 0.000000e+00 1.752445e-07 -1.836912e-07 0.000000e+00 2.867761e-07 -1.757878e-07 0.000000e+00 3.970156e-07 -1.558362e-07 0.000000e+00 5.077192e-07 -1.455615e-07 0.000000e+00 6.235298e-07 -1.186803e-07 0.000000e+00 7.395855e-07 -1.032959e-07 0.000000e+00 8.642740e-07 -9.070091e-08 0.000000e+00 9.931582e-07 -8.115469e-08 0.000000e+00 1.129377e-06 -7.123720e-08 0.000000e+00 1.285663e-06 -5.736551e-08 0.000000e+00 1.448604e-06 -4.721381e-08 0.000000e+00 1.624255e-06 -3.654910e-08 0.000000e+00 1.823308e-06 -2.356036e-08 0.000000e+00 2.037932e-06 -1.252063e-08 0.000000e+00 2.274047e-06 1.166159e-09 0.000000e+00 2.524919e-06 1.478355e-08 0.000000e+00 2.814049e-06 2.881889e-08 0.000000e+00 3.121192e-06 4.105585e-08 0.000000e+00 3.465434e-06 6.873377e-08 0.000000e+00 3.851408e-06 9.216305e-08 0.000000e+00 4.302369e-06 1.181187e-07 0.000000e+00 4.799779e-06 1.909366e-07 0.000000e+00 5.340879e-06 3.722163e-07 0.000000e+00 5.720459e-06 9.208610e-06 0.000000e+00 6.263363e-06 1.411739e-05 0.000000e+00 6.716830e-06 1.872481e-05 0.000000e+00 7.257756e-06 2.262050e-05 0.000000e+00 5.429020e-06 2.672163e-05 0.000000e+00 5.995294e-06 2.989157e-05 0.000000e+00 5.591518e-06 3.501144e-05 0.000000e+00 5.590878e-06 4.101446e-05 0.000000e+00 4.715101e-06 4.669264e-05 0.000000e+00 6.177524e-08 4.951828e-05 0.000000e+00 -4.910592e-06 4.971646e-05 0.000000e+00 -9.583347e-06 4.924263e-05 0.000000e+00 -1.488618e-05 4.912279e-05 0.000000e+00 -1.999308e-05 2.431981e-05 0.000000e+00 -2.142354e-05 3.949508e-05 0.000000e+00 -2.124376e-05 3.260434e-05 0.000000e+00 -1.841504e-05 1.535682e-05 0.000000e+00 -1.570484e-05 6.425236e-06 0.000000e+00 -6.878270e-06 -4.437554e-06 0.000000e+00 2.234847e-07 -3.831132e-07 0.000000e+00 3.380095e-07 -3.339617e-07 0.000000e+00 7.409328e-07 -2.125323e-07 0.000000e+00 6.258613e-07 -2.314290e-07 0.000000e+00 2.785903e-07 -3.654336e-07 0.000000e+00 6.871080e-07 -2.140067e-07 0.000000e+00 5.648397e-07 -2.660594e-07 0.000000e+00 1.290626e-06 -1.117400e-07 0.000000e+00 1.127264e-06 -1.461248e-07 0.000000e+00 4.231028e-06 2.840511e-07 0.000000e+00 1.209198e-06 -1.262450e-07 0.000000e+00 1.055777e-06 -1.565925e-07 0.000000e+00 1.627568e-06 -7.149804e-08 0.000000e+00 1.833701e-06 -4.183505e-08 0.000000e+00 1.733150e-06 -5.612333e-08 0.000000e+00 1.532546e-06 -8.450628e-08 0.000000e+00 2.164619e-06 -3.803470e-09 0.000000e+00 2.842295e-06 7.120297e-08 0.000000e+00 2.408782e-06 2.551867e-08 0.000000e+00 2.687066e-06 5.918507e-08 0.000000e+00 3.854005e-06 2.126059e-07 0.000000e+00 3.449938e-06 1.651690e-07 0.000000e+00 2.545376e-06 4.162473e-08 0.000000e+00 3.651839e-06 1.914866e-07 0.000000e+00 3.275005e-06 1.353009e-07 0.000000e+00 4.072614e-06 2.184667e-07 0.000000e+00 4.404214e-06 1.506665e-05 0.000000e+00 4.841530e-06 1.080372e-06 0.000000e+00 5.001570e-06 1.971695e-05 0.000000e+00 4.226704e-06 1.273782e-05 0.000000e+00 3.928268e-06 1.038862e-05 0.000000e+00 4.769690e-06 6.932074e-07 0.000000e+00 4.648806e-06 1.742461e-05 0.000000e+00 5.240356e-06 6.933568e-06 0.000000e+00 4.033216e-06 3.040931e-05 0.000000e+00 5.872022e-06 2.372090e-05 0.000000e+00 4.533279e-06 2.837030e-05 0.000000e+00 -1.571317e-05 4.623586e-05 0.000000e+00 3.440497e-06 3.284863e-05 0.000000e+00 -1.135510e-05 4.768878e-05 0.000000e+00 -3.724042e-06 4.778080e-05 0.000000e+00 3.318269e-06 4.233959e-05 0.000000e+00 3.032554e-06 4.498435e-05 0.000000e+00 1.165543e-07 -3.738029e-07 0.000000e+00 1.679154e-06 4.732430e-05 0.000000e+00 -1.172513e-06 4.723566e-05 0.000000e+00 -1.841687e-05 3.110055e-05 0.000000e+00 -1.333360e-05 4.704163e-05 0.000000e+00 -1.902356e-05 3.451337e-05 0.000000e+00 -1.721732e-05 2.692689e-05 0.000000e+00 -1.862700e-05 4.501080e-05 0.000000e+00 -1.573765e-05 1.745629e-05 0.000000e+00 -1.226590e-05 3.507937e-06 0.000000e+00 -1.921127e-05 3.757866e-05 0.000000e+00 -1.661048e-05 2.188826e-05 0.000000e+00 -1.197606e-05 8.989577e-07 0.000000e+00 -8.194320e-06 -3.326372e-06 0.000000e+00 -1.144688e-05 -1.429114e-06 0.000000e+00 1.721675e-07 -3.761217e-07 0.000000e+00 2.288657e-06 1.149151e-08 0.000000e+00 5.353002e-06 2.198626e-06 0.000000e+00 -1.882541e-05 4.113438e-05 0.000000e+00 -5.259271e-06 -4.730457e-06 0.000000e+00 8.689444e-07 -1.769147e-07 0.000000e+00 6.121043e-07 4.545179e-05 0.000000e+00 1.682285e-06 4.381253e-05 0.000000e+00 3.924105e-06 3.969330e-05 0.000000e+00 3.569897e-06 3.531764e-05 0.000000e+00 1.920086e-06 3.056225e-05 0.000000e+00 -1.842000e-06 2.711537e-05 0.000000e+00 -5.975231e-06 2.581558e-05 0.000000e+00 -1.005537e-05 2.674793e-05 0.000000e+00 -1.200856e-05 2.825578e-05 0.000000e+00 -1.364140e-05 3.029546e-05 0.000000e+00 -1.474932e-05 3.251024e-05 0.000000e+00 -1.553178e-05 3.725469e-05 0.000000e+00 -1.522334e-05 3.947040e-05 0.000000e+00 -1.469419e-05 4.177001e-05 0.000000e+00 -1.172312e-05 4.570970e-05 0.000000e+00 -9.795162e-06 4.686759e-05 0.000000e+00 5.676156e-06 4.520019e-06 0.000000e+00 3.519925e-06 7.780275e-06 0.000000e+00 -4.905886e-06 -3.618413e-06 0.000000e+00 4.016271e-06 5.514652e-06 0.000000e+00 -1.846980e-08 -4.680726e-07 0.000000e+00 4.473875e-07 -3.116822e-07 0.000000e+00 1.367565e-06 -1.031685e-07 0.000000e+00 8.046491e-07 -1.940146e-07 0.000000e+00 1.942632e-06 -3.067296e-08 0.000000e+00 2.991269e-06 7.480842e-08 0.000000e+00 4.831529e-06 1.840730e-06 0.000000e+00 5.395371e-06 2.175057e-05 0.000000e+00 4.428742e-06 3.661008e-07 0.000000e+00 -1.473023e-05 1.300844e-05 0.000000e+00 4.637627e-06 2.488062e-05 0.000000e+00 -3.677679e-06 -3.862745e-06 0.000000e+00 -6.173113e-06 -3.230868e-06 0.000000e+00 3.951724e-07 -3.135354e-07 0.000000e+00 -1.246026e-05 6.175179e-06 0.000000e+00 4.335273e-06 3.401270e-06 0.000000e+00 -1.040440e-05 -3.082991e-06 0.000000e+00 -5.867423e-06 4.789614e-05 0.000000e+00 9.311237e-07 -1.654194e-07 0.000000e+00 -7.967450e-06 4.760302e-05 0.000000e+00 -1.374134e-05 4.428956e-05 0.000000e+00 -1.539605e-05 3.489961e-05 0.000000e+00 -1.586057e-05 3.031163e-05 0.000000e+00 -8.018318e-06 2.599142e-05 0.000000e+00 -3.900625e-06 2.610634e-05 0.000000e+00 2.915368e-07 2.842888e-05 0.000000e+00 4.051544e-06 3.736644e-05 0.000000e+00 5.246973e-08 -4.096281e-07 0.000000e+00 5.049622e-07 -2.931544e-07 0.000000e+00 9.970426e-07 -1.576601e-07 0.000000e+00 1.448859e-06 -9.518936e-08 0.000000e+00 2.043240e-06 -1.938405e-08 0.000000e+00 3.117638e-06 1.042078e-07 0.000000e+00 4.621937e-06 4.837387e-07 0.000000e+00 -1.372288e-05 9.103822e-06 0.000000e+00 -2.707028e-06 -3.109755e-06 0.000000e+00 -3.427285e-06 -2.979901e-06 0.000000e+00 -2.453609e-06 -3.514496e-06 0.000000e+00 -2.193219e-06 -2.476155e-06 0.000000e+00 -1.833141e-06 -2.680461e-06 0.000000e+00 1.888204e-07 -5.977837e-07 0.000000e+00 1.017853e-06 -2.427843e-07 0.000000e+00 3.170438e-06 2.382762e-07 0.000000e+00 1.496830e-06 -1.230045e-07 0.000000e+00 -1.144250e-05 1.103462e-05 0.000000e+00 2.684637e-06 1.216302e-07 0.000000e+00 2.553476e-06 1.611438e-05 0.000000e+00 7.075848e-07 -3.471130e-07 0.000000e+00 2.365670e-06 1.376580e-05 0.000000e+00 3.521725e-06 2.659072e-05 0.000000e+00 3.384249e-06 2.091737e-05 0.000000e+00 4.191860e-06 2.095783e-06 0.000000e+00 3.910928e-06 2.302339e-05 0.000000e+00 2.267980e-06 1.145108e-05 0.000000e+00 4.208923e-06 1.365940e-06 0.000000e+00 2.881845e-06 1.860981e-05 0.000000e+00 3.216108e-06 4.306582e-06 0.000000e+00 -9.754540e-06 4.563568e-06 0.000000e+00 -1.679458e-05 3.325145e-05 0.000000e+00 -1.233356e-05 1.536681e-05 0.000000e+00 -4.491101e-06 -2.499323e-06 0.000000e+00 3.552364e-07 -5.034941e-07 0.000000e+00 5.461141e-07 -3.877904e-07 0.000000e+00 -9.382040e-06 -1.820511e-07 0.000000e+00 2.596478e-06 2.843307e-05 0.000000e+00 1.937443e-06 9.244681e-06 0.000000e+00 -1.722038e-05 3.601583e-05 0.000000e+00 -9.519922e-06 2.417788e-05 0.000000e+00 -4.919825e-06 2.375422e-05 0.000000e+00 -6.664195e-06 -2.255260e-06 0.000000e+00 -8.898301e-06 -1.891489e-06 0.000000e+00 -4.247262e-07 2.601733e-05 0.000000e+00 -2.196621e-06 2.423024e-05 0.000000e+00 -7.223884e-06 2.377085e-05 0.000000e+00 -1.188196e-05 2.532099e-05 0.000000e+00 -1.419868e-05 2.748561e-05 0.000000e+00 -1.717087e-05 3.857751e-05 0.000000e+00 -1.651714e-05 4.088954e-05 0.000000e+00 -1.284587e-06 -2.095784e-06 0.000000e+00 -2.727486e-06 -2.195696e-06 0.000000e+00 -9.069458e-06 2.008489e-06 0.000000e+00 2.541380e-07 -5.466934e-07 0.000000e+00 1.997138e-06 -1.646944e-08 0.000000e+00 9.542150e-07 -2.535196e-07 0.000000e+00 6.552258e-07 -3.403237e-07 0.000000e+00 1.260281e-06 -1.652684e-07 0.000000e+00 2.520362e-06 9.011564e-08 0.000000e+00 3.013073e-06 1.864304e-07 0.000000e+00 4.214660e-06 9.541464e-07 0.000000e+00 3.555359e-06 3.484902e-07 0.000000e+00 1.710933e-06 -7.562814e-08 0.000000e+00 2.390464e-06 5.809219e-08 0.000000e+00 1.197054e-06 -1.744859e-07 0.000000e+00 3.835616e-06 3.841396e-07 0.000000e+00 3.181355e-07 -4.845742e-07 0.000000e+00 2.578751e-06 5.852290e-06 0.000000e+00 3.354503e-06 2.945981e-07 0.000000e+00 -1.329352e-05 1.965787e-05 0.000000e+00 4.052936e-07 -4.968743e-07 0.000000e+00 2.259304e-06 3.189441e-08 0.000000e+00 -1.638716e-05 4.330768e-05 0.000000e+00 2.890029e-06 1.290044e-07 0.000000e+00 1.486180e-06 2.638183e-05 0.000000e+00 1.408937e-06 -1.413056e-07 0.000000e+00 2.126743e-06 8.349274e-09 0.000000e+00 -1.124609e-05 2.205232e-05 0.000000e+00 6.158640e-07 -3.250040e-07 0.000000e+00 1.268690e-07 -6.231339e-07 0.000000e+00 8.486601e-07 -2.687256e-07 0.000000e+00 4.697189e-07 -4.567050e-07 0.000000e+00 -1.049784e-05 7.513617e-06 0.000000e+00 1.819073e-06 -5.363633e-08 0.000000e+00 3.995196e-06 5.227409e-07 0.000000e+00 1.477748e-06 7.303023e-06 0.000000e+00 -6.020615e-08 -7.245336e-07 0.000000e+00 7.959914e-07 -2.748275e-07 0.000000e+00 9.522672e-08 -5.654555e-07 0.000000e+00 -1.073357e-06 -2.197611e-06 0.000000e+00 3.667124e-08 -5.905436e-07 0.000000e+00 1.603303e-06 -9.778591e-08 0.000000e+00 1.101875e-06 -2.141630e-07 0.000000e+00 -1.407725e-05 2.374222e-05 0.000000e+00 -1.569979e-06 -2.773568e-06 0.000000e+00 -1.541744e-06 -1.888466e-06 0.000000e+00 -8.591303e-07 -2.270359e-06 0.000000e+00 -5.354540e-07 -1.749386e-06 0.000000e+00 -4.291086e-07 -1.675397e-06 0.000000e+00 -1.870016e-07 -1.318529e-06 0.000000e+00 -1.720114e-07 -1.267404e-06 0.000000e+00 -2.215702e-07 -1.344803e-06 0.000000e+00 3.696368e-08 -9.186961e-07 0.000000e+00 -4.105264e-07 -1.721102e-06 0.000000e+00 -1.670949e-07 -1.101912e-06 0.000000e+00 -6.357680e-07 -1.709103e-06 0.000000e+00 -9.059679e-09 -8.469124e-07 0.000000e+00 9.133502e-07 -2.413475e-07 0.000000e+00 1.334886e-06 -1.541836e-07 0.000000e+00 -8.932007e-06 1.322376e-05 0.000000e+00 7.313382e-07 -3.844537e-07 0.000000e+00 1.892197e-06 -3.987077e-08 0.000000e+00 4.131217e-06 6.829268e-07 0.000000e+00 2.621750e-06 2.446266e-05 0.000000e+00 -3.265559e-06 -1.679675e-06 0.000000e+00 6.442392e-07 1.727084e-05 0.000000e+00 3.552344e-06 2.180893e-06 0.000000e+00 -9.934948e-06 1.798472e-05 0.000000e+00 -5.111703e-06 -1.539626e-06 0.000000e+00 3.331201e-06 5.825779e-07 0.000000e+00 3.620334e-06 3.035562e-06 0.000000e+00 3.049088e-07 2.407161e-05 0.000000e+00 1.509560e-07 -7.636890e-07 0.000000e+00 -1.740113e-06 -3.182966e-06 0.000000e+00 6.795399e-07 1.036157e-05 0.000000e+00 2.145063e-06 4.396011e-06 0.000000e+00 2.778246e-08 -1.012711e-06 0.000000e+00 -7.195394e-06 -9.899499e-07 0.000000e+00 -3.843951e-06 2.148574e-05 0.000000e+00 8.557595e-08 -9.730550e-07 0.000000e+00 2.354632e-07 1.471249e-05 0.000000e+00 1.195200e-06 -2.166047e-07 0.000000e+00 1.358647e-06 5.677544e-06 0.000000e+00 8.114529e-07 -3.548950e-07 0.000000e+00 -8.224385e-06 9.071930e-06 0.000000e+00 2.830144e-06 2.997777e-07 0.000000e+00 2.851390e-06 3.176183e-06 0.000000e+00 2.282687e-06 1.164054e-07 0.000000e+00 1.906058e-06 6.244760e-10 0.000000e+00 3.592157e-06 1.563565e-06 0.000000e+00 9.463793e-07 -3.205897e-07 0.000000e+00 3.700260e-07 1.230702e-05 0.000000e+00 -1.012534e-06 2.158967e-05 0.000000e+00 1.091579e-06 -2.543221e-07 0.000000e+00 1.240754e-07 8.488657e-06 0.000000e+00 1.767203e-06 2.233216e-05 0.000000e+00 3.587074e-06 6.445816e-07 0.000000e+00 1.187003e-06 1.995707e-05 0.000000e+00 2.205882e-07 -7.188328e-07 0.000000e+00 3.116711e-06 4.896291e-07 0.000000e+00 1.566608e-06 -1.089876e-07 0.000000e+00 2.207921e-06 6.620986e-08 0.000000e+00 8.645420e-07 -3.525117e-07 0.000000e+00 4.353869e-07 -5.709980e-07 0.000000e+00 1.318060e-06 -1.846176e-07 0.000000e+00 -1.726629e-07 -8.158546e-07 0.000000e+00 -2.584911e-07 -1.320685e-06 0.000000e+00 5.814759e-07 -5.142160e-07 0.000000e+00 5.437167e-07 -4.602047e-07 0.000000e+00 -7.790486e-06 5.865929e-06 0.000000e+00 1.426555e-06 -1.486591e-07 0.000000e+00 -6.218133e-06 2.142208e-05 0.000000e+00 3.021928e-06 3.685026e-07 0.000000e+00 2.761917e-07 -6.918011e-07 0.000000e+00 1.676812e-06 -7.770873e-08 0.000000e+00 -7.207611e-06 3.426907e-06 0.000000e+00 -7.659808e-07 -1.615477e-06 0.000000e+00 1.239539e-06 -2.093029e-07 0.000000e+00 -5.460371e-06 4.523845e-06 0.000000e+00 5.654846e-07 -4.889672e-07 0.000000e+00 -7.226132e-06 4.319322e-07 0.000000e+00 1.775046e-06 -4.001323e-08 0.000000e+00 2.709490e-06 2.055355e-07 0.000000e+00 -1.946127e-06 -1.626885e-06 0.000000e+00 6.251102e-07 -5.016664e-07 0.000000e+00 -3.725746e-06 -9.104294e-07 0.000000e+00 3.050591e-07 -7.133795e-07 0.000000e+00 -1.932286e-06 1.594339e-05 0.000000e+00 -9.949531e-07 1.039118e-05 0.000000e+00 2.050943e-06 3.708941e-08 0.000000e+00 -6.339745e-06 1.628227e-06 0.000000e+00 -1.696638e-06 1.286428e-05 0.000000e+00 5.971534e-08 -9.998690e-07 0.000000e+00 -8.666879e-06 2.148146e-05 0.000000e+00 1.639642e-06 -1.201891e-08 0.000000e+00 -2.865777e-07 -1.228676e-06 0.000000e+00 -8.707775e-07 -1.400014e-06 0.000000e+00 -5.300234e-06 1.885494e-05 0.000000e+00 2.419770e-06 1.851505e-07 0.000000e+00 -5.766077e-06 1.066840e-05 0.000000e+00 -6.680658e-06 1.551402e-05 0.000000e+00 -7.456618e-06 1.895755e-05 0.000000e+00 2.442814e-06 3.351020e-07 0.000000e+00 -5.747659e-06 7.109117e-06 0.000000e+00 -4.857965e-06 2.469347e-06 0.000000e+00 1.802484e-06 5.215203e-08 0.000000e+00 3.899589e-07 -6.771039e-07 0.000000e+00 -1.327150e-07 6.408169e-06 0.000000e+00 2.876777e-06 2.199615e-06 0.000000e+00 2.046695e-06 1.889709e-07 0.000000e+00 3.723777e-06 1.096295e-06 0.000000e+00 1.076227e-06 -2.649773e-07 0.000000e+00 3.600287e-06 8.823902e-07 0.000000e+00 -3.022366e-06 1.892557e-05 0.000000e+00 -1.252667e-06 -1.210421e-06 0.000000e+00 2.023626e-06 3.116097e-06 0.000000e+00 -5.447887e-06 -4.397254e-07 0.000000e+00 -2.141332e-06 -1.076105e-06 0.000000e+00 2.768206e-06 7.753291e-07 0.000000e+00 1.370889e-06 -1.390962e-07 0.000000e+00 -9.161569e-07 1.869153e-05 0.000000e+00 6.752974e-07 -4.771340e-07 0.000000e+00 1.494791e-06 -7.624705e-08 0.000000e+00 2.603417e-06 5.222984e-07 0.000000e+00 1.180386e-06 -2.108901e-07 0.000000e+00 4.408024e-07 -6.025028e-07 0.000000e+00 -5.452350e-06 5.144482e-07 0.000000e+00 3.956814e-07 -6.759185e-07 0.000000e+00 2.847182e-07 -7.701834e-07 0.000000e+00 8.553067e-07 -3.751675e-07 0.000000e+00 8.784646e-07 4.397063e-06 0.000000e+00 3.085800e-06 9.399122e-07 0.000000e+00 1.045752e-06 -2.868922e-07 0.000000e+00 -4.130214e-06 1.038408e-06 0.000000e+00 -2.140275e-07 -1.038407e-06 0.000000e+00 8.353410e-07 -3.065099e-07 0.000000e+00 -2.647879e-06 -4.597341e-07 0.000000e+00 -4.813827e-07 -9.773817e-07 0.000000e+00 2.118032e-06 3.005545e-07 0.000000e+00 6.936302e-07 -4.628767e-07 0.000000e+00 -4.030388e-06 -4.838913e-08 0.000000e+00 2.004998e-06 1.003150e-07 0.000000e+00 -1.680627e-06 8.136339e-06 0.000000e+00 1.123424e-07 -9.130403e-07 0.000000e+00 2.194695e-06 2.086180e-06 0.000000e+00 1.952786e-06 5.201532e-07 0.000000e+00 1.687014e-06 3.138008e-07 0.000000e+00 -3.406480e-06 3.222204e-06 0.000000e+00 -4.105572e-06 1.346226e-05 0.000000e+00 3.050648e-06 1.420052e-06 0.000000e+00 2.124088e-06 8.666611e-07 0.000000e+00 -9.391904e-07 -8.359558e-07 0.000000e+00 4.910086e-07 -5.218941e-07 0.000000e+00 1.427053e-06 6.888974e-08 0.000000e+00 1.284221e-06 2.901969e-06 0.000000e+00 1.426656e-06 8.923936e-07 0.000000e+00 9.502910e-07 -2.146456e-07 0.000000e+00 7.990086e-07 -3.716293e-07 0.000000e+00 -2.932882e-06 1.715931e-06 0.000000e+00 -4.304215e-06 1.640325e-05 0.000000e+00 1.698549e-06 1.524675e-07 0.000000e+00 1.616326e-07 -7.349013e-07 0.000000e+00 -3.741350e-06 7.905791e-06 0.000000e+00 -3.127550e-06 1.051217e-05 0.000000e+00 1.317659e-06 -3.059996e-08 0.000000e+00 -3.718484e-06 5.358440e-06 0.000000e+00 -1.003033e-07 -6.692660e-07 0.000000e+00 1.502583e-06 1.970187e-06 0.000000e+00 1.219145e-06 5.443804e-07 0.000000e+00 1.111619e-06 -1.177315e-07 0.000000e+00 5.129532e-07 -3.089921e-07 0.000000e+00 -2.505746e-06 8.453397e-07 0.000000e+00 1.185637e-06 2.304172e-07 0.000000e+00 4.545988e-07 -6.203322e-07 0.000000e+00 -2.795632e-06 2.147490e-07 0.000000e+00 4.549629e-07 -4.389747e-07 0.000000e+00 2.362213e-06 1.289456e-06 0.000000e+00 1.527112e-06 1.322425e-06 0.000000e+00 -1.657649e-06 2.054975e-06 0.000000e+00 2.716793e-07 3.639149e-06 0.000000e+00 -1.455131e-06 -5.460222e-07 0.000000e+00 -5.512465e-07 -5.085818e-07 0.000000e+00 -2.029156e-06 6.060033e-06 0.000000e+00 1.668666e-07 -8.115048e-07 0.000000e+00 -1.892137e-06 3.856715e-06 0.000000e+00 6.192394e-07 -1.605419e-07 0.000000e+00 -1.275422e-06 9.228129e-07 0.000000e+00 9.010082e-07 2.001336e-08 0.000000e+00 -1.804826e-06 -1.471060e-07 0.000000e+00 4.762314e-07 2.673101e-06 0.000000e+00 -7.530811e-07 -1.513139e-07 0.000000e+00 6.903696e-07 4.365441e-07 0.000000e+00 -3.745776e-07 2.262235e-06 0.000000e+00 7.659797e-07 9.311824e-07 0.000000e+00 1.563673e-07 -1.512778e-08 0.000000e+00 6.238488e-08 -4.421751e-07 0.000000e+00 4.473717e-07 2.191409e-07 0.000000e+00 7.662860e-07 1.886212e-06 0.000000e+00 -6.792335e-07 4.751571e-06 0.000000e+00 6.613405e-07 1.404861e-06 0.000000e+00 1.369264e-08 -2.712430e-07 0.000000e+00 -5.185936e-07 3.415089e-06 0.000000e+00 -1.519181e-06 3.084033e-07 0.000000e+00 5.021373e-07 7.206084e-07 0.000000e+00 -2.313149e-07 1.215707e-06 0.000000e+00 -4.707812e-07 2.710615e-07 0.000000e+00 -7.282817e-08 5.860654e-07 0.000000e+00 </DataArray>
 <DataArray type="Float64" Name="IST_StressTensor" NumberOfComponents="9" format="ascii"> 7.136002e-01 2.491422e+00 0.000000e+00 2.491422e+00 -1.803990e+00 0.000000e+00 0.000000e+00 0.000000e+00 0.000000e+00 -4.813560e-01 -4.961366e-01 0.000000e+00 -4.961366e-01 -5.113710e-01 0.000000e+00 0.000000e+00 0.000000e+00 0.000000e+00 2.472972e+01 7.866877e+00 0.000000e+00 7.866877e+00 4.062344e+00 0.000000e+00 0.000000e+00 0.000000e+00 0.000000e+00 3.054746e-01 -4.891294e-01 0.000000e+00 -4.891294e-01 2.260434e-01 0.000000e+00 0.000000e+00 0.000000e+00 0.000000e+00 1.393039e+01 4.154093e+00 0.000000e+00 4.154093e+00 1.178728e+00 0.000000e+00 0.000000e+00 0.000000e+00 0.000000e+00 -3.131001e+00 -3.171244e+00 0.000000e+00 -3.171244e+00 -2.961806e+00 0.000000e+00 0.000000e+00 0.000000e+00 0.000000e+00 1.536885e+02 5.236405e+01 0.000000e+00 5.236405e+01 1.787561e+02 0.000000e+00 0.000000e+00 0.000000e+00 0.000000e+00 1.821932e+00 -4.162697e+00 0.000000e+00 -4.162697e+00 -1.070968e+02 0.000000e+00 0.000000e+00 0.000000e+00 0.000000e+00 -8.852832e-01 2.356006e+00 0.000000e+00 2.356006e+00 -1.862862e+00 0.000000e+00 0.000000e+00 0.000000e+00 0.000000e+00 -2.018809e+00 1.541318e+00 0.000000e+00 1.541318e+00 -2.547927e+00 0.000000e+00 0.000000e+00 0.000000e+00 0.000000e+00 -2.260708e+00 6.143144e-01 0.000000e+00 6.143144e-01 -4.193189e+00 0.000000e+00 0.000000e+00 0.000000e+00 0.000000e+00 -1.374741e+00 4.468459e-01 0.000000e+00 4.468459e-01 -6.988290e+00 0.000000e+00 0.000000e+00 0.000000e+00 0.000000e+00 2.933200e-01 2.407468e+00 0.000000e+00 2.407468e+00 -1.012038e+01 0.000000e+00 0.000000e+00 0.000000e+00 0.000000e+00 1.073428e+00 5.925344e+00 0.000000e+00 5.925344e+00 -1.183564e+01 0.000000e+00 0.000000e+00 0.000000e+00 0.000000e+00 7.245595e-01 1.038917e+01 0.000000e+00 1.038917e+01 -1.204825e+01 0.000000e+00 0.000000e+00 0.000000e+00 0.000000e+00 -6.629333e-01 1.425466e+01 0.000000e+00 1.425466e+01 -1.101798e+01 0.000000e+00 0.000000e+00 0.000000e+00 0.000000e+00 -2.493967e+00 1.776265e+01 0.000000e+00 1.776265e+01 -9.244272e+00 0.000000e+00 0.000000e+00 0.000000e+00 0.000000e+00 -4.190743e+00 2.009376e+01 0.000000e+00 2.009376e+01 -6.600207e+00 0.000000e+00 0.000000e+00 0.000000e+00 0.000000e+00 -4.696824e+00 2.074508e+01 0.000000e+00 2.074508e+01 -3.492563e+00 0.000000e+00 0.000000e+00 0.000000e+00 0.000000e+00 -3.263968e+00 2.001648e+01 0.000000e+00 2.001648e+01 -1.247069e+00 0.000000e+00 0.000000e+00 0.000000e+00 0.000000e+00 2.217600e-01 1.890308e+01 0.000000e+00 1.890308e+01 -4.770103e-01 0.000000e+00 0.000000e+00 0.000000e+00 0.000000e+00 4.572404e+00 1.840108e+01 0.000000e+00 1.840108e+01 -6.136914e-01 0.000000e+00 0.000000e+00 0.000000e+00 0.000000e+00 8.223827e+00 1.849299e+01 0.000000e+00 1.849299e+01 -5.782714e-01 0.000000e+00 0.000000e+00 0.000000e+00 0.000000e+00 1.046346e+01 1.867280e+01 0.000000e+00 1.867280e+01 -3.716398e-02 0.000000e+00 0.000000e+00 0.000000e+00 0.000000e+00 1.093889e+01 1.842771e+01 0.000000e+00 1.842771e+01 1.382500e+00 0.000000e+00 0.000000e+00 0.000000e+00 0.000000e+00 9.575507e+00 1.742031e+01 0.000000e+00 1.742031e+01 3.518397e+00 0.000000e+00 0.000000e+00 0.000000e+00 0.000000e+00 6.152274e+00 1.488484e+01 0.000000e+00 1.488484e+01 5.625096e+00 0.000000e+00 0.000000e+00 0.000000e+00 0.000000e+00 2.479470e+00 1.085206e+01 0.000000e+00 1.085206e+01 6.486450e+00 0.000000e+00 0.000000e+00 0.000000e+00 0.000000e+00 9.910200e-01 6.354256e+00 0.000000e+00 6.354256e+00 7.277937e+00 0.000000e+00 0.000000e+00 0.000000e+00 0.000000e+00 4.808532e-01 2.308780e+00 0.000000e+00 2.308780e+00 6.517617e+00 0.000000e+00 0.000000e+00 0.000000e+00 0.000000e+00 1.159067e+00 -4.591919e-01 0.000000e+00 -4.591919e-01 5.065405e+00 0.000000e+00 0.000000e+00 0.000000e+00 0.000000e+00 2.873757e+00 -1.785062e+00 0.000000e+00 -1.785062e+00 2.421383e+00 0.000000e+00 0.000000e+00 0.000000e+00 0.000000e+00 3.763004e+00 -1.205212e+00 0.000000e+00 -1.205212e+00 1.208402e-01 0.000000e+00 0.000000e+00 0.000000e+00 0.000000e+00 3.655229e+00 2.322049e-01 0.000000e+00 2.322049e-01 -1.313607e+00 0.000000e+00 0.000000e+00 0.000000e+00 0.000000e+00 2.516400e+00 1.664569e+00 0.000000e+00 1.664569e+00 -1.802047e+00 0.000000e+00 0.000000e+00 0.000000e+00 0.000000e+00 -2.188101e+00 -5.785066e+00 0.000000e+00 -5.785066e+00 -1.050667e+01 0.000000e+00 0.000000e+00 0.000000e+00 0.000000e+00 5.272525e-02 -7.748594e+00 0.000000e+00 -7.748594e+00 -3.155394e+01 0.000000e+00 0.000000e+00 0.000000e+00 0.000000e+00 1.557297e+00 -6.067674e+00 0.000000e+00 -6.067674e+00 -6.307491e+01 0.000000e+00 0.000000e+00 0.000000e+00 0.000000e+00 1.616671e+00 -3.060038e+00 0.000000e+00 -3.060038e+00 -9.223666e+01 0.000000e+00 0.000000e+00 0.000000e+00 0.000000e+00 8.238065e+01 2.344690e+01 0.000000e+00 2.344690e+01 1.206180e+01 0.000000e+00 0.000000e+00 0.000000e+00 0.000000e+00 4.092015e+01 1.121385e+00 0.000000e+00 1.121385e+00 -3.696811e-01 0.000000e+00 0.000000e+00 0.000000e+00 0.000000e+00 3.805786e+01 1.975182e+00 0.000000e+00 1.975182e+00 2.896108e-01 0.000000e+00 0.000000e+00 0.000000e+00 0.000000e+00 3.452666e+01 2.099465e+00 0.000000e+00 2.099465e+00 -1.863495e-01 0.000000e+00 0.000000e+00 0.000000e+00 0.000000e+00 3.086360e+01 2.390736e+00 0.000000e+00 2.390736e+00 -2.306042e-01 0.000000e+00 0.000000e+00 0.000000e+00 0.000000e+00 2.697803e+01 2.704227e+00 0.000000e+00 2.704227e+00 -1.702248e-01 0.000000e+00 0.000000e+00 0.000000e+00 0.000000e+00 2.276306e+01 3.099054e+00 0.000000e+00 3.099054e+00 -2.309676e-01 0.000000e+00 0.000000e+00 0.000000e+00 0.000000e+00 1.772997e+01 3.550096e+00 0.000000e+00 3.550096e+00 -5.601059e-02 0.000000e+00 0.000000e+00 0.000000e+00 0.000000e+00 9.692552e-01 -4.337394e-01 0.000000e+00 -4.337394e-01 -9.014231e-02 0.000000e+00 0.000000e+00 0.000000e+00 0.000000e+00 1.412934e+00 -2.372767e-01 0.000000e+00 -2.372767e-01 -2.129444e-01 0.000000e+00 0.000000e+00 0.000000e+00 0.000000e+00 1.218724e+00 4.814128e-01 0.000000e+00 4.814128e-01 -6.030445e-01 0.000000e+00 0.000000e+00 0.000000e+00 0.000000e+00 -1.224324e+00 1.590347e+00 0.000000e+00 1.590347e+00 -7.064473e-01 0.000000e+00 0.000000e+00 0.000000e+00 0.000000e+00 -6.521627e+00 2.911923e+00 0.000000e+00 2.911923e+00 -7.256733e-01 0.000000e+00 0.000000e+00 0.000000e+00 0.000000e+00 -1.460177e+01 4.132018e+00 0.000000e+00 4.132018e+00 -5.362948e-01 0.000000e+00 0.000000e+00 0.000000e+00 0.000000e+00 -2.384055e+01 4.893854e+00 0.000000e+00 4.893854e+00 -2.141304e-01 0.000000e+00 0.000000e+00 0.000000e+00 0.000000e+00 -3.445858e+01 5.044297e+00 0.000000e+00 5.044297e+00 1.505580e-01 0.000000e+00 0.000000e+00 0.000000e+00 0.000000e+00 -4.401664e+01 4.509683e+00 0.000000e+00 4.509683e+00 7.402303e-01 0.000000e+00 0.000000e+00 0.000000e+00 0.000000e+00 -5.101616e+01 3.120894e+00 0.000000e+00 3.120894e+00 1.402397e+00 0.000000e+00 0.000000e+00 0.000000e+00 0.000000e+00 -5.268877e+01 2.230547e-01 0.000000e+00 2.230547e-01 2.428567e+00 0.000000e+00 0.000000e+00 0.000000e+00 0.000000e+00 -4.620388e+01 -4.480538e+00 0.000000e+00 -4.480538e+00 2.611087e+00 0.000000e+00 0.000000e+00 0.000000e+00 0.000000e+00 -3.111473e+01 -7.047636e+00 0.000000e+00 -7.047636e+00 1.402942e+00 0.000000e+00 0.000000e+00 0.000000e+00 0.000000e+00 -1.241726e+01 -6.169183e+00 0.000000e+00 -6.169183e+00 -1.553242e+00 0.000000e+00 0.000000e+00 0.000000e+00 0.000000e+00 2.003048e+01 7.479168e+00 0.000000e+00 7.479168e+00 2.451754e+00 0.000000e+00 0.000000e+00 0.000000e+00 0.000000e+00 -2.087662e-01 -5.549782e-01 0.000000e+00 -5.549782e-01 -8.702163e-01 0.000000e+00 0.000000e+00 0.000000e+00 0.000000e+00 1.227929e-01 -4.667291e-01 0.000000e+00 -4.667291e-01 -2.315580e+00 0.000000e+00 0.000000e+00 0.000000e+00 0.000000e+00 3.592112e-01 7.432819e-02 0.000000e+00 7.432819e-02 -2.903328e+00 0.000000e+00 0.000000e+00 0.000000e+00 0.000000e+00 2.663285e-01 6.245719e-01 0.000000e+00 6.245719e-01 -2.290510e+00 0.000000e+00 0.000000e+00 0.000000e+00 0.000000e+00 7.761295e-02 9.315720e-01 0.000000e+00 9.315720e-01 -7.474386e-01 0.000000e+00 0.000000e+00 0.000000e+00 0.000000e+00 -1.629608e-01 8.724715e-01 0.000000e+00 8.724715e-01 7.705949e-01 0.000000e+00 0.000000e+00 0.000000e+00 0.000000e+00 -2.401485e-01 4.672403e-01 0.000000e+00 4.672403e-01 1.943190e+00 0.000000e+00 0.000000e+00 0.000000e+00 0.000000e+00 -2.495542e-01 5.175180e-02 0.000000e+00 5.175180e-02 2.307796e+00 0.000000e+00 0.000000e+00 0.000000e+00 0.000000e+00 -2.055010e-01 -3.637974e-01 0.000000e+00 -3.637974e-01 1.749963e+00 0.000000e+00 0.000000e+00 0.000000e+00 0.000000e+00 3.422749e-02 -5.140364e-01 0.000000e+00 -5.140364e-01 7.738895e-01 0.000000e+00 0.000000e+00 0.000000e+00 0.000000e+00 2.152163e+01 5.282666e+00 0.000000e+00 5.282666e+00 1.140675e+00 0.000000e+00 0.000000e+00 0.000000e+00 0.000000e+00 1.206499e+01 3.964443e+00 0.000000e+00 3.964443e+00 4.050033e-01 0.000000e+00 0.000000e+00 0.000000e+00 0.000000e+00 4.237008e+00 3.241373e+00 0.000000e+00 3.241373e+00 6.277292e-01 0.000000e+00 0.000000e+00 0.000000e+00 0.000000e+00 -2.353992e+00 2.142838e+00 0.000000e+00 2.142838e+00 9.794288e-01 0.000000e+00 0.000000e+00 0.000000e+00 0.000000e+00 -5.843042e+00 5.914426e-01 0.000000e+00 5.914426e-01 9.563734e-01 0.000000e+00 0.000000e+00 0.000000e+00 0.000000e+00 -5.499225e+00 -6.157040e-01 0.000000e+00 -6.157040e-01 5.808598e-01 0.000000e+00 0.000000e+00 0.000000e+00 0.000000e+00 -3.198116e+00 -1.084434e+00 0.000000e+00 -1.084434e+00 9.313251e-02 0.000000e+00 0.000000e+00 0.000000e+00 0.000000e+00 -8.016911e-01 -8.245991e-01 0.000000e+00 -8.245991e-01 -4.234766e-01 0.000000e+00 0.000000e+00 0.000000e+00 0.000000e+00 -1.658182e+01 -4.595859e+00 0.000000e+00 -4.595859e+00 -9.996104e+01 0.000000e+00 0.000000e+00 0.000000e+00 0.000000e+00 -8.354276e+00 -3.390175e+00 0.000000e+00 -3.390175e+00 -9.559279e+01 0.000000e+00 0.000000e+00 0.000000e+00 0.000000e+00 -4.858230e+00 -2.078352e+00 0.000000e+00 -2.078352e+00 -9.068041e+01 0.000000e+00 0.000000e+00 0.000000e+00 0.000000e+00 -2.363813e+00 -1.485948e+00 0.000000e+00 -1.485948e+00 -8.564945e+01 0.000000e+00 0.000000e+00 0.000000e+00 0.000000e+00 -3.547700e-01 -1.187524e+00 0.000000e+00 -1.187524e+00 -8.090150e+01 0.000000e+00 0.000000e+00 0.000000e+00 0.000000e+00 1.225835e+00 -1.032696e+00 0.000000e+00 -1.032696e+00 -7.623194e+01 0.000000e+00 0.000000e+00 0.000000e+00 0.000000e+00 2.660629e+00 -9.767699e-01 0.000000e+00 -9.767699e-01 -7.173997e+01 0.000000e+00 0.000000e+00 0.000000e+00 0.000000e+00 3.960565e+00 -9.332474e-01 0.000000e+00 -9.332474e-01 -6.744132e+01 0.000000e+00 0.000000e+00 0.000000e+00 0.000000e+00 5.278358e+00 -9.560403e-01 0.000000e+00 -9.560403e-01 -6.329503e+01 0.000000e+00 0.000000e+00 0.000000e+00 0.000000e+00 6.608277e+00 -9.774342e-01 0.000000e+00 -9.774342e-01 -5.921734e+01 0.000000e+00 0.000000e+00 0.000000e+00 0.000000e+00 8.107215e+00 -1.015599e+00 0.000000e+00 -1.015599e+00 -5.522822e+01 0.000000e+00 0.000000e+00 0.000000e+00 0.000000e+00 9.604895e+00 -9.963275e-01 0.000000e+00 -9.963275e-01 -5.133320e+01 0.000000e+00 0.000000e+00 0.000000e+00 0.000000e+00 1.115935e+01 -1.007004e+00 0.000000e+00 -1.007004e+00 -4.763288e+01 0.000000e+00 0.000000e+00 0.000000e+00 0.000000e+00 1.280709e+01 -1.023751e+00 0.000000e+00 -1.023751e+00 -4.419913e+01 0.000000e+00 0.000000e+00 0.000000e+00 0.000000e+00 1.449136e+01 -1.016755e+00 0.000000e+00 -1.016755e+00 -4.067067e+01 0.000000e+00 0.000000e+00 0.000000e+00 0.000000e+00 1.621367e+01 -1.076877e+00 0.000000e+00 -1.076877e+00 -3.711178e+01 0.000000e+00 0.000000e+00 0.000000e+00 0.000000e+00 1.809721e+01 -1.136271e+00 0.000000e+00 -1.136271e+00 -3.374375e+01 0.000000e+00 0.000000e+00 0.000000e+00 0.000000e+00 2.000471e+01 -1.167606e+00 0.000000e+00 -1.167606e+00 -3.046494e+01 0.000000e+00 0.000000e+00 0.000000e+00 0.000000e+00 2.204664e+01 -1.240088e+00 0.000000e+00 -1.240088e+00 -2.724937e+01 0.000000e+00 0.000000e+00 0.000000e+00 0.000000e+00 2.411988e+01 -1.275410e+00 0.000000e+00 -1.275410e+00 -2.407931e+01 0.000000e+00 0.000000e+00 0.000000e+00 0.000000e+00 2.627538e+01 -1.316843e+00 0.000000e+00 -1.316843e+00 -2.077748e+01 0.000000e+00 0.000000e+00 0.000000e+00 0.000000e+00 2.855509e+01 -1.375947e+00 0.000000e+00 -1.375947e+00 -1.752865e+01 0.000000e+00 0.000000e+00 0.000000e+00 0.000000e+00 3.093389e+01 -1.412007e+00 0.000000e+00 -1.412007e+00 -1.443669e+01 0.000000e+00 0.000000e+00 0.000000e+00 0.000000e+00 3.338737e+01 -1.452558e+00 0.000000e+00 -1.452558e+00 -1.140286e+01 0.000000e+00 0.000000e+00 0.000000e+00 0.000000e+00 3.592953e+01 -1.522926e+00 0.000000e+00 -1.522926e+00 -8.312698e+00 0.000000e+00 0.000000e+00 0.000000e+00 0.000000e+00 3.862808e+01 -1.586607e+00 0.000000e+00 -1.586607e+00 -5.152400e+00 0.000000e+00 0.000000e+00 0.000000e+00 0.000000e+00 4.137372e+01 -1.610593e+00 0.000000e+00 -1.610593e+00 -1.810670e+00 0.000000e+00 0.000000e+00 0.000000e+00 0.000000e+00 4.426813e+01 -1.668400e+00 0.000000e+00 -1.668400e+00 1.655235e+00 0.000000e+00 0.000000e+00 0.000000e+00 0.000000e+00 4.726807e+01 -1.749738e+00 0.000000e+00 -1.749738e+00 4.973312e+00 0.000000e+00 0.000000e+00 0.000000e+00 0.000000e+00 5.043091e+01 -1.814668e+00 0.000000e+00 -1.814668e+00 8.351272e+00 0.000000e+00 0.000000e+00 0.000000e+00 0.000000e+00 5.373189e+01 -1.896272e+00 0.000000e+00 -1.896272e+00 1.211179e+01 0.000000e+00 0.000000e+00 0.000000e+00 0.000000e+00 5.712543e+01 -2.029043e+00 0.000000e+00 -2.029043e+00 1.611815e+01 0.000000e+00 0.000000e+00 0.000000e+00 0.000000e+00 6.075349e+01 -2.195959e+00 0.000000e+00 -2.195959e+00 2.018212e+01 0.000000e+00 0.000000e+00 0.000000e+00 0.000000e+00 6.469074e+01 -2.398096e+00 0.000000e+00 -2.398096e+00 2.418750e+01 0.000000e+00 0.000000e+00 0.000000e+00 0.000000e+00 6.894247e+01 -2.508591e+00 0.000000e+00 -2.508591e+00 2.834673e+01 0.000000e+00 0.000000e+00 0.000000e+00 0.000000e+00 7.346060e+01 -2.537709e+00 0.000000e+00 -2.537709e+00 3.311915e+01 0.000000e+00 0.000000e+00 0.000000e+00 0.000000e+00 7.822802e+01 -2.592820e+00 0.000000e+00 -2.592820e+00 3.836316e+01 0.000000e+00 0.000000e+00 0.000000e+00 0.000000e+00 8.336904e+01 -2.745533e+00 0.000000e+00 -2.745533e+00 4.371374e+01 0.000000e+00 0.000000e+00 0.000000e+00 0.000000e+00 8.873749e+01 -3.164788e+00 0.000000e+00 -3.164788e+00 4.955488e+01 0.000000e+00 0.000000e+00 0.000000e+00 0.000000e+00 9.506840e+01 -3.758252e+00 0.000000e+00 -3.758252e+00 5.593703e+01 0.000000e+00 0.000000e+00 0.000000e+00 0.000000e+00 1.021152e+02 -4.268758e+00 0.000000e+00 -4.268758e+00 6.293520e+01 0.000000e+00 0.000000e+00 0.000000e+00 0.000000e+00 1.102219e+02 -4.938110e+00 0.000000e+00 -4.938110e+00 7.082954e+01 0.000000e+00 0.000000e+00 0.000000e+00 0.000000e+00 1.199090e+02 -5.570156e+00 0.000000e+00 -5.570156e+00 8.028438e+01 0.000000e+00 0.000000e+00 0.000000e+00 0.000000e+00 1.312232e+02 -6.727981e+00 0.000000e+00 -6.727981e+00 9.164074e+01 0.000000e+00 0.000000e+00 0.000000e+00 0.000000e+00 1.445251e+02 -9.163142e+00 0.000000e+00 -9.163142e+00 1.049393e+02 0.000000e+00 0.000000e+00 0.000000e+00 0.000000e+00 1.616827e+02 -1.332475e+01 0.000000e+00 -1.332475e+01 1.220841e+02 0.000000e+00 0.000000e+00 0.000000e+00 0.000000e+00 1.847152e+02 -2.106293e+01 0.000000e+00 -2.106293e+01 1.463230e+02 0.000000e+00 0.000000e+00 0.000000e+00 0.000000e+00 2.146157e+02 -3.538333e+01 0.000000e+00 -3.538333e+01 1.850860e+02 0.000000e+00 0.000000e+00 0.000000e+00 0.000000e+00 2.472621e+02 -5.914496e+01 0.000000e+00 -5.914496e+01 2.593403e+02 0.000000e+00 0.000000e+00 0.000000e+00 0.000000e+00 -6.995512e+00 -6.239177e+00 0.000000e+00 -6.239177e+00 -1.015682e+02 0.000000e+00 0.000000e+00 0.000000e+00 0.000000e+00 -2.568088e+00 -2.498202e+00 0.000000e+00 -2.498202e+00 -8.850320e+01 0.000000e+00 0.000000e+00 0.000000e+00 0.000000e+00 8.150093e-01 -1.605609e+00 0.000000e+00 -1.605609e+00 -7.863545e+01 0.000000e+00 0.000000e+00 0.000000e+00 0.000000e+00 3.442295e+00 -1.440490e+00 0.000000e+00 -1.440490e+00 -6.968020e+01 0.000000e+00 0.000000e+00 0.000000e+00 0.000000e+00 5.906744e+00 -1.511434e+00 0.000000e+00 -1.511434e+00 -6.119196e+01 0.000000e+00 0.000000e+00 0.000000e+00 0.000000e+00 8.839542e+00 -1.662905e+00 0.000000e+00 -1.662905e+00 -5.320744e+01 0.000000e+00 0.000000e+00 0.000000e+00 0.000000e+00 1.195848e+01 -1.652018e+00 0.000000e+00 -1.652018e+00 -4.590224e+01 0.000000e+00 0.000000e+00 0.000000e+00 0.000000e+00 1.531189e+01 -1.788908e+00 0.000000e+00 -1.788908e+00 -3.885441e+01 0.000000e+00 0.000000e+00 0.000000e+00 0.000000e+00 1.899615e+01 -1.898275e+00 0.000000e+00 -1.898275e+00 -3.208538e+01 0.000000e+00 0.000000e+00 0.000000e+00 0.000000e+00 2.287427e+01 -2.217417e+00 0.000000e+00 -2.217417e+00 -2.562908e+01 0.000000e+00 0.000000e+00 0.000000e+00 0.000000e+00 2.731476e+01 -2.457946e+00 0.000000e+00 -2.457946e+00 -1.915825e+01 0.000000e+00 0.000000e+00 0.000000e+00 0.000000e+00 3.198500e+01 -2.582911e+00 0.000000e+00 -2.582911e+00 -1.289876e+01 0.000000e+00 0.000000e+00 0.000000e+00 0.000000e+00 3.702400e+01 -2.919705e+00 0.000000e+00 -2.919705e+00 -6.729852e+00 0.000000e+00 0.000000e+00 0.000000e+00 0.000000e+00 4.258329e+01 -3.138850e+00 0.000000e+00 -3.138850e+00 -1.134803e-01 0.000000e+00 0.000000e+00 0.000000e+00 0.000000e+00 4.857343e+01 -3.224514e+00 0.000000e+00 -3.224514e+00 6.746585e+00 0.000000e+00 0.000000e+00 0.000000e+00 0.000000e+00 5.506567e+01 -3.720239e+00 0.000000e+00 -3.720239e+00 1.418038e+01 0.000000e+00 0.000000e+00 0.000000e+00 0.000000e+00 6.238584e+01 -4.260353e+00 0.000000e+00 -4.260353e+00 2.236588e+01 0.000000e+00 0.000000e+00 0.000000e+00 0.000000e+00 7.055512e+01 -4.860692e+00 0.000000e+00 -4.860692e+00 3.104159e+01 0.000000e+00 0.000000e+00 0.000000e+00 0.000000e+00 8.035165e+01 -4.880441e+00 0.000000e+00 -4.880441e+00 4.123839e+01 0.000000e+00 0.000000e+00 0.000000e+00 0.000000e+00 9.068302e+01 -6.502693e+00 0.000000e+00 -6.502693e+00 5.284590e+01 0.000000e+00 0.000000e+00 0.000000e+00 0.000000e+00 1.040844e+02 -8.627930e+00 0.000000e+00 -8.627930e+00 6.745083e+01 0.000000e+00 0.000000e+00 0.000000e+00 0.000000e+00 1.226059e+02 -1.030233e+01 0.000000e+00 -1.030233e+01 8.637020e+01 0.000000e+00 0.000000e+00 0.000000e+00 0.000000e+00 1.441286e+02 -1.701537e+01 0.000000e+00 -1.701537e+01 1.141903e+02 0.000000e+00 0.000000e+00 0.000000e+00 0.000000e+00 1.688072e+02 -3.062983e+01 0.000000e+00 -3.062983e+01 1.650449e+02 0.000000e+00 0.000000e+00 0.000000e+00 0.000000e+00 1.616287e+02 -1.139058e+01 0.000000e+00 -1.139058e+01 2.785135e+02 0.000000e+00 0.000000e+00 0.000000e+00 0.000000e+00 4.768258e+01 6.820470e+00 0.000000e+00 6.820470e+00 2.133506e+00 0.000000e+00 0.000000e+00 0.000000e+00 0.000000e+00 3.472921e+01 4.782252e+00 0.000000e+00 4.782252e+00 1.411989e-01 0.000000e+00 0.000000e+00 0.000000e+00 0.000000e+00 2.609409e+01 4.823576e+00 0.000000e+00 4.823576e+00 -2.648839e-01 0.000000e+00 0.000000e+00 0.000000e+00 0.000000e+00 1.856167e+01 5.602102e+00 0.000000e+00 5.602102e+00 1.816735e-01 0.000000e+00 0.000000e+00 0.000000e+00 0.000000e+00 2.202176e+01 7.509145e+00 0.000000e+00 7.509145e+00 1.754003e+00 0.000000e+00 0.000000e+00 0.000000e+00 0.000000e+00 2.090656e+01 7.754645e+00 0.000000e+00 7.754645e+00 2.819112e+00 0.000000e+00 0.000000e+00 0.000000e+00 0.000000e+00 8.706593e+00 6.404930e+00 0.000000e+00 6.404930e+00 8.319903e-01 0.000000e+00 0.000000e+00 0.000000e+00 0.000000e+00 -2.326570e+00 1.851775e+00 0.000000e+00 1.851775e+00 1.227390e+00 0.000000e+00 0.000000e+00 0.000000e+00 0.000000e+00 -2.673655e+00 -1.267099e+00 0.000000e+00 -1.267099e+00 3.443736e-01 0.000000e+00 0.000000e+00 0.000000e+00 0.000000e+00 -8.515535e-02 -9.269193e-01 0.000000e+00 -9.269193e-01 -1.073721e+00 0.000000e+00 0.000000e+00 0.000000e+00 0.000000e+00 6.968901e-01 4.231372e-01 0.000000e+00 4.231372e-01 -2.206230e+00 0.000000e+00 0.000000e+00 0.000000e+00 0.000000e+00 -8.435060e-02 1.319663e+00 0.000000e+00 1.319663e+00 -4.381248e-01 0.000000e+00 0.000000e+00 0.000000e+00 0.000000e+00 -4.301132e-01 3.277337e-01 0.000000e+00 3.277337e-01 1.013414e+00 0.000000e+00 0.000000e+00 0.000000e+00 0.000000e+00 -2.081075e-01 -4.938539e-01 0.000000e+00 -4.938539e-01 3.837100e-01 0.000000e+00 0.000000e+00 0.000000e+00 0.000000e+00 3.466179e-01 -4.565063e-01 0.000000e+00 -4.565063e-01 -2.339866e-02 0.000000e+00 0.000000e+00 0.000000e+00 0.000000e+00 3.416865e-01 2.424308e-01 0.000000e+00 2.424308e-01 -8.247741e-01 0.000000e+00 0.000000e+00 0.000000e+00 0.000000e+00 -4.523425e+00 3.779432e+00 0.000000e+00 3.779432e+00 -1.215022e+00 0.000000e+00 0.000000e+00 0.000000e+00 0.000000e+00 -1.705285e+01 7.517624e+00 0.000000e+00 7.517624e+00 -5.547489e-01 0.000000e+00 0.000000e+00 0.000000e+00 0.000000e+00 -3.240766e+01 7.634286e+00 0.000000e+00 7.634286e+00 8.426312e-01 0.000000e+00 0.000000e+00 0.000000e+00 0.000000e+00 -4.191503e+01 2.181043e+00 0.000000e+00 2.181043e+00 2.897117e+00 0.000000e+00 0.000000e+00 0.000000e+00 0.000000e+00 -3.316793e+01 -9.106919e+00 0.000000e+00 -9.106919e+00 2.678253e+00 0.000000e+00 0.000000e+00 0.000000e+00 0.000000e+00 -1.947348e+01 -1.123629e+01 0.000000e+00 -1.123629e+01 -5.429449e-01 0.000000e+00 0.000000e+00 0.000000e+00 0.000000e+00 -6.664235e+00 -7.892295e+00 0.000000e+00 -7.892295e+00 -5.176561e+00 0.000000e+00 0.000000e+00 0.000000e+00 0.000000e+00 -1.941535e+00 -1.086616e+01 0.000000e+00 -1.086616e+01 -1.729911e+01 0.000000e+00 0.000000e+00 0.000000e+00 0.000000e+00 1.317260e+00 1.969922e+00 0.000000e+00 1.969922e+00 -1.700053e+00 0.000000e+00 0.000000e+00 0.000000e+00 0.000000e+00 2.610839e+00 7.844275e-01 0.000000e+00 7.844275e-01 -1.634962e+00 0.000000e+00 0.000000e+00 0.000000e+00 0.000000e+00 3.121301e+00 -7.179293e-01 0.000000e+00 -7.179293e-01 -8.786342e-01 0.000000e+00 0.000000e+00 0.000000e+00 0.000000e+00 2.901221e+00 -1.777663e+00 0.000000e+00 -1.777663e+00 9.091367e-01 0.000000e+00 0.000000e+00 0.000000e+00 0.000000e+00 1.565220e+00 -1.489343e+00 0.000000e+00 -1.489343e+00 2.990157e+00 0.000000e+00 0.000000e+00 0.000000e+00 0.000000e+00 4.035091e-01 4.894983e-01 0.000000e+00 4.894983e-01 4.675781e+00 0.000000e+00 0.000000e+00 0.000000e+00 0.000000e+00 6.744390e-01 3.806300e+00 0.000000e+00 3.806300e+00 5.810664e+00 0.000000e+00 0.000000e+00 0.000000e+00 0.000000e+00 2.234927e+00 7.895566e+00 0.000000e+00 7.895566e+00 5.990071e+00 0.000000e+00 0.000000e+00 0.000000e+00 0.000000e+00 5.132920e+00 1.205552e+01 0.000000e+00 1.205552e+01 5.208394e+00 0.000000e+00 0.000000e+00 0.000000e+00 0.000000e+00 8.909850e+00 1.518157e+01 0.000000e+00 1.518157e+01 4.016907e+00 0.000000e+00 0.000000e+00 0.000000e+00 0.000000e+00 1.134121e+01 1.710469e+01 0.000000e+00 1.710469e+01 2.277236e+00 0.000000e+00 0.000000e+00 0.000000e+00 0.000000e+00 1.172319e+01 1.800263e+01 0.000000e+00 1.800263e+01 7.311535e-01 0.000000e+00 0.000000e+00 0.000000e+00 0.000000e+00 1.008957e+01 1.840088e+01 0.000000e+00 1.840088e+01 -8.107716e-02 0.000000e+00 0.000000e+00 0.000000e+00 0.000000e+00 6.789353e+00 1.852545e+01 0.000000e+00 1.852545e+01 -1.756969e-01 0.000000e+00 0.000000e+00 0.000000e+00 0.000000e+00 2.362420e+00 1.887768e+01 0.000000e+00 1.887768e+01 5.679253e-02 0.000000e+00 0.000000e+00 0.000000e+00 0.000000e+00 -1.954609e+00 1.957774e+01 0.000000e+00 1.957774e+01 -1.577870e-01 0.000000e+00 0.000000e+00 0.000000e+00 0.000000e+00 -4.799633e+00 2.022321e+01 0.000000e+00 2.022321e+01 -1.600371e+00 0.000000e+00 0.000000e+00 0.000000e+00 0.000000e+00 -5.718791e+00 1.999776e+01 0.000000e+00 1.999776e+01 -4.257537e+00 0.000000e+00 0.000000e+00 0.000000e+00 0.000000e+00 -4.852620e+00 1.836577e+01 0.000000e+00 1.836577e+01 -6.972409e+00 0.000000e+00 0.000000e+00 0.000000e+00 0.000000e+00 -3.172099e+00 1.536253e+01 0.000000e+00 1.536253e+01 -8.976665e+00 0.000000e+00 0.000000e+00 0.000000e+00 0.000000e+00 -1.354774e+00 1.179417e+01 0.000000e+00 1.179417e+01 -1.029685e+01 0.000000e+00 0.000000e+00 0.000000e+00 0.000000e+00 -9.068042e-02 7.676267e+00 0.000000e+00 7.676267e+00 -1.084732e+01 0.000000e+00 0.000000e+00 0.000000e+00 0.000000e+00 -3.291288e-03 3.812862e+00 0.000000e+00 3.812862e+00 -9.766083e+00 0.000000e+00 0.000000e+00 0.000000e+00 0.000000e+00 -9.202457e-01 1.125628e+00 0.000000e+00 1.125628e+00 -7.350253e+00 0.000000e+00 0.000000e+00 0.000000e+00 0.000000e+00 -1.829034e+00 3.814818e-01 0.000000e+00 3.814818e-01 -4.638416e+00 0.000000e+00 0.000000e+00 0.000000e+00 0.000000e+00 -2.025684e+00 9.961375e-01 0.000000e+00 9.961375e-01 -2.723953e+00 0.000000e+00 0.000000e+00 0.000000e+00 0.000000e+00 -1.332655e+00 1.846305e+00 0.000000e+00 1.846305e+00 -1.712615e+00 0.000000e+00 0.000000e+00 0.000000e+00 0.000000e+00 -1.348619e-01 2.317361e+00 0.000000e+00 2.317361e+00 -1.526965e+00 0.000000e+00 0.000000e+00 0.000000e+00 0.000000e+00 -4.714894e+00 -3.873507e+00 0.000000e+00 -3.873507e+00 -9.390395e+01 0.000000e+00 0.000000e+00 0.000000e+00 0.000000e+00 -6.988503e-01 -1.897583e+00 0.000000e+00 -1.897583e+00 -8.342517e+01 0.000000e+00 0.000000e+00 0.000000e+00 0.000000e+00 2.147508e+00 -1.514466e+00 0.000000e+00 -1.514466e+00 -7.411802e+01 0.000000e+00 0.000000e+00 0.000000e+00 0.000000e+00 4.649761e+00 -1.442958e+00 0.000000e+00 -1.442958e+00 -6.539654e+01 0.000000e+00 0.000000e+00 0.000000e+00 0.000000e+00 7.333898e+00 -1.612067e+00 0.000000e+00 -1.612067e+00 -5.715577e+01 0.000000e+00 0.000000e+00 0.000000e+00 0.000000e+00 1.042282e+01 -1.659585e+00 0.000000e+00 -1.659585e+00 -4.950038e+01 0.000000e+00 0.000000e+00 0.000000e+00 0.000000e+00 1.354827e+01 -1.716957e+00 0.000000e+00 -1.716957e+00 -4.235773e+01 0.000000e+00 0.000000e+00 0.000000e+00 0.000000e+00 1.710338e+01 -1.883811e+00 0.000000e+00 -1.883811e+00 -3.545566e+01 0.000000e+00 0.000000e+00 0.000000e+00 0.000000e+00 2.093652e+01 -2.053501e+00 0.000000e+00 -2.053501e+00 -2.878931e+01 0.000000e+00 0.000000e+00 0.000000e+00 0.000000e+00 2.503105e+01 -2.380381e+00 0.000000e+00 -2.380381e+00 -2.240644e+01 0.000000e+00 0.000000e+00 0.000000e+00 0.000000e+00 2.961875e+01 -2.507883e+00 0.000000e+00 -2.507883e+00 -1.599322e+01 0.000000e+00 0.000000e+00 0.000000e+00 0.000000e+00 3.443976e+01 -2.769835e+00 0.000000e+00 -2.769835e+00 -9.815879e+00 0.000000e+00 0.000000e+00 0.000000e+00 0.000000e+00 3.971490e+01 -3.046441e+00 0.000000e+00 -3.046441e+00 -3.443370e+00 0.000000e+00 0.000000e+00 0.000000e+00 0.000000e+00 4.561295e+01 -3.095064e+00 0.000000e+00 -3.095064e+00 3.278615e+00 0.000000e+00 0.000000e+00 0.000000e+00 0.000000e+00 5.170597e+01 -3.449920e+00 0.000000e+00 -3.449920e+00 1.030135e+01 0.000000e+00 0.000000e+00 0.000000e+00 0.000000e+00 5.871157e+01 -3.981506e+00 0.000000e+00 -3.981506e+00 1.832286e+01 0.000000e+00 0.000000e+00 0.000000e+00 0.000000e+00 6.636576e+01 -4.610265e+00 0.000000e+00 -4.610265e+00 2.656239e+01 0.000000e+00 0.000000e+00 0.000000e+00 0.000000e+00 7.524854e+01 -4.938268e+00 0.000000e+00 -4.938268e+00 3.596558e+01 0.000000e+00 0.000000e+00 0.000000e+00 0.000000e+00 8.525357e+01 -5.463263e+00 0.000000e+00 -5.463263e+00 4.680082e+01 0.000000e+00 0.000000e+00 0.000000e+00 0.000000e+00 9.706081e+01 -7.568858e+00 0.000000e+00 -7.568858e+00 5.988027e+01 0.000000e+00 0.000000e+00 0.000000e+00 0.000000e+00 1.124771e+02 -9.516597e+00 0.000000e+00 -9.516597e+00 7.611215e+01 0.000000e+00 0.000000e+00 0.000000e+00 0.000000e+00 1.328667e+02 -1.276601e+01 0.000000e+00 -1.276601e+01 9.884945e+01 0.000000e+00 0.000000e+00 0.000000e+00 0.000000e+00 1.568221e+02 -2.277065e+01 0.000000e+00 -2.277065e+01 1.349136e+02 0.000000e+00 0.000000e+00 0.000000e+00 0.000000e+00 1.751961e+02 -3.685582e+01 0.000000e+00 -3.685582e+01 2.107361e+02 0.000000e+00 0.000000e+00 0.000000e+00 0.000000e+00 5.761959e+01 1.051704e+01 0.000000e+00 1.051704e+01 9.755344e-01 0.000000e+00 0.000000e+00 0.000000e+00 0.000000e+00 4.034972e+01 5.301182e+00 0.000000e+00 5.301182e+00 6.389474e-01 0.000000e+00 0.000000e+00 0.000000e+00 0.000000e+00 3.015684e+01 4.703805e+00 0.000000e+00 4.703805e+00 -5.152669e-02 0.000000e+00 0.000000e+00 0.000000e+00 0.000000e+00 2.233703e+01 5.124364e+00 0.000000e+00 5.124364e+00 -4.884854e-01 0.000000e+00 0.000000e+00 0.000000e+00 0.000000e+00 1.994195e+01 8.259816e+00 0.000000e+00 8.259816e+00 2.805229e+00 0.000000e+00 0.000000e+00 0.000000e+00 0.000000e+00 1.500454e+01 7.112647e+00 0.000000e+00 7.112647e+00 1.050432e+00 0.000000e+00 0.000000e+00 0.000000e+00 0.000000e+00 2.526976e+00 4.801637e+00 0.000000e+00 4.801637e+00 1.323309e+00 0.000000e+00 0.000000e+00 0.000000e+00 0.000000e+00 -3.637851e+00 -1.720765e-01 0.000000e+00 -1.720765e-01 9.239868e-01 0.000000e+00 0.000000e+00 0.000000e+00 0.000000e+00 -1.142480e+00 -1.385187e+00 0.000000e+00 -1.385187e+00 -3.513486e-01 0.000000e+00 0.000000e+00 0.000000e+00 0.000000e+00 6.261815e-01 -5.042003e-01 0.000000e+00 -5.042003e-01 -2.070549e+00 0.000000e+00 0.000000e+00 0.000000e+00 0.000000e+00 3.520043e-01 1.109808e+00 0.000000e+00 1.109808e+00 -1.514022e+00 0.000000e+00 0.000000e+00 0.000000e+00 0.000000e+00 -4.644194e-01 9.735044e-01 0.000000e+00 9.735044e-01 3.911545e-01 0.000000e+00 0.000000e+00 0.000000e+00 0.000000e+00 -4.002212e-01 -1.807143e-01 0.000000e+00 -1.807143e-01 8.292609e-01 0.000000e+00 0.000000e+00 0.000000e+00 0.000000e+00 -2.455467e+01 8.228382e+00 0.000000e+00 8.228382e+00 -8.586302e-03 0.000000e+00 0.000000e+00 0.000000e+00 0.000000e+00 -1.066392e+00 1.830173e+00 0.000000e+00 1.830173e+00 -1.208242e+00 0.000000e+00 0.000000e+00 0.000000e+00 0.000000e+00 -1.006420e+01 5.802426e+00 0.000000e+00 5.802426e+00 -1.094743e+00 0.000000e+00 0.000000e+00 0.000000e+00 0.000000e+00 -3.856238e+01 5.766303e+00 0.000000e+00 5.766303e+00 1.738182e+00 0.000000e+00 0.000000e+00 0.000000e+00 0.000000e+00 -3.929737e+01 -4.178885e+00 0.000000e+00 -4.178885e+00 4.231531e+00 0.000000e+00 0.000000e+00 0.000000e+00 0.000000e+00 -7.486414e-01 -1.242546e+01 0.000000e+00 -1.242546e+01 -3.051802e+01 0.000000e+00 0.000000e+00 0.000000e+00 0.000000e+00 2.241081e+00 -2.777107e+00 0.000000e+00 -2.777107e+00 -7.672528e+01 0.000000e+00 0.000000e+00 0.000000e+00 0.000000e+00 4.187444e+00 -2.742296e+00 0.000000e+00 -2.742296e+00 -6.766789e+01 0.000000e+00 0.000000e+00 0.000000e+00 0.000000e+00 1.418212e+01 -3.824796e+00 0.000000e+00 -3.824796e+00 -4.031649e+01 0.000000e+00 0.000000e+00 0.000000e+00 0.000000e+00 1.116271e+01 -3.354982e+00 0.000000e+00 -3.354982e+00 -4.772621e+01 0.000000e+00 0.000000e+00 0.000000e+00 0.000000e+00 3.095904e+00 -2.768703e+00 0.000000e+00 -2.768703e+00 -7.209731e+01 0.000000e+00 0.000000e+00 0.000000e+00 0.000000e+00 1.259261e+01 -3.464084e+00 0.000000e+00 -3.464084e+00 -4.392351e+01 0.000000e+00 0.000000e+00 0.000000e+00 0.000000e+00 9.620293e+00 -3.499960e+00 0.000000e+00 -3.499960e+00 -5.127379e+01 0.000000e+00 0.000000e+00 0.000000e+00 0.000000e+00 3.032808e+01 -5.003462e+00 0.000000e+00 -5.003462e+00 -1.438377e+01 0.000000e+00 0.000000e+00 0.000000e+00 0.000000e+00 2.581701e+01 -4.946477e+00 0.000000e+00 -4.946477e+00 -2.078093e+01 0.000000e+00 0.000000e+00 0.000000e+00 0.000000e+00 1.230145e+02 -2.435773e+01 0.000000e+00 -2.435773e+01 1.074856e+02 0.000000e+00 0.000000e+00 0.000000e+00 0.000000e+00 2.821954e+01 -4.974325e+00 0.000000e+00 -4.974325e+00 -1.759013e+01 0.000000e+00 0.000000e+00 0.000000e+00 0.000000e+00 2.357847e+01 -4.788454e+00 0.000000e+00 -4.788454e+00 -2.401773e+01 0.000000e+00 0.000000e+00 0.000000e+00 0.000000e+00 4.051770e+01 -6.257969e+00 0.000000e+00 -6.257969e+00 -1.606271e+00 0.000000e+00 0.000000e+00 0.000000e+00 0.000000e+00 4.655260e+01 -6.383868e+00 0.000000e+00 -6.383868e+00 5.160020e+00 0.000000e+00 0.000000e+00 0.000000e+00 0.000000e+00 4.337416e+01 -6.380724e+00 0.000000e+00 -6.380724e+00 1.684542e+00 0.000000e+00 0.000000e+00 0.000000e+00 0.000000e+00 3.761165e+01 -6.071570e+00 0.000000e+00 -6.071570e+00 -4.994192e+00 0.000000e+00 0.000000e+00 0.000000e+00 0.000000e+00 5.593251e+01 -7.913426e+00 0.000000e+00 -7.913426e+00 1.649256e+01 0.000000e+00 0.000000e+00 0.000000e+00 0.000000e+00 7.628146e+01 -1.006812e+01 0.000000e+00 -1.006812e+01 3.980361e+01 0.000000e+00 0.000000e+00 0.000000e+00 0.000000e+00 6.331438e+01 -8.780391e+00 0.000000e+00 -8.780391e+00 2.520737e+01 0.000000e+00 0.000000e+00 0.000000e+00 0.000000e+00 7.124684e+01 -9.875013e+00 0.000000e+00 -9.875013e+00 3.473447e+01 0.000000e+00 0.000000e+00 0.000000e+00 0.000000e+00 1.094169e+02 -1.875674e+01 0.000000e+00 -1.875674e+01 8.405074e+01 0.000000e+00 0.000000e+00 0.000000e+00 0.000000e+00 9.549183e+01 -1.533306e+01 0.000000e+00 -1.533306e+01 6.510911e+01 0.000000e+00 0.000000e+00 0.000000e+00 0.000000e+00 6.689370e+01 -9.451277e+00 0.000000e+00 -9.451277e+00 2.974660e+01 0.000000e+00 0.000000e+00 0.000000e+00 0.000000e+00 1.016775e+02 -1.727687e+01 0.000000e+00 -1.727687e+01 7.403040e+01 0.000000e+00 0.000000e+00 0.000000e+00 0.000000e+00 8.958316e+01 -1.340043e+01 0.000000e+00 -1.340043e+01 5.683954e+01 0.000000e+00 0.000000e+00 0.000000e+00 0.000000e+00 1.200477e+02 -1.994351e+01 0.000000e+00 -1.994351e+01 9.403051e+01 0.000000e+00 0.000000e+00 0.000000e+00 0.000000e+00 3.865260e+01 1.087743e+01 0.000000e+00 1.087743e+01 1.924367e+00 0.000000e+00 0.000000e+00 0.000000e+00 0.000000e+00 1.096202e+02 -1.242117e+01 0.000000e+00 -1.242117e+01 2.236639e+02 0.000000e+00 0.000000e+00 0.000000e+00 0.000000e+00 2.879815e+01 8.512342e+00 0.000000e+00 8.512342e+00 -1.821277e-02 0.000000e+00 0.000000e+00 0.000000e+00 0.000000e+00 4.602520e+01 1.400980e+01 0.000000e+00 1.400980e+01 4.605681e+00 0.000000e+00 0.000000e+00 0.000000e+00 0.000000e+00 5.575569e+01 2.149372e+01 0.000000e+00 2.149372e+01 1.050760e+01 0.000000e+00 0.000000e+00 0.000000e+00 0.000000e+00 1.253927e+02 -3.163569e+01 0.000000e+00 -3.163569e+01 1.859043e+02 0.000000e+00 0.000000e+00 0.000000e+00 0.000000e+00 3.310285e+01 9.358592e+00 0.000000e+00 9.358592e+00 7.226279e-01 0.000000e+00 0.000000e+00 0.000000e+00 0.000000e+00 8.885584e+01 3.374514e+01 0.000000e+00 3.374514e+01 8.901042e+00 0.000000e+00 0.000000e+00 0.000000e+00 0.000000e+00 1.228557e+01 1.115359e+01 0.000000e+00 1.115359e+01 1.932507e+00 0.000000e+00 0.000000e+00 0.000000e+00 0.000000e+00 2.308774e+01 7.465246e+00 0.000000e+00 7.465246e+00 -3.214325e-01 0.000000e+00 0.000000e+00 0.000000e+00 0.000000e+00 1.629550e+01 1.028962e+01 0.000000e+00 1.028962e+01 2.513304e+00 0.000000e+00 0.000000e+00 0.000000e+00 0.000000e+00 -7.098524e-01 -6.690365e-02 0.000000e+00 -6.690365e-02 -1.303659e+00 0.000000e+00 0.000000e+00 0.000000e+00 0.000000e+00 7.776301e+00 1.076119e+01 0.000000e+00 1.076119e+01 2.645945e+00 0.000000e+00 0.000000e+00 0.000000e+00 0.000000e+00 -1.017767e+00 7.492927e-01 0.000000e+00 7.492927e-01 -4.606570e-01 0.000000e+00 0.000000e+00 0.000000e+00 0.000000e+00 1.202180e+00 1.160244e+00 0.000000e+00 1.160244e+00 -1.765588e+00 0.000000e+00 0.000000e+00 0.000000e+00 0.000000e+00 -6.044349e-01 -1.042809e+00 0.000000e+00 -1.042809e+00 1.651196e+00 0.000000e+00 0.000000e+00 0.000000e+00 0.000000e+00 -2.139450e-03 -1.857179e+00 0.000000e+00 -1.857179e+00 -9.416661e-03 0.000000e+00 0.000000e+00 0.000000e+00 0.000000e+00 1.404518e-01 -3.569870e+00 0.000000e+00 -3.569870e+00 -8.657905e+01 0.000000e+00 0.000000e+00 0.000000e+00 0.000000e+00 7.068907e-01 -1.385069e+00 0.000000e+00 -1.385069e+00 -1.060945e+00 0.000000e+00 0.000000e+00 0.000000e+00 0.000000e+00 1.674912e+00 -2.705700e-01 0.000000e+00 -2.705700e-01 -1.613351e+00 0.000000e+00 0.000000e+00 0.000000e+00 0.000000e+00 -1.128517e+01 1.108150e+01 0.000000e+00 1.108150e+01 -1.688332e+00 0.000000e+00 0.000000e+00 0.000000e+00 0.000000e+00 -9.475402e-01 1.969930e-01 0.000000e+00 1.969930e-01 -8.649683e-01 0.000000e+00 0.000000e+00 0.000000e+00 0.000000e+00 -6.650548e+00 8.227091e+00 0.000000e+00 8.227091e+00 -2.419353e+00 0.000000e+00 0.000000e+00 0.000000e+00 0.000000e+00 -1.588792e+01 1.349459e+01 0.000000e+00 1.349459e+01 -4.071377e-01 0.000000e+00 0.000000e+00 0.000000e+00 0.000000e+00 -3.660941e-01 4.618300e-02 0.000000e+00 4.618300e-02 -1.168908e+00 0.000000e+00 0.000000e+00 0.000000e+00 0.000000e+00 -2.525563e+01 1.133364e+01 0.000000e+00 1.133364e+01 3.173686e+00 0.000000e+00 0.000000e+00 0.000000e+00 0.000000e+00 -2.623820e+01 -1.250933e+01 0.000000e+00 -1.250933e+01 8.851210e+00 0.000000e+00 0.000000e+00 0.000000e+00 0.000000e+00 -3.080165e+00 5.041414e+00 0.000000e+00 5.041414e+00 -2.713615e+00 0.000000e+00 0.000000e+00 0.000000e+00 0.000000e+00 -2.107144e+01 1.323634e+01 0.000000e+00 1.323634e+01 1.310691e+00 0.000000e+00 0.000000e+00 0.000000e+00 0.000000e+00 -2.006542e+01 -1.768497e+01 0.000000e+00 -1.768497e+01 3.707879e+00 0.000000e+00 0.000000e+00 0.000000e+00 0.000000e+00 -3.428994e+00 -1.965062e+01 0.000000e+00 -1.965062e+01 -1.835764e+01 0.000000e+00 0.000000e+00 0.000000e+00 0.000000e+00 -1.234759e+01 -1.845541e+01 0.000000e+00 -1.845541e+01 -3.162070e+00 0.000000e+00 0.000000e+00 0.000000e+00 0.000000e+00 1.205279e+00 -2.969151e+00 0.000000e+00 -2.969151e+00 -8.148379e+01 0.000000e+00 0.000000e+00 0.000000e+00 0.000000e+00 5.964631e+01 -8.201133e+00 0.000000e+00 -8.201133e+00 2.069289e+01 0.000000e+00 0.000000e+00 0.000000e+00 0.000000e+00 1.168547e+02 6.352801e+01 0.000000e+00 6.352801e+01 2.167435e+02 0.000000e+00 0.000000e+00 0.000000e+00 0.000000e+00 -1.075142e+00 2.065203e+00 0.000000e+00 2.065203e+00 -2.555571e+00 0.000000e+00 0.000000e+00 0.000000e+00 0.000000e+00 7.265320e-01 -9.501677e+00 0.000000e+00 -9.501677e+00 -4.668178e+01 0.000000e+00 0.000000e+00 0.000000e+00 0.000000e+00 1.778573e+01 -3.895386e+00 0.000000e+00 -3.895386e+00 -3.371122e+01 0.000000e+00 0.000000e+00 0.000000e+00 0.000000e+00 1.951202e+00 -1.560618e+00 0.000000e+00 -1.560618e+00 -5.236488e-01 0.000000e+00 0.000000e+00 0.000000e+00 0.000000e+00 1.338686e+00 -1.960073e+00 0.000000e+00 -1.960073e+00 1.040815e+00 0.000000e+00 0.000000e+00 0.000000e+00 0.000000e+00 -8.397144e-01 1.265586e+00 0.000000e+00 1.265586e+00 2.702413e+00 0.000000e+00 0.000000e+00 0.000000e+00 0.000000e+00 3.830271e+00 8.199655e+00 0.000000e+00 8.199655e+00 3.579021e+00 0.000000e+00 0.000000e+00 0.000000e+00 0.000000e+00 1.150926e+01 1.453026e+01 0.000000e+00 1.453026e+01 2.431235e+00 0.000000e+00 0.000000e+00 0.000000e+00 0.000000e+00 1.276105e+01 1.747588e+01 0.000000e+00 1.747588e+01 5.157144e-01 0.000000e+00 0.000000e+00 0.000000e+00 0.000000e+00 4.970348e+00 1.885861e+01 0.000000e+00 1.885861e+01 8.679949e-01 0.000000e+00 0.000000e+00 0.000000e+00 0.000000e+00 -4.705696e+00 1.970375e+01 0.000000e+00 1.970375e+01 4.521640e-01 0.000000e+00 0.000000e+00 0.000000e+00 0.000000e+00 -7.244937e+00 1.936885e+01 0.000000e+00 1.936885e+01 -1.284848e+00 0.000000e+00 0.000000e+00 0.000000e+00 0.000000e+00 -7.684236e+00 1.797592e+01 0.000000e+00 1.797592e+01 -3.613547e+00 0.000000e+00 0.000000e+00 0.000000e+00 0.000000e+00 -6.169255e+00 1.559598e+01 0.000000e+00 1.559598e+01 -5.560183e+00 0.000000e+00 0.000000e+00 0.000000e+00 0.000000e+00 -1.947938e+00 8.657305e+00 0.000000e+00 8.657305e+00 -7.794618e+00 0.000000e+00 0.000000e+00 0.000000e+00 0.000000e+00 -7.040864e-01 5.070929e+00 0.000000e+00 5.070929e+00 -7.658140e+00 0.000000e+00 0.000000e+00 0.000000e+00 0.000000e+00 -7.748387e-01 1.973705e+00 0.000000e+00 1.973705e+00 -6.116090e+00 0.000000e+00 0.000000e+00 0.000000e+00 0.000000e+00 -1.595112e+00 6.055100e-01 0.000000e+00 6.055100e-01 -2.234139e+00 0.000000e+00 0.000000e+00 0.000000e+00 0.000000e+00 -1.243383e+00 1.290154e+00 0.000000e+00 1.290154e+00 -1.170822e+00 0.000000e+00 0.000000e+00 0.000000e+00 0.000000e+00 1.174758e+02 6.627247e+01 0.000000e+00 6.627247e+01 8.459028e+01 0.000000e+00 0.000000e+00 0.000000e+00 0.000000e+00 6.427040e+01 3.588406e+01 0.000000e+00 3.588406e+01 2.891961e+01 0.000000e+00 0.000000e+00 0.000000e+00 0.000000e+00 9.217227e-01 -1.747891e+01 0.000000e+00 -1.747891e+01 -3.673276e+01 0.000000e+00 0.000000e+00 0.000000e+00 0.000000e+00 7.766245e+01 5.491316e+01 0.000000e+00 5.491316e+01 6.376355e+01 0.000000e+00 0.000000e+00 0.000000e+00 0.000000e+00 -2.354136e-01 -5.533415e+00 0.000000e+00 -5.533415e+00 -9.884000e+01 0.000000e+00 0.000000e+00 0.000000e+00 0.000000e+00 6.537495e+00 -3.235094e+00 0.000000e+00 -3.235094e+00 -5.902543e+01 0.000000e+00 0.000000e+00 0.000000e+00 0.000000e+00 3.272455e+01 -5.403060e+00 0.000000e+00 -5.403060e+00 -1.124774e+01 0.000000e+00 0.000000e+00 0.000000e+00 0.000000e+00 1.621243e+01 -3.971064e+00 0.000000e+00 -3.971064e+00 -3.713371e+01 0.000000e+00 0.000000e+00 0.000000e+00 0.000000e+00 4.912748e+01 -6.862423e+00 0.000000e+00 -6.862423e+00 8.741543e+00 0.000000e+00 0.000000e+00 0.000000e+00 0.000000e+00 8.124193e+01 -9.582269e+00 0.000000e+00 -9.582269e+00 4.431122e+01 0.000000e+00 0.000000e+00 0.000000e+00 0.000000e+00 8.830482e+01 3.136519e+01 0.000000e+00 3.136519e+01 2.189310e+02 0.000000e+00 0.000000e+00 0.000000e+00 0.000000e+00 2.545730e+01 7.990670e+00 0.000000e+00 7.990670e+00 -5.118441e-01 0.000000e+00 0.000000e+00 0.000000e+00 0.000000e+00 1.282093e+02 -2.921564e+01 0.000000e+00 -2.921564e+01 1.267030e+02 0.000000e+00 0.000000e+00 0.000000e+00 0.000000e+00 -2.817353e+01 7.637343e+00 0.000000e+00 7.637343e+00 5.677995e+00 0.000000e+00 0.000000e+00 0.000000e+00 0.000000e+00 2.131275e+01 8.889011e+00 0.000000e+00 8.889011e+00 9.628838e-01 0.000000e+00 0.000000e+00 0.000000e+00 0.000000e+00 -1.301662e+00 -1.086490e+01 0.000000e+00 -1.086490e+01 -5.116271e+01 0.000000e+00 0.000000e+00 0.000000e+00 0.000000e+00 -9.232597e-01 -2.067321e+01 0.000000e+00 -2.067321e+01 -2.549603e+01 0.000000e+00 0.000000e+00 0.000000e+00 0.000000e+00 5.265516e+00 -2.921441e+00 0.000000e+00 -2.921441e+00 -6.313369e+01 0.000000e+00 0.000000e+00 0.000000e+00 0.000000e+00 -2.671171e+01 -5.764291e+00 0.000000e+00 -5.764291e+00 1.092141e+01 0.000000e+00 0.000000e+00 0.000000e+00 0.000000e+00 8.239755e+01 5.890322e+01 0.000000e+00 5.890322e+01 1.316047e+02 0.000000e+00 0.000000e+00 0.000000e+00 0.000000e+00 -6.475958e+00 -1.729570e+01 0.000000e+00 -1.729570e+01 -9.725072e+00 0.000000e+00 0.000000e+00 0.000000e+00 0.000000e+00 3.033971e-01 1.926276e+00 0.000000e+00 1.926276e+00 -1.316226e+00 0.000000e+00 0.000000e+00 0.000000e+00 0.000000e+00 1.986315e+01 -4.046487e+00 0.000000e+00 -4.046487e+00 -3.037258e+01 0.000000e+00 0.000000e+00 0.000000e+00 0.000000e+00 -5.697519e-01 1.866280e+00 0.000000e+00 1.866280e+00 -8.574948e-01 0.000000e+00 0.000000e+00 0.000000e+00 0.000000e+00 -1.181723e+00 4.977326e-01 0.000000e+00 4.977326e-01 -3.608074e+00 0.000000e+00 0.000000e+00 0.000000e+00 0.000000e+00 -3.902538e+00 1.233091e+01 0.000000e+00 1.233091e+01 -6.914024e+00 0.000000e+00 0.000000e+00 0.000000e+00 0.000000e+00 -1.017838e+01 1.514118e+01 0.000000e+00 1.514118e+01 -2.521964e+00 0.000000e+00 0.000000e+00 0.000000e+00 0.000000e+00 -3.101748e-01 1.935370e+01 0.000000e+00 1.935370e+01 1.074505e+00 0.000000e+00 0.000000e+00 0.000000e+00 0.000000e+00 9.774139e+00 1.831438e+01 0.000000e+00 1.831438e+01 4.700129e-01 0.000000e+00 0.000000e+00 0.000000e+00 0.000000e+00 1.352069e+01 1.601615e+01 0.000000e+00 1.601615e+01 1.281125e+00 0.000000e+00 0.000000e+00 0.000000e+00 0.000000e+00 7.742442e-01 4.690460e+00 0.000000e+00 4.690460e+00 3.422303e+00 0.000000e+00 0.000000e+00 0.000000e+00 0.000000e+00 -5.193345e-01 -4.544908e+00 0.000000e+00 -4.544908e+00 -9.235709e+01 0.000000e+00 0.000000e+00 0.000000e+00 0.000000e+00 8.026308e+00 -3.418094e+00 0.000000e+00 -3.418094e+00 -5.499516e+01 0.000000e+00 0.000000e+00 0.000000e+00 0.000000e+00 2.156357e+01 -4.438971e+00 0.000000e+00 -4.438971e+00 -2.712089e+01 0.000000e+00 0.000000e+00 0.000000e+00 0.000000e+00 3.508827e+01 -5.755869e+00 0.000000e+00 -5.755869e+00 -8.228280e+00 0.000000e+00 0.000000e+00 0.000000e+00 0.000000e+00 5.229416e+01 -7.484573e+00 0.000000e+00 -7.484573e+00 1.254316e+01 0.000000e+00 0.000000e+00 0.000000e+00 0.000000e+00 8.476301e+01 -1.158317e+01 0.000000e+00 -1.158317e+01 4.979636e+01 0.000000e+00 0.000000e+00 0.000000e+00 0.000000e+00 1.300808e+02 -3.315421e+01 0.000000e+00 -3.315421e+01 1.529283e+02 0.000000e+00 0.000000e+00 0.000000e+00 0.000000e+00 -2.948235e+01 1.644223e+00 0.000000e+00 1.644223e+00 8.709875e+00 0.000000e+00 0.000000e+00 0.000000e+00 0.000000e+00 7.214405e-01 -1.377445e+01 0.000000e+00 -1.377445e+01 -5.205837e+01 0.000000e+00 0.000000e+00 0.000000e+00 0.000000e+00 1.238323e+00 -1.873668e+01 0.000000e+00 -1.873668e+01 -3.989055e+01 0.000000e+00 0.000000e+00 0.000000e+00 0.000000e+00 -3.433595e-01 -5.590096e+00 0.000000e+00 -5.590096e+00 -6.758777e+01 0.000000e+00 0.000000e+00 0.000000e+00 0.000000e+00 3.137144e+00 -1.760494e+01 0.000000e+00 -1.760494e+01 -4.593938e+01 0.000000e+00 0.000000e+00 0.000000e+00 0.000000e+00 2.251733e+00 -1.191788e+01 0.000000e+00 -1.191788e+01 -6.014038e+01 0.000000e+00 0.000000e+00 0.000000e+00 0.000000e+00 3.119412e+00 -3.700858e+00 0.000000e+00 -3.700858e+00 -7.498002e+01 0.000000e+00 0.000000e+00 0.000000e+00 0.000000e+00 2.395858e+01 -7.633402e+00 0.000000e+00 -7.633402e+00 -2.225326e+01 0.000000e+00 0.000000e+00 0.000000e+00 0.000000e+00 8.514896e+01 -1.985638e+01 0.000000e+00 -1.985638e+01 6.162064e+01 0.000000e+00 0.000000e+00 0.000000e+00 0.000000e+00 3.791705e+01 -9.627516e+00 0.000000e+00 -9.627516e+00 -2.955261e+00 0.000000e+00 0.000000e+00 0.000000e+00 0.000000e+00 -1.867384e+01 7.883589e+00 0.000000e+00 7.883589e+00 1.283841e+01 0.000000e+00 0.000000e+00 0.000000e+00 0.000000e+00 7.176019e+01 -1.556985e+01 0.000000e+00 -1.556985e+01 3.992801e+01 0.000000e+00 0.000000e+00 0.000000e+00 0.000000e+00 3.318448e+01 1.518504e+01 0.000000e+00 1.518504e+01 3.605190e+00 0.000000e+00 0.000000e+00 0.000000e+00 0.000000e+00 1.493058e+01 -6.554823e+00 0.000000e+00 -6.554823e+00 -3.809641e+01 0.000000e+00 0.000000e+00 0.000000e+00 0.000000e+00 3.826981e+01 1.836219e+01 0.000000e+00 1.836219e+01 7.185813e+00 0.000000e+00 0.000000e+00 0.000000e+00 0.000000e+00 1.812123e+01 1.106061e+01 0.000000e+00 1.106061e+01 1.823584e+00 0.000000e+00 0.000000e+00 0.000000e+00 0.000000e+00 2.602586e+01 1.135057e+01 0.000000e+00 1.135057e+01 1.504320e-01 0.000000e+00 0.000000e+00 0.000000e+00 0.000000e+00 6.823634e+01 2.466432e+01 0.000000e+00 2.466432e+01 1.852106e+02 0.000000e+00 0.000000e+00 0.000000e+00 0.000000e+00 2.354177e+01 1.007640e+01 0.000000e+00 1.007640e+01 -7.304081e-02 0.000000e+00 0.000000e+00 0.000000e+00 0.000000e+00 4.471749e+01 2.331901e+01 0.000000e+00 2.331901e+01 1.325406e+01 0.000000e+00 0.000000e+00 0.000000e+00 0.000000e+00 8.053118e+01 -1.002978e+01 0.000000e+00 -1.002978e+01 1.849194e+02 0.000000e+00 0.000000e+00 0.000000e+00 0.000000e+00 2.948823e+01 1.292965e+01 0.000000e+00 1.292965e+01 1.475141e+00 0.000000e+00 0.000000e+00 0.000000e+00 0.000000e+00 5.774745e+01 4.715010e+01 0.000000e+00 4.715010e+01 1.067450e+02 0.000000e+00 0.000000e+00 0.000000e+00 0.000000e+00 -1.964623e+01 -1.058894e+01 0.000000e+00 -1.058894e+01 1.716374e+01 0.000000e+00 0.000000e+00 0.000000e+00 0.000000e+00 -6.964692e+00 1.225847e+01 0.000000e+00 1.225847e+01 -3.826966e+00 0.000000e+00 0.000000e+00 0.000000e+00 0.000000e+00 -1.677719e+01 1.314538e+01 0.000000e+00 1.314538e+01 7.730975e+00 0.000000e+00 0.000000e+00 0.000000e+00 0.000000e+00 6.804755e-01 -2.382885e+01 0.000000e+00 -2.382885e+01 -2.525623e+01 0.000000e+00 0.000000e+00 0.000000e+00 0.000000e+00 5.710921e+00 -4.502134e+00 0.000000e+00 -4.502134e+00 -6.132311e+01 0.000000e+00 0.000000e+00 0.000000e+00 0.000000e+00 1.010235e+01 -5.256359e+00 0.000000e+00 -5.256359e+00 -4.906897e+01 0.000000e+00 0.000000e+00 0.000000e+00 0.000000e+00 -1.264288e+01 -2.337690e+01 0.000000e+00 -2.337690e+01 2.070978e+00 0.000000e+00 0.000000e+00 0.000000e+00 0.000000e+00 1.460672e+01 1.338397e+01 0.000000e+00 1.338397e+01 2.034122e+00 0.000000e+00 0.000000e+00 0.000000e+00 0.000000e+00 4.912256e+01 3.132396e+01 0.000000e+00 3.132396e+01 2.836647e+01 0.000000e+00 0.000000e+00 0.000000e+00 0.000000e+00 -4.055187e+00 8.885695e+00 0.000000e+00 8.885695e+00 -4.791416e+00 0.000000e+00 0.000000e+00 0.000000e+00 0.000000e+00 -3.951148e+00 1.943922e+01 0.000000e+00 1.943922e+01 2.174217e+00 0.000000e+00 0.000000e+00 0.000000e+00 0.000000e+00 8.251713e+00 1.875384e+01 0.000000e+00 1.875384e+01 1.778458e+00 0.000000e+00 0.000000e+00 0.000000e+00 0.000000e+00 -3.266730e+00 -2.473470e+01 0.000000e+00 -2.473470e+01 -1.504883e+01 0.000000e+00 0.000000e+00 0.000000e+00 0.000000e+00 -7.264564e+00 -2.317274e+01 0.000000e+00 -2.317274e+01 -7.225113e+00 0.000000e+00 0.000000e+00 0.000000e+00 0.000000e+00 1.490429e+01 1.608426e+01 0.000000e+00 1.608426e+01 6.306857e-01 0.000000e+00 0.000000e+00 0.000000e+00 0.000000e+00 1.365068e+01 1.754758e+01 0.000000e+00 1.754758e+01 1.116844e+00 0.000000e+00 0.000000e+00 0.000000e+00 0.000000e+00 1.945709e+00 1.935882e+01 0.000000e+00 1.935882e+01 2.245380e+00 0.000000e+00 0.000000e+00 0.000000e+00 0.000000e+00 -8.526265e+00 1.897501e+01 0.000000e+00 1.897501e+01 9.985151e-01 0.000000e+00 0.000000e+00 0.000000e+00 0.000000e+00 -1.069698e+01 1.731491e+01 0.000000e+00 1.731491e+01 -9.137971e-01 0.000000e+00 0.000000e+00 0.000000e+00 0.000000e+00 -1.977964e+00 5.493938e+00 0.000000e+00 5.493938e+00 -5.291240e+00 0.000000e+00 0.000000e+00 0.000000e+00 0.000000e+00 -9.544623e-01 2.940592e+00 0.000000e+00 2.940592e+00 -5.013790e+00 0.000000e+00 0.000000e+00 0.000000e+00 0.000000e+00 4.275928e+00 -1.519503e+01 0.000000e+00 -1.519503e+01 -5.328040e+01 0.000000e+00 0.000000e+00 0.000000e+00 0.000000e+00 3.548708e+00 -2.268968e+01 0.000000e+00 -2.268968e+01 -3.262036e+01 0.000000e+00 0.000000e+00 0.000000e+00 0.000000e+00 -1.653979e+01 -1.927557e+01 0.000000e+00 -1.927557e+01 1.211083e+01 0.000000e+00 0.000000e+00 0.000000e+00 0.000000e+00 3.722606e+00 -3.882847e+00 0.000000e+00 -3.882847e+00 -6.926916e+01 0.000000e+00 0.000000e+00 0.000000e+00 0.000000e+00 5.207475e+01 -1.175207e+01 0.000000e+00 -1.175207e+01 1.485454e+01 0.000000e+00 0.000000e+00 0.000000e+00 0.000000e+00 2.187950e+01 -7.080846e+00 0.000000e+00 -7.080846e+00 -2.586690e+01 0.000000e+00 0.000000e+00 0.000000e+00 0.000000e+00 1.325408e+01 -5.577830e+00 0.000000e+00 -5.577830e+00 -4.223355e+01 0.000000e+00 0.000000e+00 0.000000e+00 0.000000e+00 3.077955e+01 -7.853211e+00 0.000000e+00 -7.853211e+00 -1.302923e+01 0.000000e+00 0.000000e+00 0.000000e+00 0.000000e+00 6.628016e+01 -1.512711e+01 0.000000e+00 -1.512711e+01 3.436121e+01 0.000000e+00 0.000000e+00 0.000000e+00 0.000000e+00 8.042932e+01 -1.773674e+01 0.000000e+00 -1.773674e+01 5.280953e+01 0.000000e+00 0.000000e+00 0.000000e+00 0.000000e+00 9.581103e+01 -2.729897e+01 0.000000e+00 -2.729897e+01 1.628617e+02 0.000000e+00 0.000000e+00 0.000000e+00 0.000000e+00 9.462555e+01 -2.499589e+01 0.000000e+00 -2.499589e+01 8.303092e+01 0.000000e+00 0.000000e+00 0.000000e+00 0.000000e+00 4.356403e+01 -9.731636e+00 0.000000e+00 -9.731636e+00 4.116107e+00 0.000000e+00 0.000000e+00 0.000000e+00 0.000000e+00 6.304339e+01 -1.377679e+01 0.000000e+00 -1.377679e+01 2.893660e+01 0.000000e+00 0.000000e+00 0.000000e+00 0.000000e+00 2.859622e+01 -7.462575e+00 0.000000e+00 -7.462575e+00 -1.583517e+01 0.000000e+00 0.000000e+00 0.000000e+00 0.000000e+00 1.035531e+02 -2.659073e+01 0.000000e+00 -2.659073e+01 9.693026e+01 0.000000e+00 0.000000e+00 0.000000e+00 0.000000e+00 4.784987e+00 -4.072422e+00 0.000000e+00 -4.072422e+00 -6.536412e+01 0.000000e+00 0.000000e+00 0.000000e+00 0.000000e+00 5.309483e+01 4.418355e+01 0.000000e+00 4.418355e+01 6.843038e+01 0.000000e+00 0.000000e+00 0.000000e+00 0.000000e+00 8.978167e+01 -2.272676e+01 0.000000e+00 -2.272676e+01 7.216000e+01 0.000000e+00 0.000000e+00 0.000000e+00 0.000000e+00 -1.556498e+01 1.584036e+01 0.000000e+00 1.584036e+01 3.826466e+00 0.000000e+00 0.000000e+00 0.000000e+00 0.000000e+00 7.067094e+00 -5.265774e+00 0.000000e+00 -5.265774e+00 -5.652553e+01 0.000000e+00 0.000000e+00 0.000000e+00 0.000000e+00 5.969627e+01 -1.263348e+01 0.000000e+00 -1.263348e+01 2.373985e+01 0.000000e+00 0.000000e+00 0.000000e+00 0.000000e+00 -8.936258e-01 8.942216e-01 0.000000e+00 8.942216e-01 -3.311271e+00 0.000000e+00 0.000000e+00 0.000000e+00 0.000000e+00 7.796694e+01 -1.477988e+01 0.000000e+00 -1.477988e+01 4.553439e+01 0.000000e+00 0.000000e+00 0.000000e+00 0.000000e+00 1.666713e+01 1.397083e+01 0.000000e+00 1.397083e+01 1.161945e+00 0.000000e+00 0.000000e+00 0.000000e+00 0.000000e+00 3.514052e+01 -9.215696e+00 0.000000e+00 -9.215696e+00 -6.444632e+00 0.000000e+00 0.000000e+00 0.000000e+00 0.000000e+00 5.571821e+01 -1.221511e+01 0.000000e+00 -1.221511e+01 1.917269e+01 0.000000e+00 0.000000e+00 0.000000e+00 0.000000e+00 -8.712036e+00 1.846207e+01 0.000000e+00 1.846207e+01 3.213805e+00 0.000000e+00 0.000000e+00 0.000000e+00 0.000000e+00 1.169935e+01 -4.838975e+00 0.000000e+00 -4.838975e+00 -4.573551e+01 0.000000e+00 0.000000e+00 0.000000e+00 0.000000e+00 2.768321e+00 -3.396943e+00 0.000000e+00 -3.396943e+00 -8.013698e+01 0.000000e+00 0.000000e+00 0.000000e+00 0.000000e+00 1.857366e+01 -6.079991e+00 0.000000e+00 -6.079991e+00 -3.174345e+01 0.000000e+00 0.000000e+00 0.000000e+00 0.000000e+00 8.811528e+00 -5.556729e+00 0.000000e+00 -5.556729e+00 -5.276567e+01 0.000000e+00 0.000000e+00 0.000000e+00 0.000000e+00 -2.000499e+01 -5.080442e-01 0.000000e+00 -5.080442e-01 1.690859e+01 0.000000e+00 0.000000e+00 0.000000e+00 0.000000e+00 4.687267e+01 -9.749770e+00 0.000000e+00 -9.749770e+00 7.188050e+00 0.000000e+00 0.000000e+00 0.000000e+00 0.000000e+00 1.053893e+02 -3.040767e+01 0.000000e+00 -3.040767e+01 1.171522e+02 0.000000e+00 0.000000e+00 0.000000e+00 0.000000e+00 4.194100e+01 3.521371e+01 0.000000e+00 3.521371e+01 5.037293e+01 0.000000e+00 0.000000e+00 0.000000e+00 0.000000e+00 3.156972e+00 -4.064508e+00 0.000000e+00 -4.064508e+00 -9.520369e+01 0.000000e+00 0.000000e+00 0.000000e+00 0.000000e+00 1.663328e+01 -5.723242e+00 0.000000e+00 -5.723242e+00 -3.495576e+01 0.000000e+00 0.000000e+00 0.000000e+00 0.000000e+00 2.174128e+00 -3.704191e+00 0.000000e+00 -3.704191e+00 -8.542466e+01 0.000000e+00 0.000000e+00 0.000000e+00 0.000000e+00 2.970413e+00 -1.164010e+01 0.000000e+00 -1.164010e+01 -6.612292e+01 0.000000e+00 0.000000e+00 0.000000e+00 0.000000e+00 2.135142e+00 -4.074721e+00 0.000000e+00 -4.074721e+00 -8.931320e+01 0.000000e+00 0.000000e+00 0.000000e+00 0.000000e+00 4.100731e+01 -9.782307e+00 0.000000e+00 -9.782307e+00 6.023634e-01 0.000000e+00 0.000000e+00 0.000000e+00 0.000000e+00 2.660145e+01 -7.821700e+00 0.000000e+00 -7.821700e+00 -1.869569e+01 0.000000e+00 0.000000e+00 0.000000e+00 0.000000e+00 -1.399621e+01 1.681097e+01 0.000000e+00 1.681097e+01 1.215764e+00 0.000000e+00 0.000000e+00 0.000000e+00 0.000000e+00 4.142175e+00 -9.318078e+00 0.000000e+00 -9.318078e+00 -7.218411e+01 0.000000e+00 0.000000e+00 0.000000e+00 0.000000e+00 5.473755e+00 -1.984861e+01 0.000000e+00 -1.984861e+01 -3.995017e+01 0.000000e+00 0.000000e+00 0.000000e+00 0.000000e+00 -1.803279e+00 -6.332218e+00 0.000000e+00 -6.332218e+00 -7.990655e+01 0.000000e+00 0.000000e+00 0.000000e+00 0.000000e+00 1.521047e+00 -8.527535e+00 0.000000e+00 -8.527535e+00 -7.030075e+01 0.000000e+00 0.000000e+00 0.000000e+00 0.000000e+00 8.243147e-01 -4.446692e+00 0.000000e+00 -4.446692e+00 -7.913262e+01 0.000000e+00 0.000000e+00 0.000000e+00 0.000000e+00 2.594658e+00 -6.161218e+00 0.000000e+00 -6.161218e+00 -7.359257e+01 0.000000e+00 0.000000e+00 0.000000e+00 0.000000e+00 1.102609e+00 -2.270274e+00 0.000000e+00 -2.270274e+00 -8.512439e+01 0.000000e+00 0.000000e+00 0.000000e+00 0.000000e+00 3.907357e+00 -9.231129e+00 0.000000e+00 -9.231129e+00 -6.401501e+01 0.000000e+00 0.000000e+00 0.000000e+00 0.000000e+00 2.691061e+00 -4.276971e+00 0.000000e+00 -4.276971e+00 -7.743740e+01 0.000000e+00 0.000000e+00 0.000000e+00 0.000000e+00 -1.979543e+00 1.084191e+00 0.000000e+00 1.084191e+00 -9.398357e+01 0.000000e+00 0.000000e+00 0.000000e+00 0.000000e+00 4.133287e+00 -2.141631e+00 0.000000e+00 -2.141631e+00 -9.608995e+01 0.000000e+00 0.000000e+00 0.000000e+00 0.000000e+00 4.447356e+00 -1.249512e+01 0.000000e+00 -1.249512e+01 -5.918933e+01 0.000000e+00 0.000000e+00 0.000000e+00 0.000000e+00 3.575090e+00 -3.267190e+00 0.000000e+00 -3.267190e+00 -8.709015e+01 0.000000e+00 0.000000e+00 0.000000e+00 0.000000e+00 2.054345e+01 -6.219408e+00 0.000000e+00 -6.219408e+00 -2.881773e+01 0.000000e+00 0.000000e+00 0.000000e+00 0.000000e+00 3.292136e+01 -8.539731e+00 0.000000e+00 -8.539731e+00 -9.754994e+00 0.000000e+00 0.000000e+00 0.000000e+00 0.000000e+00 -8.356091e+00 1.435137e+01 0.000000e+00 1.435137e+01 1.469335e+01 0.000000e+00 0.000000e+00 0.000000e+00 0.000000e+00 1.698801e+01 -8.132205e+00 0.000000e+00 -8.132205e+00 -3.375518e+01 0.000000e+00 0.000000e+00 0.000000e+00 0.000000e+00 4.865641e+01 -1.093269e+01 0.000000e+00 -1.093269e+01 1.063359e+01 0.000000e+00 0.000000e+00 0.000000e+00 0.000000e+00 1.028495e+02 -3.117236e+01 0.000000e+00 -3.117236e+01 1.378639e+02 0.000000e+00 0.000000e+00 0.000000e+00 0.000000e+00 2.027098e+01 1.212519e+01 0.000000e+00 1.212519e+01 7.673304e-01 0.000000e+00 0.000000e+00 0.000000e+00 0.000000e+00 2.790703e+00 -2.708081e+01 0.000000e+00 -2.708081e+01 -1.875680e+01 0.000000e+00 0.000000e+00 0.000000e+00 0.000000e+00 2.716306e+01 1.755616e+01 0.000000e+00 1.755616e+01 4.756967e+00 0.000000e+00 0.000000e+00 0.000000e+00 0.000000e+00 5.472846e+01 1.106953e+01 0.000000e+00 1.106953e+01 1.585478e+02 0.000000e+00 0.000000e+00 0.000000e+00 0.000000e+00 -7.314045e+00 1.754412e+01 0.000000e+00 1.754412e+01 7.433149e+00 0.000000e+00 0.000000e+00 0.000000e+00 0.000000e+00 -1.323582e+00 -2.785385e+01 0.000000e+00 -2.785385e+01 -1.064664e+01 0.000000e+00 0.000000e+00 0.000000e+00 0.000000e+00 8.167159e+01 -2.883268e+01 0.000000e+00 -2.883268e+01 9.263917e+01 0.000000e+00 0.000000e+00 0.000000e+00 0.000000e+00 5.617769e+01 3.543536e+01 0.000000e+00 3.543536e+01 1.453027e+02 0.000000e+00 0.000000e+00 0.000000e+00 0.000000e+00 1.809510e+01 1.509544e+01 0.000000e+00 1.509544e+01 6.546737e-01 0.000000e+00 0.000000e+00 0.000000e+00 0.000000e+00 3.462960e+00 -4.924163e+00 0.000000e+00 -4.924163e+00 -7.073765e+01 0.000000e+00 0.000000e+00 0.000000e+00 0.000000e+00 4.237704e+00 -5.528639e+00 0.000000e+00 -5.528639e+00 -8.149366e+01 0.000000e+00 0.000000e+00 0.000000e+00 0.000000e+00 3.742437e+01 2.784806e+01 0.000000e+00 2.784806e+01 2.508651e+01 0.000000e+00 0.000000e+00 0.000000e+00 0.000000e+00 3.930716e+01 3.083158e+01 0.000000e+00 3.083158e+01 9.886441e+01 0.000000e+00 0.000000e+00 0.000000e+00 0.000000e+00 4.014412e+00 -6.832200e+00 0.000000e+00 -6.832200e+00 -6.802488e+01 0.000000e+00 0.000000e+00 0.000000e+00 0.000000e+00 -6.531156e+00 -2.688533e+01 0.000000e+00 -2.688533e+01 -3.041011e+00 0.000000e+00 0.000000e+00 0.000000e+00 0.000000e+00 1.181048e+01 1.885708e+01 0.000000e+00 1.885708e+01 3.076507e+00 0.000000e+00 0.000000e+00 0.000000e+00 0.000000e+00 5.744609e+00 -8.809888e+00 0.000000e+00 -8.809888e+00 -5.915817e+01 0.000000e+00 0.000000e+00 0.000000e+00 0.000000e+00 2.912060e+01 2.027988e+01 0.000000e+00 2.027988e+01 9.305544e+00 0.000000e+00 0.000000e+00 0.000000e+00 0.000000e+00 3.049694e+01 -1.066618e+01 0.000000e+00 -1.066618e+01 -1.169341e+01 0.000000e+00 0.000000e+00 0.000000e+00 0.000000e+00 3.317415e+01 3.110102e+01 0.000000e+00 3.110102e+01 7.436263e+01 0.000000e+00 0.000000e+00 0.000000e+00 0.000000e+00 1.966564e+01 -8.761810e+00 0.000000e+00 -8.761810e+00 -2.900183e+01 0.000000e+00 0.000000e+00 0.000000e+00 0.000000e+00 -1.136307e+01 7.251751e+00 0.000000e+00 7.251751e+00 2.200270e+01 0.000000e+00 0.000000e+00 0.000000e+00 0.000000e+00 7.316891e+01 -2.339200e+01 0.000000e+00 -2.339200e+01 5.810233e+01 0.000000e+00 0.000000e+00 0.000000e+00 0.000000e+00 4.411763e+01 2.464883e+01 0.000000e+00 2.464883e+01 1.267687e+02 0.000000e+00 0.000000e+00 0.000000e+00 0.000000e+00 6.099028e+01 -1.868071e+01 0.000000e+00 -1.868071e+01 3.266522e+01 0.000000e+00 0.000000e+00 0.000000e+00 0.000000e+00 5.070353e+01 -1.612205e+01 0.000000e+00 -1.612205e+01 1.802021e+01 0.000000e+00 0.000000e+00 0.000000e+00 0.000000e+00 6.421108e+01 -1.253329e+01 0.000000e+00 -1.253329e+01 1.543092e+02 0.000000e+00 0.000000e+00 0.000000e+00 0.000000e+00 2.457763e+01 -1.094369e+01 0.000000e+00 -1.094369e+01 -1.982460e+01 0.000000e+00 0.000000e+00 0.000000e+00 0.000000e+00 3.291426e+01 2.364516e+01 0.000000e+00 2.364516e+01 1.598199e+01 0.000000e+00 0.000000e+00 0.000000e+00 0.000000e+00 1.814899e+01 1.699036e+01 0.000000e+00 1.699036e+01 1.919580e+00 0.000000e+00 0.000000e+00 0.000000e+00 0.000000e+00 2.768822e+01 -1.069050e+01 0.000000e+00 -1.069050e+01 -1.547224e+01 0.000000e+00 0.000000e+00 0.000000e+00 0.000000e+00 3.144267e+01 2.896227e+01 0.000000e+00 2.896227e+01 4.080222e+01 0.000000e+00 0.000000e+00 0.000000e+00 0.000000e+00 2.204643e+01 1.369675e+01 0.000000e+00 1.369675e+01 5.788302e-01 0.000000e+00 0.000000e+00 0.000000e+00 0.000000e+00 8.908458e+01 -2.968820e+01 0.000000e+00 -2.968820e+01 1.066416e+02 0.000000e+00 0.000000e+00 0.000000e+00 0.000000e+00 2.451185e+01 1.509614e+01 0.000000e+00 1.509614e+01 1.741001e+00 0.000000e+00 0.000000e+00 0.000000e+00 0.000000e+00 4.617176e+00 -5.746263e+00 0.000000e+00 -5.746263e+00 -6.461421e+01 0.000000e+00 0.000000e+00 0.000000e+00 0.000000e+00 7.823732e+01 -2.754567e+01 0.000000e+00 -2.754567e+01 7.861315e+01 0.000000e+00 0.000000e+00 0.000000e+00 0.000000e+00 4.133424e+01 -1.318338e+01 0.000000e+00 -1.318338e+01 3.307196e+00 0.000000e+00 0.000000e+00 0.000000e+00 0.000000e+00 5.891396e+01 -1.657643e+01 0.000000e+00 -1.657643e+01 2.713541e+01 0.000000e+00 0.000000e+00 0.000000e+00 0.000000e+00 2.178831e+01 -1.036333e+01 0.000000e+00 -1.036333e+01 -2.405008e+01 0.000000e+00 0.000000e+00 0.000000e+00 0.000000e+00 9.062939e+00 -7.395202e+00 0.000000e+00 -7.395202e+00 -4.944447e+01 0.000000e+00 0.000000e+00 0.000000e+00 0.000000e+00 3.472397e+01 -1.295726e+01 0.000000e+00 -1.295726e+01 -4.328216e+00 0.000000e+00 0.000000e+00 0.000000e+00 0.000000e+00 4.460405e+00 -1.723543e+00 0.000000e+00 -1.723543e+00 -1.044322e+02 0.000000e+00 0.000000e+00 0.000000e+00 0.000000e+00 6.159299e+00 -1.231215e+01 0.000000e+00 -1.231215e+01 -5.404615e+01 0.000000e+00 0.000000e+00 0.000000e+00 0.000000e+00 1.482474e+01 -9.606887e+00 0.000000e+00 -9.606887e+00 -3.687537e+01 0.000000e+00 0.000000e+00 0.000000e+00 0.000000e+00 1.128992e+01 -6.586610e+00 0.000000e+00 -6.586610e+00 -4.559329e+01 0.000000e+00 0.000000e+00 0.000000e+00 0.000000e+00 -1.353780e+01 -3.584198e+00 0.000000e+00 -3.584198e+00 2.589013e+01 0.000000e+00 0.000000e+00 0.000000e+00 0.000000e+00 3.798725e+01 -1.338272e+01 0.000000e+00 -1.338272e+01 -1.318043e-01 0.000000e+00 0.000000e+00 0.000000e+00 0.000000e+00 4.867327e+00 1.949663e+01 0.000000e+00 1.949663e+01 3.952695e+00 0.000000e+00 0.000000e+00 0.000000e+00 0.000000e+00 7.912494e+01 -2.519033e+01 0.000000e+00 -2.519033e+01 6.728578e+01 0.000000e+00 0.000000e+00 0.000000e+00 0.000000e+00 6.514219e+00 -6.641296e+00 0.000000e+00 -6.641296e+00 -5.930020e+01 0.000000e+00 0.000000e+00 0.000000e+00 0.000000e+00 4.401538e+01 -1.384897e+01 0.000000e+00 -1.384897e+01 7.676353e+00 0.000000e+00 0.000000e+00 0.000000e+00 0.000000e+00 -1.289295e+01 -1.453998e+01 0.000000e+00 -1.453998e+01 2.431345e+01 0.000000e+00 0.000000e+00 0.000000e+00 0.000000e+00 6.503166e+00 -1.621871e+01 0.000000e+00 -1.621871e+01 -4.739834e+01 0.000000e+00 0.000000e+00 0.000000e+00 0.000000e+00 3.221413e+01 -1.198957e+01 0.000000e+00 -1.198957e+01 -8.311586e+00 0.000000e+00 0.000000e+00 0.000000e+00 0.000000e+00 -7.774989e+00 -7.575922e+00 0.000000e+00 -7.575922e+00 3.537119e+01 0.000000e+00 0.000000e+00 0.000000e+00 0.000000e+00 1.314056e+01 -8.126639e+00 0.000000e+00 -8.126639e+00 -4.117883e+01 0.000000e+00 0.000000e+00 0.000000e+00 0.000000e+00 -9.977011e+00 -2.577738e+01 0.000000e+00 -2.577738e+01 8.489243e+00 0.000000e+00 0.000000e+00 0.000000e+00 0.000000e+00 4.734332e+01 -1.537935e+01 0.000000e+00 -1.537935e+01 1.298497e+01 0.000000e+00 0.000000e+00 0.000000e+00 0.000000e+00 7.194889e+01 -2.035031e+01 0.000000e+00 -2.035031e+01 4.784307e+01 0.000000e+00 0.000000e+00 0.000000e+00 0.000000e+00 6.195766e+00 -2.445972e+01 0.000000e+00 -2.445972e+01 -2.688340e+01 0.000000e+00 0.000000e+00 0.000000e+00 0.000000e+00 1.674132e+01 -1.100179e+01 0.000000e+00 -1.100179e+01 -3.186440e+01 0.000000e+00 0.000000e+00 0.000000e+00 0.000000e+00 1.584641e+00 -2.959942e+01 0.000000e+00 -2.959942e+01 -4.970669e+00 0.000000e+00 0.000000e+00 0.000000e+00 0.000000e+00 7.461138e+00 -8.060382e+00 0.000000e+00 -8.060382e+00 -5.375791e+01 0.000000e+00 0.000000e+00 0.000000e+00 0.000000e+00 1.987781e+01 2.068930e+01 0.000000e+00 2.068930e+01 1.011443e+01 0.000000e+00 0.000000e+00 0.000000e+00 0.000000e+00 2.480800e+01 2.530206e+01 0.000000e+00 2.530206e+01 2.903157e+01 0.000000e+00 0.000000e+00 0.000000e+00 0.000000e+00 5.468982e+01 -1.643838e+01 0.000000e+00 -1.643838e+01 2.286050e+01 0.000000e+00 0.000000e+00 0.000000e+00 0.000000e+00 -9.803394e+00 -2.251832e+01 0.000000e+00 -2.251832e+01 1.958047e+01 0.000000e+00 0.000000e+00 0.000000e+00 0.000000e+00 2.137179e+01 2.284782e+01 0.000000e+00 2.284782e+01 1.821563e+01 0.000000e+00 0.000000e+00 0.000000e+00 0.000000e+00 7.878107e+00 -1.148853e+01 0.000000e+00 -1.148853e+01 -5.005015e+01 0.000000e+00 0.000000e+00 0.000000e+00 0.000000e+00 -2.532931e+00 1.918757e+01 0.000000e+00 1.918757e+01 4.100660e+00 0.000000e+00 0.000000e+00 0.000000e+00 0.000000e+00 4.547477e+01 -1.974743e+01 0.000000e+00 -1.974743e+01 1.706161e+01 0.000000e+00 0.000000e+00 0.000000e+00 0.000000e+00 8.261688e+00 -1.550258e+01 0.000000e+00 -1.550258e+01 -4.322401e+01 0.000000e+00 0.000000e+00 0.000000e+00 0.000000e+00 8.676044e+00 -2.061165e+01 0.000000e+00 -2.061165e+01 -3.388806e+01 0.000000e+00 0.000000e+00 0.000000e+00 0.000000e+00 7.366418e+00 1.981516e+01 0.000000e+00 1.981516e+01 6.799851e+00 0.000000e+00 0.000000e+00 0.000000e+00 0.000000e+00 6.400255e+01 -2.078430e+01 0.000000e+00 -2.078430e+01 4.072985e+01 0.000000e+00 0.000000e+00 0.000000e+00 0.000000e+00 -2.982948e-01 1.540303e+01 0.000000e+00 1.540303e+01 2.403637e+01 0.000000e+00 0.000000e+00 0.000000e+00 0.000000e+00 1.462274e+00 1.871994e+01 0.000000e+00 1.871994e+01 1.251398e+01 0.000000e+00 0.000000e+00 0.000000e+00 0.000000e+00 1.236230e+00 1.958710e+01 0.000000e+00 1.958710e+01 6.400935e+00 0.000000e+00 0.000000e+00 0.000000e+00 0.000000e+00 6.422481e+01 -2.522639e+01 0.000000e+00 -2.522639e+01 5.236463e+01 0.000000e+00 0.000000e+00 0.000000e+00 0.000000e+00 -5.534968e+00 5.351019e+00 0.000000e+00 5.351019e+00 3.323113e+01 0.000000e+00 0.000000e+00 0.000000e+00 0.000000e+00 -6.188693e+00 -1.841382e+01 0.000000e+00 -1.841382e+01 3.148579e+01 0.000000e+00 0.000000e+00 0.000000e+00 0.000000e+00 4.961945e+01 -2.036617e+01 0.000000e+00 -2.036617e+01 2.274479e+01 0.000000e+00 0.000000e+00 0.000000e+00 0.000000e+00 1.231425e+01 -1.081052e+01 0.000000e+00 -1.081052e+01 -4.110193e+01 0.000000e+00 0.000000e+00 0.000000e+00 0.000000e+00 2.207784e+01 2.335554e+01 0.000000e+00 2.335554e+01 6.010188e+01 0.000000e+00 0.000000e+00 0.000000e+00 0.000000e+00 4.519518e+01 3.633557e-01 0.000000e+00 3.633557e-01 1.328825e+02 0.000000e+00 0.000000e+00 0.000000e+00 0.000000e+00 5.554924e+01 -2.327474e+01 0.000000e+00 -2.327474e+01 3.618501e+01 0.000000e+00 0.000000e+00 0.000000e+00 0.000000e+00 7.778689e+01 -2.481117e+01 0.000000e+00 -2.481117e+01 1.417940e+02 0.000000e+00 0.000000e+00 0.000000e+00 0.000000e+00 3.092846e+01 -1.572908e+01 0.000000e+00 -1.572908e+01 -6.504256e+00 0.000000e+00 0.000000e+00 0.000000e+00 0.000000e+00 8.145032e+01 -2.900640e+01 0.000000e+00 -2.900640e+01 1.238789e+02 0.000000e+00 0.000000e+00 0.000000e+00 0.000000e+00 1.584208e+01 1.950688e+01 0.000000e+00 1.950688e+01 5.675630e+00 0.000000e+00 0.000000e+00 0.000000e+00 0.000000e+00 9.478513e+00 -2.490146e+01 0.000000e+00 -2.490146e+01 -2.170992e+01 0.000000e+00 0.000000e+00 0.000000e+00 0.000000e+00 3.370407e+01 1.173029e+01 0.000000e+00 1.173029e+01 1.112854e+02 0.000000e+00 0.000000e+00 0.000000e+00 0.000000e+00 -3.655010e+00 -2.885057e+01 0.000000e+00 -2.885057e+01 2.132051e+00 0.000000e+00 0.000000e+00 0.000000e+00 0.000000e+00 6.862952e+00 -2.829762e+01 0.000000e+00 -2.829762e+01 -1.169442e+01 0.000000e+00 0.000000e+00 0.000000e+00 0.000000e+00 6.428756e+01 -2.900680e+01 0.000000e+00 -2.900680e+01 8.693240e+01 0.000000e+00 0.000000e+00 0.000000e+00 0.000000e+00 3.808349e+01 -1.754652e+01 0.000000e+00 -1.754652e+01 4.620863e+00 0.000000e+00 0.000000e+00 0.000000e+00 0.000000e+00 2.146029e+01 1.799294e+01 0.000000e+00 1.799294e+01 3.921213e+00 0.000000e+00 0.000000e+00 0.000000e+00 0.000000e+00 2.113388e+01 -1.454933e+01 0.000000e+00 -1.454933e+01 -2.220859e+01 0.000000e+00 0.000000e+00 0.000000e+00 0.000000e+00 4.239682e+01 -1.849799e+01 0.000000e+00 -1.849799e+01 1.075073e+01 0.000000e+00 0.000000e+00 0.000000e+00 0.000000e+00 6.448645e+01 -2.771677e+01 0.000000e+00 -2.771677e+01 6.725420e+01 0.000000e+00 0.000000e+00 0.000000e+00 0.000000e+00 3.405819e+01 -1.707804e+01 0.000000e+00 -1.707804e+01 -1.062745e+00 0.000000e+00 0.000000e+00 0.000000e+00 0.000000e+00 1.080894e+01 -8.467256e+00 0.000000e+00 -8.467256e+00 -4.510389e+01 0.000000e+00 0.000000e+00 0.000000e+00 0.000000e+00 -5.381026e+00 -2.757464e+01 0.000000e+00 -2.757464e+01 1.332893e+01 0.000000e+00 0.000000e+00 0.000000e+00 0.000000e+00 1.398471e+01 -1.256965e+01 0.000000e+00 -1.256965e+01 -3.557646e+01 0.000000e+00 0.000000e+00 0.000000e+00 0.000000e+00 9.289911e+00 -1.011796e+01 0.000000e+00 -1.011796e+01 -4.699514e+01 0.000000e+00 0.000000e+00 0.000000e+00 0.000000e+00 2.484291e+01 -1.446044e+01 0.000000e+00 -1.446044e+01 -1.618139e+01 0.000000e+00 0.000000e+00 0.000000e+00 0.000000e+00 2.481523e+01 1.706965e+01 0.000000e+00 1.706965e+01 8.583249e+01 0.000000e+00 0.000000e+00 0.000000e+00 0.000000e+00 6.794390e+01 -2.753082e+01 0.000000e+00 -2.753082e+01 1.054568e+02 0.000000e+00 0.000000e+00 0.000000e+00 0.000000e+00 2.873415e+01 -1.376796e+01 0.000000e+00 -1.376796e+01 -1.163707e+01 0.000000e+00 0.000000e+00 0.000000e+00 0.000000e+00 -2.012995e+00 -2.635957e+01 0.000000e+00 -2.635957e+01 2.270206e+01 0.000000e+00 0.000000e+00 0.000000e+00 0.000000e+00 1.176649e+01 -1.794517e+01 0.000000e+00 -1.794517e+01 -3.320933e+01 0.000000e+00 0.000000e+00 0.000000e+00 0.000000e+00 2.923974e+01 -1.960553e+01 0.000000e+00 -1.960553e+01 -3.720712e+00 0.000000e+00 0.000000e+00 0.000000e+00 0.000000e+00 5.728410e+00 -3.068476e+01 0.000000e+00 -3.068476e+01 2.194785e+00 0.000000e+00 0.000000e+00 0.000000e+00 0.000000e+00 1.254458e+01 -2.184666e+01 0.000000e+00 -2.184666e+01 -2.348016e+01 0.000000e+00 0.000000e+00 0.000000e+00 0.000000e+00 5.646073e+01 -2.504875e+01 0.000000e+00 -2.504875e+01 4.497754e+01 0.000000e+00 0.000000e+00 0.000000e+00 0.000000e+00 1.986567e+01 -1.154285e+01 0.000000e+00 -1.154285e+01 -2.720571e+01 0.000000e+00 0.000000e+00 0.000000e+00 0.000000e+00 -7.311320e-02 -2.973659e+01 0.000000e+00 -2.973659e+01 8.631155e+00 0.000000e+00 0.000000e+00 0.000000e+00 0.000000e+00 5.494087e+01 -2.031432e+01 0.000000e+00 -2.031432e+01 2.839724e+01 0.000000e+00 0.000000e+00 0.000000e+00 0.000000e+00 1.629602e+01 2.170893e+01 0.000000e+00 2.170893e+01 4.304746e+01 0.000000e+00 0.000000e+00 0.000000e+00 0.000000e+00 1.052409e+01 -1.360628e+01 0.000000e+00 -1.360628e+01 -4.081784e+01 0.000000e+00 0.000000e+00 0.000000e+00 0.000000e+00 3.898904e+01 -9.538474e+00 0.000000e+00 -9.538474e+00 1.123628e+02 0.000000e+00 0.000000e+00 0.000000e+00 0.000000e+00 5.151739e+01 -2.797466e+01 0.000000e+00 -2.797466e+01 5.600981e+01 0.000000e+00 0.000000e+00 0.000000e+00 0.000000e+00 4.816402e+01 -2.687795e+01 0.000000e+00 -2.687795e+01 4.046569e+01 0.000000e+00 0.000000e+00 0.000000e+00 0.000000e+00 -1.288701e+00 -1.233931e+01 0.000000e+00 -1.233931e+01 4.478817e+01 0.000000e+00 0.000000e+00 0.000000e+00 0.000000e+00 1.055289e+01 2.077075e+01 0.000000e+00 2.077075e+01 1.794063e+01 0.000000e+00 0.000000e+00 0.000000e+00 0.000000e+00 5.655090e+01 -1.904651e+01 0.000000e+00 -1.904651e+01 1.241961e+02 0.000000e+00 0.000000e+00 0.000000e+00 0.000000e+00 5.126392e+01 -2.813622e+01 0.000000e+00 -2.813622e+01 7.467222e+01 0.000000e+00 0.000000e+00 0.000000e+00 0.000000e+00 1.281747e+01 -2.630618e+01 0.000000e+00 -2.630618e+01 -1.240729e+01 0.000000e+00 0.000000e+00 0.000000e+00 0.000000e+00 2.160421e+01 -1.861067e+01 0.000000e+00 -1.861067e+01 -1.614405e+01 0.000000e+00 0.000000e+00 0.000000e+00 0.000000e+00 4.277014e+01 -2.371228e+01 0.000000e+00 -2.371228e+01 2.235071e+01 0.000000e+00 0.000000e+00 0.000000e+00 0.000000e+00 2.650353e+01 1.446958e-02 0.000000e+00 1.446958e-02 9.886655e+01 0.000000e+00 0.000000e+00 0.000000e+00 0.000000e+00 4.053490e+01 -2.782047e+01 0.000000e+00 -2.782047e+01 6.371953e+01 0.000000e+00 0.000000e+00 0.000000e+00 0.000000e+00 3.237173e+01 -2.111780e+01 0.000000e+00 -2.111780e+01 3.162825e+00 0.000000e+00 0.000000e+00 0.000000e+00 0.000000e+00 2.640438e+01 -1.742397e+01 0.000000e+00 -1.742397e+01 -1.057311e+01 0.000000e+00 0.000000e+00 0.000000e+00 0.000000e+00 1.574607e+00 -2.235243e+01 0.000000e+00 -2.235243e+01 3.666156e+01 0.000000e+00 0.000000e+00 0.000000e+00 0.000000e+00 1.158188e+01 2.077751e+01 0.000000e+00 2.077751e+01 1.009565e+01 0.000000e+00 0.000000e+00 0.000000e+00 0.000000e+00 4.845912e+01 -2.418787e+01 0.000000e+00 -2.418787e+01 2.996689e+01 0.000000e+00 0.000000e+00 0.000000e+00 0.000000e+00 1.655786e+01 -1.830037e+01 0.000000e+00 -1.830037e+01 -2.368482e+01 0.000000e+00 0.000000e+00 0.000000e+00 0.000000e+00 3.965233e+00 1.343911e+01 0.000000e+00 1.343911e+01 3.887983e+01 0.000000e+00 0.000000e+00 0.000000e+00 0.000000e+00 1.205075e+01 2.079472e+01 0.000000e+00 2.079472e+01 2.852255e+01 0.000000e+00 0.000000e+00 0.000000e+00 0.000000e+00 4.072820e+01 -2.267340e+01 0.000000e+00 -2.267340e+01 1.559919e+01 0.000000e+00 0.000000e+00 0.000000e+00 0.000000e+00 -7.471434e-01 1.086931e+00 0.000000e+00 1.086931e+00 4.585107e+01 0.000000e+00 0.000000e+00 0.000000e+00 0.000000e+00 1.765411e+01 -2.286856e+01 0.000000e+00 -2.286856e+01 -1.364399e+01 0.000000e+00 0.000000e+00 0.000000e+00 0.000000e+00 3.219750e+01 -1.556397e+01 0.000000e+00 -1.556397e+01 9.418863e+01 0.000000e+00 0.000000e+00 0.000000e+00 0.000000e+00 3.997641e+01 -2.862431e+01 0.000000e+00 -2.862431e+01 4.661125e+01 0.000000e+00 0.000000e+00 0.000000e+00 0.000000e+00 3.612811e+01 -2.195048e+01 0.000000e+00 -2.195048e+01 9.616573e+00 0.000000e+00 0.000000e+00 0.000000e+00 0.000000e+00 2.711689e+01 -2.365424e+01 0.000000e+00 -2.365424e+01 5.210663e-01 0.000000e+00 0.000000e+00 0.000000e+00 0.000000e+00 5.385614e+00 -2.825999e+01 0.000000e+00 -2.825999e+01 2.701416e+01 0.000000e+00 0.000000e+00 0.000000e+00 0.000000e+00 3.920957e+01 -2.708342e+01 0.000000e+00 -2.708342e+01 3.100849e+01 0.000000e+00 0.000000e+00 0.000000e+00 0.000000e+00 1.713001e+01 -1.452944e+01 0.000000e+00 -1.452944e+01 -2.828429e+01 0.000000e+00 0.000000e+00 0.000000e+00 0.000000e+00 4.594742e+00 -3.023855e+01 0.000000e+00 -3.023855e+01 1.616548e+01 0.000000e+00 0.000000e+00 0.000000e+00 0.000000e+00 2.387832e+01 -2.112897e+01 0.000000e+00 -2.112897e+01 -8.559501e+00 0.000000e+00 0.000000e+00 0.000000e+00 0.000000e+00 4.844812e+01 -2.338786e+01 0.000000e+00 -2.338786e+01 9.837099e+01 0.000000e+00 0.000000e+00 0.000000e+00 0.000000e+00 3.744135e+01 -2.447630e+01 0.000000e+00 -2.447630e+01 8.098271e+01 0.000000e+00 0.000000e+00 0.000000e+00 0.000000e+00 7.430064e+00 -1.886951e+01 0.000000e+00 -1.886951e+01 5.016348e+01 0.000000e+00 0.000000e+00 0.000000e+00 0.000000e+00 1.780467e+01 3.355539e+00 0.000000e+00 3.355539e+00 8.256416e+01 0.000000e+00 0.000000e+00 0.000000e+00 0.000000e+00 1.162563e+01 -2.952475e+01 0.000000e+00 -2.952475e+01 -1.048079e+00 0.000000e+00 0.000000e+00 0.000000e+00 0.000000e+00 1.737094e+01 -2.726384e+01 0.000000e+00 -2.726384e+01 -2.697890e+00 0.000000e+00 0.000000e+00 0.000000e+00 0.000000e+00 8.349731e+00 1.138568e+01 0.000000e+00 1.138568e+01 5.371774e+01 0.000000e+00 0.000000e+00 0.000000e+00 0.000000e+00 1.427088e+01 -1.552574e+01 0.000000e+00 -1.552574e+01 -3.247970e+01 0.000000e+00 0.000000e+00 0.000000e+00 0.000000e+00 5.542681e+00 -4.833735e+00 0.000000e+00 -4.833735e+00 5.836292e+01 0.000000e+00 0.000000e+00 0.000000e+00 0.000000e+00 2.991423e+01 -2.532943e+01 0.000000e+00 -2.532943e+01 8.932413e+00 0.000000e+00 0.000000e+00 0.000000e+00 0.000000e+00 1.192190e+01 -2.736507e+01 0.000000e+00 -2.736507e+01 3.640514e+01 0.000000e+00 0.000000e+00 0.000000e+00 0.000000e+00 3.464486e+01 -2.620547e+01 0.000000e+00 -2.620547e+01 1.838753e+01 0.000000e+00 0.000000e+00 0.000000e+00 0.000000e+00 1.000469e+01 -3.079375e+01 0.000000e+00 -3.079375e+01 9.700710e+00 0.000000e+00 0.000000e+00 0.000000e+00 0.000000e+00 1.955548e+01 -9.431395e+00 0.000000e+00 -9.431395e+00 8.332863e+01 0.000000e+00 0.000000e+00 0.000000e+00 0.000000e+00 1.690116e+01 -2.985277e+01 0.000000e+00 -2.985277e+01 1.059348e+01 0.000000e+00 0.000000e+00 0.000000e+00 0.000000e+00 3.301876e+01 -2.908627e+01 0.000000e+00 -2.908627e+01 3.628212e+01 0.000000e+00 0.000000e+00 0.000000e+00 0.000000e+00 1.445692e+01 -1.648924e+01 0.000000e+00 -1.648924e+01 6.561274e+01 0.000000e+00 0.000000e+00 0.000000e+00 0.000000e+00 3.171188e+01 -2.769131e+01 0.000000e+00 -2.769131e+01 5.391545e+01 0.000000e+00 0.000000e+00 0.000000e+00 0.000000e+00 2.517575e+01 -2.848379e+01 0.000000e+00 -2.848379e+01 1.539294e+01 0.000000e+00 0.000000e+00 0.000000e+00 0.000000e+00 2.173506e+01 -2.468185e+01 0.000000e+00 -2.468185e+01 -3.983587e+00 0.000000e+00 0.000000e+00 0.000000e+00 0.000000e+00 2.889886e+01 -2.878389e+01 0.000000e+00 -2.878389e+01 2.613798e+01 0.000000e+00 0.000000e+00 0.000000e+00 0.000000e+00 2.480569e+01 -1.893546e+01 0.000000e+00 -1.893546e+01 7.835739e+01 0.000000e+00 0.000000e+00 0.000000e+00 0.000000e+00 1.394031e+01 1.014189e+01 0.000000e+00 1.014189e+01 7.036920e+01 0.000000e+00 0.000000e+00 0.000000e+00 0.000000e+00 2.678006e+01 -2.408772e+01 0.000000e+00 -2.408772e+01 6.713130e+01 0.000000e+00 0.000000e+00 0.000000e+00 0.000000e+00 2.304614e+01 -2.724912e+01 0.000000e+00 -2.724912e+01 5.133188e+00 0.000000e+00 0.000000e+00 0.000000e+00 0.000000e+00 1.191725e+01 -4.150187e+00 0.000000e+00 -4.150187e+00 7.183326e+01 0.000000e+00 0.000000e+00 0.000000e+00 0.000000e+00 1.162134e+01 -3.034105e+01 0.000000e+00 -3.034105e+01 2.052870e+01 0.000000e+00 0.000000e+00 0.000000e+00 0.000000e+00 2.870461e+01 -2.904305e+01 0.000000e+00 -2.904305e+01 4.556019e+01 0.000000e+00 0.000000e+00 0.000000e+00 0.000000e+00 1.862508e+01 -2.520680e+01 0.000000e+00 -2.520680e+01 5.033081e+01 0.000000e+00 0.000000e+00 0.000000e+00 0.000000e+00 1.902940e+01 -2.993265e+01 0.000000e+00 -2.993265e+01 2.468902e+01 0.000000e+00 0.000000e+00 0.000000e+00 0.000000e+00 2.274434e+01 -2.923808e+01 0.000000e+00 -2.923808e+01 3.549265e+01 0.000000e+00 0.000000e+00 0.000000e+00 0.000000e+00 </DataArray>
 <DataArray type="Float64" Name="IST_StrainTensor" NumberOfComponents="9" format="ascii"> 5.975224e-06 1.542309e-05 0.000000e+00 1.542309e-05 -9.609856e-06 0.000000e+00 0.000000e+00 0.000000e+00 0.000000e+00 -1.561641e-06 -3.071322e-06 0.000000e+00 -3.071322e-06 -1.747448e-06 0.000000e+00 0.000000e+00 0.000000e+00 0.000000e+00 1.119572e-04 4.869972e-05 0.000000e+00 4.869972e-05 -1.598367e-05 0.000000e+00 0.000000e+00 0.000000e+00 0.000000e+00 1.131722e-06 -3.027944e-06 0.000000e+00 -3.027944e-06 6.400051e-07 0.000000e+00 0.000000e+00 0.000000e+00 0.000000e+00 6.465131e-05 2.571582e-05 0.000000e+00 2.571582e-05 -1.428757e-05 0.000000e+00 0.000000e+00 0.000000e+00 0.000000e+00 -1.067838e-05 -1.963151e-05 0.000000e+00 -1.963151e-05 -9.630978e-06 0.000000e+00 0.000000e+00 0.000000e+00 0.000000e+00 4.764842e-04 3.241584e-04 0.000000e+00 3.241584e-04 6.316644e-04 0.000000e+00 0.000000e+00 0.000000e+00 0.000000e+00 1.616714e-04 -2.576908e-05 0.000000e+00 -2.576908e-05 -5.125878e-04 0.000000e+00 0.000000e+00 0.000000e+00 0.000000e+00 -1.554403e-06 1.458480e-05 0.000000e+00 1.458480e-05 -7.606081e-06 0.000000e+00 0.000000e+00 0.000000e+00 0.000000e+00 -5.973479e-06 9.541492e-06 0.000000e+00 9.541492e-06 -9.248975e-06 0.000000e+00 0.000000e+00 0.000000e+00 0.000000e+00 -4.775008e-06 3.802899e-06 0.000000e+00 3.802899e-06 -1.673798e-05 0.000000e+00 0.000000e+00 0.000000e+00 0.000000e+00 3.436885e-06 2.766189e-06 0.000000e+00 2.766189e-06 -3.131366e-05 0.000000e+00 0.000000e+00 0.000000e+00 0.000000e+00 1.585445e-05 1.490337e-05 0.000000e+00 1.490337e-05 -4.861133e-05 0.000000e+00 0.000000e+00 0.000000e+00 0.000000e+00 2.201962e-05 3.668070e-05 0.000000e+00 3.668070e-05 -5.789366e-05 0.000000e+00 0.000000e+00 0.000000e+00 0.000000e+00 2.066207e-05 6.431391e-05 0.000000e+00 6.431391e-05 -5.840771e-05 0.000000e+00 0.000000e+00 0.000000e+00 0.000000e+00 1.258314e-05 8.824313e-05 0.000000e+00 8.824313e-05 -5.151951e-05 0.000000e+00 0.000000e+00 0.000000e+00 0.000000e+00 1.330072e-06 1.099592e-04 0.000000e+00 1.099592e-04 -4.045753e-05 0.000000e+00 0.000000e+00 0.000000e+00 0.000000e+00 -1.052705e-05 1.243899e-04 0.000000e+00 1.243899e-04 -2.544278e-05 0.000000e+00 0.000000e+00 0.000000e+00 0.000000e+00 -1.737645e-05 1.284219e-04 0.000000e+00 1.284219e-04 -9.921505e-06 0.000000e+00 0.000000e+00 0.000000e+00 0.000000e+00 -1.376118e-05 1.239115e-04 0.000000e+00 1.239115e-04 -1.275613e-06 0.000000e+00 0.000000e+00 0.000000e+00 0.000000e+00 1.737443e-06 1.170191e-04 0.000000e+00 1.170191e-04 -2.588278e-06 0.000000e+00 0.000000e+00 0.000000e+00 0.000000e+00 2.265005e-05 1.139114e-04 0.000000e+00 1.139114e-04 -9.454345e-06 0.000000e+00 0.000000e+00 0.000000e+00 0.000000e+00 3.998718e-05 1.144804e-04 0.000000e+00 1.144804e-04 -1.450200e-05 0.000000e+00 0.000000e+00 0.000000e+00 0.000000e+00 4.987907e-05 1.155936e-04 0.000000e+00 1.155936e-04 -1.512477e-05 0.000000e+00 0.000000e+00 0.000000e+00 0.000000e+00 5.011494e-05 1.140763e-04 0.000000e+00 1.140763e-04 -9.043648e-06 0.000000e+00 0.000000e+00 0.000000e+00 0.000000e+00 4.057137e-05 1.078400e-04 0.000000e+00 1.078400e-04 3.074977e-06 0.000000e+00 0.000000e+00 0.000000e+00 0.000000e+00 2.126069e-05 9.214426e-05 0.000000e+00 9.214426e-05 1.799721e-05 0.000000e+00 0.000000e+00 0.000000e+00 0.000000e+00 2.540645e-06 6.717942e-05 0.000000e+00 6.717942e-05 2.734576e-05 0.000000e+00 0.000000e+00 0.000000e+00 0.000000e+00 -5.677910e-06 3.933587e-05 0.000000e+00 3.933587e-05 3.324110e-05 0.000000e+00 0.000000e+00 0.000000e+00 0.000000e+00 -7.021105e-06 1.429245e-05 0.000000e+00 1.429245e-05 3.034934e-05 0.000000e+00 0.000000e+00 0.000000e+00 0.000000e+00 -1.716926e-06 -2.842616e-06 0.000000e+00 -2.842616e-06 2.246517e-05 0.000000e+00 0.000000e+00 0.000000e+00 0.000000e+00 1.022544e-05 -1.105038e-05 0.000000e+00 -1.105038e-05 7.425026e-06 0.000000e+00 0.000000e+00 0.000000e+00 0.000000e+00 1.774644e-05 -7.460833e-06 0.000000e+00 -7.460833e-06 -4.800290e-06 0.000000e+00 0.000000e+00 0.000000e+00 0.000000e+00 1.928244e-05 1.437459e-06 0.000000e+00 1.437459e-06 -1.147703e-05 0.000000e+00 0.000000e+00 0.000000e+00 0.000000e+00 1.455721e-05 1.030447e-05 0.000000e+00 1.030447e-05 -1.217603e-05 0.000000e+00 0.000000e+00 0.000000e+00 0.000000e+00 4.590001e-06 -3.581231e-05 0.000000e+00 -3.581231e-05 -4.690591e-05 0.000000e+00 0.000000e+00 0.000000e+00 0.000000e+00 4.532813e-05 -4.796749e-05 0.000000e+00 -4.796749e-05 -1.503322e-04 0.000000e+00 0.000000e+00 0.000000e+00 0.000000e+00 9.752272e-05 -3.756179e-05 0.000000e+00 -3.756179e-05 -3.025814e-04 0.000000e+00 0.000000e+00 0.000000e+00 0.000000e+00 1.394651e-04 -1.894309e-05 0.000000e+00 -1.894309e-05 -4.415317e-04 0.000000e+00 0.000000e+00 0.000000e+00 0.000000e+00 3.750576e-04 1.451475e-04 0.000000e+00 1.451475e-04 -6.024948e-05 0.000000e+00 0.000000e+00 0.000000e+00 0.000000e+00 1.953860e-04 6.941905e-06 0.000000e+00 6.941905e-06 -6.021774e-05 0.000000e+00 0.000000e+00 0.000000e+00 0.000000e+00 1.808142e-04 1.222731e-05 0.000000e+00 1.222731e-05 -5.298927e-05 0.000000e+00 0.000000e+00 0.000000e+00 0.000000e+00 1.646789e-04 1.299669e-05 0.000000e+00 1.299669e-05 -5.021118e-05 0.000000e+00 0.000000e+00 0.000000e+00 0.000000e+00 1.472990e-04 1.479979e-05 0.000000e+00 1.479979e-05 -4.518897e-05 0.000000e+00 0.000000e+00 0.000000e+00 0.000000e+00 1.287100e-04 1.674046e-05 0.000000e+00 1.674046e-05 -3.935064e-05 0.000000e+00 0.000000e+00 0.000000e+00 0.000000e+00 1.087255e-04 1.918462e-05 0.000000e+00 1.918462e-05 -3.361850e-05 0.000000e+00 0.000000e+00 0.000000e+00 0.000000e+00 8.450845e-05 2.197678e-05 0.000000e+00 2.197678e-05 -2.559525e-05 0.000000e+00 0.000000e+00 0.000000e+00 0.000000e+00 4.744276e-06 -2.685054e-06 0.000000e+00 -2.685054e-06 -1.813899e-06 0.000000e+00 0.000000e+00 0.000000e+00 0.000000e+00 7.032465e-06 -1.468856e-06 0.000000e+00 -1.468856e-06 -3.032498e-06 0.000000e+00 0.000000e+00 0.000000e+00 0.000000e+00 6.664940e-06 2.980174e-06 0.000000e+00 2.980174e-06 -4.612675e-06 0.000000e+00 0.000000e+00 0.000000e+00 0.000000e+00 -4.820904e-06 9.845007e-06 0.000000e+00 9.845007e-06 -1.615000e-06 0.000000e+00 0.000000e+00 0.000000e+00 0.000000e+00 -3.001869e-05 1.802619e-05 0.000000e+00 1.802619e-05 5.861022e-06 0.000000e+00 0.000000e+00 0.000000e+00 0.000000e+00 -6.876608e-05 2.557916e-05 0.000000e+00 2.557916e-05 1.830588e-05 0.000000e+00 0.000000e+00 0.000000e+00 0.000000e+00 -1.132205e-04 3.029529e-05 0.000000e+00 3.029529e-05 3.303826e-05 0.000000e+00 0.000000e+00 0.000000e+00 0.000000e+00 -1.643036e-04 3.122660e-05 0.000000e+00 3.122660e-05 4.994349e-05 0.000000e+00 0.000000e+00 0.000000e+00 0.000000e+00 -2.106605e-04 2.791709e-05 0.000000e+00 2.791709e-05 6.640582e-05 0.000000e+00 0.000000e+00 0.000000e+00 0.000000e+00 -2.449375e-04 1.931982e-05 0.000000e+00 1.931982e-05 7.955830e-05 0.000000e+00 0.000000e+00 0.000000e+00 0.000000e+00 -2.543683e-04 1.380815e-06 0.000000e+00 1.380815e-06 8.683427e-05 0.000000e+00 0.000000e+00 0.000000e+00 0.000000e+00 -2.237486e-04 -2.773666e-05 0.000000e+00 -2.773666e-05 7.843929e-05 0.000000e+00 0.000000e+00 0.000000e+00 0.000000e+00 -1.501696e-04 -4.362822e-05 0.000000e+00 -4.362822e-05 5.113029e-05 0.000000e+00 0.000000e+00 0.000000e+00 0.000000e+00 -5.691087e-05 -3.819018e-05 0.000000e+00 -3.819018e-05 1.034255e-05 0.000000e+00 0.000000e+00 0.000000e+00 0.000000e+00 9.188074e-05 4.629961e-05 0.000000e+00 4.629961e-05 -1.693995e-05 0.000000e+00 0.000000e+00 0.000000e+00 0.000000e+00 2.490413e-07 -3.435579e-06 0.000000e+00 -3.435579e-06 -3.845650e-06 0.000000e+00 0.000000e+00 0.000000e+00 0.000000e+00 3.892699e-06 -2.889275e-06 0.000000e+00 -2.889275e-06 -1.120199e-05 0.000000e+00 0.000000e+00 0.000000e+00 0.000000e+00 5.858141e-06 4.601269e-07 0.000000e+00 4.601269e-07 -1.433853e-05 0.000000e+00 0.000000e+00 0.000000e+00 0.000000e+00 4.540388e-06 3.866397e-06 0.000000e+00 3.866397e-06 -1.128766e-05 0.000000e+00 0.000000e+00 0.000000e+00 0.000000e+00 1.437355e-06 5.766874e-06 0.000000e+00 5.766874e-06 -3.670107e-06 0.000000e+00 0.000000e+00 0.000000e+00 0.000000e+00 -1.876854e-06 5.401014e-06 0.000000e+00 5.401014e-06 3.902301e-06 0.000000e+00 0.000000e+00 0.000000e+00 0.000000e+00 -3.919550e-06 2.892440e-06 0.000000e+00 2.892440e-06 9.596354e-06 0.000000e+00 0.000000e+00 0.000000e+00 0.000000e+00 -4.485204e-06 3.203683e-07 0.000000e+00 3.203683e-07 1.134601e-05 0.000000e+00 0.000000e+00 0.000000e+00 0.000000e+00 -3.478524e-06 -2.252079e-06 0.000000e+00 -2.252079e-06 8.626732e-06 0.000000e+00 0.000000e+00 0.000000e+00 0.000000e+00 -9.425685e-07 -3.182130e-06 0.000000e+00 -3.182130e-06 3.636292e-06 0.000000e+00 0.000000e+00 0.000000e+00 0.000000e+00 1.008544e-04 3.270222e-05 0.000000e+00 3.270222e-05 -2.531340e-05 0.000000e+00 0.000000e+00 0.000000e+00 0.000000e+00 5.687376e-05 2.454179e-05 0.000000e+00 2.454179e-05 -1.530711e-05 0.000000e+00 0.000000e+00 0.000000e+00 0.000000e+00 1.927947e-05 2.006564e-05 0.000000e+00 2.006564e-05 -3.063681e-06 0.000000e+00 0.000000e+00 0.000000e+00 0.000000e+00 -1.260867e-05 1.326519e-05 0.000000e+00 1.326519e-05 8.026792e-06 0.000000e+00 0.000000e+00 0.000000e+00 0.000000e+00 -2.919026e-05 3.661311e-06 0.000000e+00 3.661311e-06 1.290136e-05 0.000000e+00 0.000000e+00 0.000000e+00 0.000000e+00 -2.701659e-05 -3.811501e-06 0.000000e+00 -3.811501e-06 1.062204e-05 0.000000e+00 0.000000e+00 0.000000e+00 0.000000e+00 -1.536217e-05 -6.713165e-06 0.000000e+00 -6.713165e-06 5.012226e-06 0.000000e+00 0.000000e+00 0.000000e+00 0.000000e+00 -3.212610e-06 -5.104661e-06 0.000000e+00 -5.104661e-06 -8.712824e-07 0.000000e+00 0.000000e+00 0.000000e+00 0.000000e+00 6.384045e-05 -2.845055e-05 0.000000e+00 -2.845055e-05 -4.523167e-04 0.000000e+00 0.000000e+00 0.000000e+00 0.000000e+00 9.677886e-05 -2.098680e-05 0.000000e+00 -2.098680e-05 -4.432691e-04 0.000000e+00 0.000000e+00 0.000000e+00 0.000000e+00 1.064090e-04 -1.286599e-05 0.000000e+00 -1.286599e-05 -4.248712e-04 0.000000e+00 0.000000e+00 0.000000e+00 0.000000e+00 1.111001e-04 -9.198729e-06 0.000000e+00 -9.198729e-06 -4.044776e-04 0.000000e+00 0.000000e+00 0.000000e+00 0.000000e+00 1.138842e-04 -7.351342e-06 0.000000e+00 -7.351342e-06 -3.847384e-04 0.000000e+00 0.000000e+00 0.000000e+00 0.000000e+00 1.147401e-04 -6.392880e-06 0.000000e+00 -6.392880e-06 -3.647604e-04 0.000000e+00 0.000000e+00 0.000000e+00 0.000000e+00 1.151553e-04 -6.046671e-06 0.000000e+00 -6.046671e-06 -3.454198e-04 0.000000e+00 0.000000e+00 0.000000e+00 0.000000e+00 1.152046e-04 -5.777246e-06 0.000000e+00 -5.777246e-06 -3.268071e-04 0.000000e+00 0.000000e+00 0.000000e+00 0.000000e+00 1.155565e-04 -5.918345e-06 0.000000e+00 -5.918345e-06 -3.089454e-04 0.000000e+00 0.000000e+00 0.000000e+00 0.000000e+00 1.160642e-04 -6.050783e-06 0.000000e+00 -6.050783e-06 -2.914277e-04 0.000000e+00 0.000000e+00 0.000000e+00 0.000000e+00 1.175032e-04 -6.287041e-06 0.000000e+00 -6.287041e-06 -2.745733e-04 0.000000e+00 0.000000e+00 0.000000e+00 0.000000e+00 1.190707e-04 -6.167741e-06 0.000000e+00 -6.167741e-06 -2.581651e-04 0.000000e+00 0.000000e+00 0.000000e+00 0.000000e+00 1.211868e-04 -6.233833e-06 0.000000e+00 -6.233833e-06 -2.427652e-04 0.000000e+00 0.000000e+00 0.000000e+00 0.000000e+00 1.241278e-04 -6.337509e-06 0.000000e+00 -6.337509e-06 -2.287679e-04 0.000000e+00 0.000000e+00 0.000000e+00 0.000000e+00 1.271074e-04 -6.294198e-06 0.000000e+00 -6.294198e-06 -2.143718e-04 0.000000e+00 0.000000e+00 0.000000e+00 0.000000e+00 1.302248e-04 -6.666381e-06 0.000000e+00 -6.666381e-06 -1.998851e-04 0.000000e+00 0.000000e+00 0.000000e+00 0.000000e+00 1.343825e-04 -7.034056e-06 0.000000e+00 -7.034056e-06 -1.865377e-04 0.000000e+00 0.000000e+00 0.000000e+00 0.000000e+00 1.387819e-04 -7.228034e-06 0.000000e+00 -7.228034e-06 -1.736493e-04 0.000000e+00 0.000000e+00 0.000000e+00 0.000000e+00 1.439117e-04 -7.676734e-06 0.000000e+00 -7.676734e-06 -1.612541e-04 0.000000e+00 0.000000e+00 0.000000e+00 0.000000e+00 1.492556e-04 -7.895396e-06 0.000000e+00 -7.895396e-06 -1.491204e-04 0.000000e+00 0.000000e+00 0.000000e+00 0.000000e+00 1.548030e-04 -8.151886e-06 0.000000e+00 -8.151886e-06 -1.364767e-04 0.000000e+00 0.000000e+00 0.000000e+00 0.000000e+00 1.610176e-04 -8.517768e-06 0.000000e+00 -8.517768e-06 -1.242628e-04 0.000000e+00 0.000000e+00 0.000000e+00 0.000000e+00 1.679281e-04 -8.740995e-06 0.000000e+00 -8.740995e-06 -1.129374e-04 0.000000e+00 0.000000e+00 0.000000e+00 0.000000e+00 1.752773e-04 -8.992027e-06 0.000000e+00 -8.992027e-06 -1.019956e-04 0.000000e+00 0.000000e+00 0.000000e+00 0.000000e+00 1.829683e-04 -9.427637e-06 0.000000e+00 -9.427637e-06 -9.091217e-05 0.000000e+00 0.000000e+00 0.000000e+00 0.000000e+00 1.913038e-04 -9.821856e-06 0.000000e+00 -9.821856e-06 -7.971821e-05 0.000000e+00 0.000000e+00 0.000000e+00 0.000000e+00 1.996044e-04 -9.970340e-06 0.000000e+00 -9.970340e-06 -6.772755e-05 0.000000e+00 0.000000e+00 0.000000e+00 0.000000e+00 2.084360e-04 -1.032819e-05 0.000000e+00 -1.032819e-05 -5.535811e-05 0.000000e+00 0.000000e+00 0.000000e+00 0.000000e+00 2.179813e-04 -1.083171e-05 0.000000e+00 -1.083171e-05 -4.384338e-05 0.000000e+00 0.000000e+00 0.000000e+00 0.000000e+00 2.282168e-04 -1.123366e-05 0.000000e+00 -1.123366e-05 -3.227620e-05 0.000000e+00 0.000000e+00 0.000000e+00 0.000000e+00 2.385636e-04 -1.173883e-05 0.000000e+00 -1.173883e-05 -1.908465e-05 0.000000e+00 0.000000e+00 0.000000e+00 0.000000e+00 2.489999e-04 -1.256074e-05 0.000000e+00 -1.256074e-05 -4.854642e-06 0.000000e+00 0.000000e+00 0.000000e+00 0.000000e+00 2.604707e-04 -1.359403e-05 0.000000e+00 -1.359403e-05 9.314622e-06 0.000000e+00 0.000000e+00 0.000000e+00 0.000000e+00 2.734976e-04 -1.484536e-05 0.000000e+00 -1.484536e-05 2.276324e-05 0.000000e+00 0.000000e+00 0.000000e+00 0.000000e+00 2.878021e-04 -1.552937e-05 0.000000e+00 -1.552937e-05 3.649520e-05 0.000000e+00 0.000000e+00 0.000000e+00 0.000000e+00 3.024993e-04 -1.570963e-05 0.000000e+00 -1.570963e-05 5.276655e-05 0.000000e+00 0.000000e+00 0.000000e+00 0.000000e+00 3.177099e-04 -1.605079e-05 0.000000e+00 -1.605079e-05 7.092740e-05 0.000000e+00 0.000000e+00 0.000000e+00 0.000000e+00 3.345472e-04 -1.699616e-05 0.000000e+00 -1.699616e-05 8.906203e-05 0.000000e+00 0.000000e+00 0.000000e+00 0.000000e+00 3.517668e-04 -1.959155e-05 0.000000e+00 -1.959155e-05 1.092077e-04 0.000000e+00 0.000000e+00 0.000000e+00 0.000000e+00 3.727966e-04 -2.326537e-05 0.000000e+00 -2.326537e-05 1.305548e-04 0.000000e+00 0.000000e+00 0.000000e+00 0.000000e+00 3.963556e-04 -2.642564e-05 0.000000e+00 -2.642564e-05 1.538125e-04 0.000000e+00 0.000000e+00 0.000000e+00 0.000000e+00 4.236812e-04 -3.056925e-05 0.000000e+00 -3.056925e-05 1.798236e-04 0.000000e+00 0.000000e+00 0.000000e+00 0.000000e+00 4.563030e-04 -3.448192e-05 0.000000e+00 -3.448192e-05 2.110081e-04 0.000000e+00 0.000000e+00 0.000000e+00 0.000000e+00 4.939572e-04 -4.164941e-05 0.000000e+00 -4.164941e-05 2.489227e-04 0.000000e+00 0.000000e+00 0.000000e+00 0.000000e+00 5.383012e-04 -5.672421e-05 0.000000e+00 -5.672421e-05 2.932467e-04 0.000000e+00 0.000000e+00 0.000000e+00 0.000000e+00 5.955117e-04 -8.248655e-05 0.000000e+00 -8.248655e-05 3.503778e-04 0.000000e+00 0.000000e+00 0.000000e+00 0.000000e+00 6.705635e-04 -1.303895e-04 0.000000e+00 -1.303895e-04 4.328973e-04 0.000000e+00 0.000000e+00 0.000000e+00 0.000000e+00 7.575711e-04 -2.190397e-04 0.000000e+00 -2.190397e-04 5.747681e-04 0.000000e+00 0.000000e+00 0.000000e+00 0.000000e+00 8.069522e-04 -3.661355e-04 0.000000e+00 -3.661355e-04 8.817224e-04 0.000000e+00 0.000000e+00 0.000000e+00 0.000000e+00 1.117855e-04 -3.862348e-05 0.000000e+00 -3.862348e-05 -4.736646e-04 0.000000e+00 0.000000e+00 0.000000e+00 0.000000e+00 1.142042e-04 -1.546506e-05 0.000000e+00 -1.546506e-05 -4.177751e-04 0.000000e+00 0.000000e+00 0.000000e+00 0.000000e+00 1.162174e-04 -9.939486e-06 0.000000e+00 -9.939486e-06 -3.756188e-04 0.000000e+00 0.000000e+00 0.000000e+00 0.000000e+00 1.159350e-04 -8.917317e-06 0.000000e+00 -8.917317e-06 -3.367280e-04 0.000000e+00 0.000000e+00 0.000000e+00 0.000000e+00 1.155444e-04 -9.356499e-06 0.000000e+00 -9.356499e-06 -2.998285e-04 0.000000e+00 0.000000e+00 0.000000e+00 0.000000e+00 1.181037e-04 -1.029417e-05 0.000000e+00 -1.029417e-05 -2.659967e-04 0.000000e+00 0.000000e+00 0.000000e+00 0.000000e+00 1.225197e-04 -1.022678e-05 0.000000e+00 -1.022678e-05 -2.356656e-04 0.000000e+00 0.000000e+00 0.000000e+00 0.000000e+00 1.284200e-04 -1.107419e-05 0.000000e+00 -1.107419e-05 -2.068951e-04 0.000000e+00 0.000000e+00 0.000000e+00 0.000000e+00 1.362941e-04 -1.175123e-05 0.000000e+00 -1.175123e-05 -1.799249e-04 0.000000e+00 0.000000e+00 0.000000e+00 0.000000e+00 1.455380e-04 -1.372687e-05 0.000000e+00 -1.372687e-05 -1.547207e-04 0.000000e+00 0.000000e+00 0.000000e+00 0.000000e+00 1.574392e-04 -1.521585e-05 0.000000e+00 -1.521585e-05 -1.302508e-04 0.000000e+00 0.000000e+00 0.000000e+00 0.000000e+00 1.707363e-04 -1.598945e-05 0.000000e+00 -1.598945e-05 -1.071155e-04 0.000000e+00 0.000000e+00 0.000000e+00 0.000000e+00 1.859188e-04 -1.807436e-05 0.000000e+00 -1.807436e-05 -8.493834e-05 0.000000e+00 0.000000e+00 0.000000e+00 0.000000e+00 2.029397e-04 -1.943098e-05 0.000000e+00 -1.943098e-05 -6.137365e-05 0.000000e+00 0.000000e+00 0.000000e+00 0.000000e+00 2.216641e-04 -1.996128e-05 0.000000e+00 -1.996128e-05 -3.726401e-05 0.000000e+00 0.000000e+00 0.000000e+00 0.000000e+00 2.419598e-04 -2.303005e-05 0.000000e+00 -2.303005e-05 -1.113964e-05 0.000000e+00 0.000000e+00 0.000000e+00 0.000000e+00 2.651241e-04 -2.637361e-05 0.000000e+00 -2.637361e-05 1.738157e-05 0.000000e+00 0.000000e+00 0.000000e+00 0.000000e+00 2.916316e-04 -3.009000e-05 0.000000e+00 -3.009000e-05 4.702407e-05 0.000000e+00 0.000000e+00 0.000000e+00 0.000000e+00 3.237149e-04 -3.021226e-05 0.000000e+00 -3.021226e-05 8.158524e-05 0.000000e+00 0.000000e+00 0.000000e+00 0.000000e+00 3.563298e-04 -4.025476e-05 0.000000e+00 -4.025476e-05 1.221000e-04 0.000000e+00 0.000000e+00 0.000000e+00 0.000000e+00 3.992816e-04 -5.341099e-05 0.000000e+00 -5.341099e-05 1.725025e-04 0.000000e+00 0.000000e+00 0.000000e+00 0.000000e+00 4.604514e-04 -6.377633e-05 0.000000e+00 -6.377633e-05 2.361354e-04 0.000000e+00 0.000000e+00 0.000000e+00 0.000000e+00 5.231976e-04 -1.053332e-04 0.000000e+00 -1.053332e-04 3.378653e-04 0.000000e+00 0.000000e+00 0.000000e+00 0.000000e+00 5.680653e-04 -1.896132e-04 0.000000e+00 -1.896132e-04 5.447752e-04 0.000000e+00 0.000000e+00 0.000000e+00 0.000000e+00 3.717841e-04 -7.051309e-05 0.000000e+00 -7.051309e-05 1.095357e-03 0.000000e+00 0.000000e+00 0.000000e+00 0.000000e+00 2.240121e-04 4.222196e-05 0.000000e+00 4.222196e-05 -5.795842e-05 0.000000e+00 0.000000e+00 0.000000e+00 0.000000e+00 1.651755e-04 2.960442e-05 0.000000e+00 2.960442e-05 -4.894078e-05 0.000000e+00 0.000000e+00 0.000000e+00 0.000000e+00 1.246360e-04 2.986023e-05 0.000000e+00 2.986023e-05 -3.853862e-05 0.000000e+00 0.000000e+00 0.000000e+00 0.000000e+00 8.812935e-05 3.467968e-05 0.000000e+00 3.467968e-05 -2.565155e-05 0.000000e+00 0.000000e+00 0.000000e+00 0.000000e+00 1.023598e-04 4.648518e-05 0.000000e+00 4.648518e-05 -2.310726e-05 0.000000e+00 0.000000e+00 0.000000e+00 0.000000e+00 9.552773e-05 4.800494e-05 0.000000e+00 4.800494e-05 -1.644217e-05 0.000000e+00 0.000000e+00 0.000000e+00 0.000000e+00 4.027141e-05 3.964957e-05 0.000000e+00 3.964957e-05 -8.476131e-06 0.000000e+00 0.000000e+00 0.000000e+00 0.000000e+00 -1.283232e-05 1.146337e-05 0.000000e+00 1.146337e-05 9.168383e-06 0.000000e+00 0.000000e+00 0.000000e+00 0.000000e+00 -1.322365e-05 -7.843947e-06 0.000000e+00 -7.843947e-06 5.459381e-06 0.000000e+00 0.000000e+00 0.000000e+00 0.000000e+00 1.128386e-06 -5.738072e-06 0.000000e+00 -5.738072e-06 -4.991307e-06 0.000000e+00 0.000000e+00 0.000000e+00 0.000000e+00 6.470281e-06 2.619420e-06 0.000000e+00 2.619420e-06 -1.150141e-05 0.000000e+00 0.000000e+00 0.000000e+00 0.000000e+00 2.242230e-07 8.169343e-06 0.000000e+00 8.169343e-06 -1.965808e-06 0.000000e+00 0.000000e+00 0.000000e+00 0.000000e+00 -3.495893e-06 2.028827e-06 0.000000e+00 2.028827e-06 5.440230e-06 0.000000e+00 0.000000e+00 0.000000e+00 0.000000e+00 -1.539145e-06 -3.057191e-06 0.000000e+00 -3.057191e-06 2.124487e-06 0.000000e+00 0.000000e+00 0.000000e+00 0.000000e+00 1.683988e-06 -2.825992e-06 0.000000e+00 -2.825992e-06 -6.065906e-07 0.000000e+00 0.000000e+00 0.000000e+00 0.000000e+00 2.805327e-06 1.500762e-06 0.000000e+00 1.500762e-06 -4.415619e-06 0.000000e+00 0.000000e+00 0.000000e+00 0.000000e+00 -1.980437e-05 2.339648e-05 0.000000e+00 2.339648e-05 6.762139e-07 0.000000e+00 0.000000e+00 0.000000e+00 0.000000e+00 -8.041153e-05 4.653767e-05 0.000000e+00 4.653767e-05 2.171955e-05 0.000000e+00 0.000000e+00 0.000000e+00 0.000000e+00 -1.555260e-04 4.725986e-05 0.000000e+00 4.725986e-05 5.030919e-05 0.000000e+00 0.000000e+00 0.000000e+00 0.000000e+00 -2.037341e-04 1.350170e-05 0.000000e+00 1.350170e-05 7.367441e-05 0.000000e+00 0.000000e+00 0.000000e+00 0.000000e+00 -1.617686e-04 -5.637616e-05 0.000000e+00 -5.637616e-05 6.013634e-05 0.000000e+00 0.000000e+00 0.000000e+00 0.000000e+00 -9.195522e-05 -6.955800e-05 0.000000e+00 -6.955800e-05 2.523381e-05 0.000000e+00 0.000000e+00 0.000000e+00 0.000000e+00 -2.433936e-05 -4.885706e-05 0.000000e+00 -4.885706e-05 -1.512995e-05 0.000000e+00 0.000000e+00 0.000000e+00 0.000000e+00 1.546761e-05 -6.726668e-05 0.000000e+00 -6.726668e-05 -7.960310e-05 0.000000e+00 0.000000e+00 0.000000e+00 0.000000e+00 8.701316e-06 1.219475e-05 0.000000e+00 1.219475e-05 -9.977293e-06 0.000000e+00 0.000000e+00 0.000000e+00 0.000000e+00 1.476823e-05 4.855980e-06 0.000000e+00 4.855980e-06 -1.151530e-05 0.000000e+00 0.000000e+00 0.000000e+00 0.000000e+00 1.611853e-05 -4.444324e-06 0.000000e+00 -4.444324e-06 -8.642973e-06 0.000000e+00 0.000000e+00 0.000000e+00 0.000000e+00 1.251657e-05 -1.100458e-05 0.000000e+00 -1.100458e-05 1.846206e-07 0.000000e+00 0.000000e+00 0.000000e+00 0.000000e+00 3.181777e-06 -9.219744e-06 0.000000e+00 -9.219744e-06 1.200281e-05 0.000000e+00 0.000000e+00 0.000000e+00 0.000000e+00 -4.758215e-06 3.030227e-06 0.000000e+00 3.030227e-06 2.168918e-05 0.000000e+00 0.000000e+00 0.000000e+00 0.000000e+00 -5.089335e-06 2.356281e-05 0.000000e+00 2.356281e-05 2.670635e-05 0.000000e+00 0.000000e+00 0.000000e+00 0.000000e+00 2.085265e-06 4.887731e-05 0.000000e+00 4.887731e-05 2.533140e-05 0.000000e+00 0.000000e+00 0.000000e+00 0.000000e+00 1.700191e-05 7.462938e-05 0.000000e+00 7.462938e-05 1.746914e-05 0.000000e+00 0.000000e+00 0.000000e+00 0.000000e+00 3.668942e-05 9.398114e-05 0.000000e+00 9.398114e-05 6.399773e-06 0.000000e+00 0.000000e+00 0.000000e+00 0.000000e+00 5.075257e-05 1.058862e-04 0.000000e+00 1.058862e-04 -5.357750e-06 0.000000e+00 0.000000e+00 0.000000e+00 0.000000e+00 5.478022e-05 1.114448e-04 0.000000e+00 1.114448e-04 -1.326574e-05 0.000000e+00 0.000000e+00 0.000000e+00 0.000000e+00 4.816140e-05 1.139102e-04 0.000000e+00 1.139102e-04 -1.479975e-05 0.000000e+00 0.000000e+00 0.000000e+00 0.000000e+00 3.258125e-05 1.146814e-04 0.000000e+00 1.146814e-04 -1.053573e-05 0.000000e+00 0.000000e+00 0.000000e+00 0.000000e+00 1.116849e-05 1.168618e-04 0.000000e+00 1.168618e-04 -3.104445e-06 0.000000e+00 0.000000e+00 0.000000e+00 0.000000e+00 -9.082253e-06 1.211955e-04 0.000000e+00 1.211955e-04 2.040932e-06 0.000000e+00 0.000000e+00 0.000000e+00 0.000000e+00 -2.056915e-05 1.251913e-04 0.000000e+00 1.251913e-04 -7.641958e-07 0.000000e+00 0.000000e+00 0.000000e+00 0.000000e+00 -2.115014e-05 1.237956e-04 0.000000e+00 1.237956e-04 -1.210428e-05 0.000000e+00 0.000000e+00 0.000000e+00 0.000000e+00 -1.314713e-05 1.136929e-04 0.000000e+00 1.136929e-04 -2.626963e-05 0.000000e+00 0.000000e+00 0.000000e+00 0.000000e+00 -2.281425e-06 9.510138e-05 0.000000e+00 9.510138e-05 -3.821445e-05 0.000000e+00 0.000000e+00 0.000000e+00 0.000000e+00 8.258489e-06 7.301153e-05 0.000000e+00 7.301153e-05 -4.709725e-05 0.000000e+00 0.000000e+00 0.000000e+00 0.000000e+00 1.506436e-05 4.751975e-05 0.000000e+00 4.751975e-05 -5.152437e-05 0.000000e+00 0.000000e+00 0.000000e+00 0.000000e+00 1.393588e-05 2.360343e-05 0.000000e+00 2.360343e-05 -4.650046e-05 0.000000e+00 0.000000e+00 0.000000e+00 0.000000e+00 6.118238e-06 6.968176e-06 0.000000e+00 6.968176e-06 -3.368657e-05 0.000000e+00 0.000000e+00 0.000000e+00 0.000000e+00 -2.083378e-06 2.361554e-06 0.000000e+00 2.361554e-06 -1.947479e-05 0.000000e+00 0.000000e+00 0.000000e+00 0.000000e+00 -5.754753e-06 6.166565e-06 0.000000e+00 6.166565e-06 -1.007737e-05 0.000000e+00 0.000000e+00 0.000000e+00 0.000000e+00 -3.899381e-06 1.142951e-05 0.000000e+00 1.142951e-05 -6.251518e-06 0.000000e+00 0.000000e+00 0.000000e+00 0.000000e+00 1.539178e-06 1.434557e-05 0.000000e+00 1.434557e-05 -7.078600e-06 0.000000e+00 0.000000e+00 0.000000e+00 0.000000e+00 1.116966e-04 -2.397885e-05 0.000000e+00 -2.397885e-05 -4.404261e-04 0.000000e+00 0.000000e+00 0.000000e+00 0.000000e+00 1.158510e-04 -1.174694e-05 0.000000e+00 -1.174694e-05 -3.962643e-04 0.000000e+00 0.000000e+00 0.000000e+00 0.000000e+00 1.161091e-04 -9.375265e-06 0.000000e+00 -9.375265e-06 -3.560108e-04 0.000000e+00 0.000000e+00 0.000000e+00 0.000000e+00 1.155653e-04 -8.932594e-06 0.000000e+00 -8.932594e-06 -3.180546e-04 0.000000e+00 0.000000e+00 0.000000e+00 0.000000e+00 1.165744e-04 -9.979461e-06 0.000000e+00 -9.979461e-06 -2.826473e-04 0.000000e+00 0.000000e+00 0.000000e+00 0.000000e+00 1.203473e-04 -1.027362e-05 0.000000e+00 -1.027362e-05 -2.506058e-04 0.000000e+00 0.000000e+00 0.000000e+00 0.000000e+00 1.250266e-04 -1.062878e-05 0.000000e+00 -1.062878e-05 -2.210581e-04 0.000000e+00 0.000000e+00 0.000000e+00 0.000000e+00 1.320956e-04 -1.166168e-05 0.000000e+00 -1.166168e-05 -1.932698e-04 0.000000e+00 0.000000e+00 0.000000e+00 0.000000e+00 1.408253e-04 -1.271215e-05 0.000000e+00 -1.271215e-05 -1.670013e-04 0.000000e+00 0.000000e+00 0.000000e+00 0.000000e+00 1.512047e-04 -1.473569e-05 0.000000e+00 -1.473569e-05 -1.424560e-04 0.000000e+00 0.000000e+00 0.000000e+00 0.000000e+00 1.638891e-04 -1.552499e-05 0.000000e+00 -1.552499e-05 -1.184707e-04 0.000000e+00 0.000000e+00 0.000000e+00 0.000000e+00 1.780216e-04 -1.714660e-05 0.000000e+00 -1.714660e-05 -9.594194e-05 0.000000e+00 0.000000e+00 0.000000e+00 0.000000e+00 1.940377e-04 -1.885892e-05 0.000000e+00 -1.885892e-05 -7.313257e-05 0.000000e+00 0.000000e+00 0.000000e+00 0.000000e+00 2.125208e-04 -1.915992e-05 0.000000e+00 -1.915992e-05 -4.954890e-05 0.000000e+00 0.000000e+00 0.000000e+00 0.000000e+00 2.315027e-04 -2.135665e-05 0.000000e+00 -2.135665e-05 -2.481164e-05 0.000000e+00 0.000000e+00 0.000000e+00 0.000000e+00 2.534034e-04 -2.464742e-05 0.000000e+00 -2.464742e-05 3.378030e-06 0.000000e+00 0.000000e+00 0.000000e+00 0.000000e+00 2.780811e-04 -2.853974e-05 0.000000e+00 -2.853974e-05 3.167935e-05 0.000000e+00 0.000000e+00 0.000000e+00 0.000000e+00 3.069470e-04 -3.057023e-05 0.000000e+00 -3.057023e-05 6.376675e-05 0.000000e+00 0.000000e+00 0.000000e+00 0.000000e+00 3.391111e-04 -3.382020e-05 0.000000e+00 -3.382020e-05 1.010703e-04 0.000000e+00 0.000000e+00 0.000000e+00 0.000000e+00 3.766511e-04 -4.685484e-05 0.000000e+00 -4.685484e-05 1.464859e-04 0.000000e+00 0.000000e+00 0.000000e+00 0.000000e+00 4.268735e-04 -5.891227e-05 0.000000e+00 -5.891227e-05 2.017573e-04 0.000000e+00 0.000000e+00 0.000000e+00 0.000000e+00 4.914850e-04 -7.902771e-05 0.000000e+00 -7.902771e-05 2.809021e-04 0.000000e+00 0.000000e+00 0.000000e+00 0.000000e+00 5.540380e-04 -1.409612e-04 0.000000e+00 -1.409612e-04 4.184142e-04 0.000000e+00 0.000000e+00 0.000000e+00 0.000000e+00 5.332157e-04 -2.281551e-04 0.000000e+00 -2.281551e-04 7.532250e-04 0.000000e+00 0.000000e+00 0.000000e+00 0.000000e+00 2.729854e-04 6.510550e-05 0.000000e+00 6.510550e-05 -7.766830e-05 0.000000e+00 0.000000e+00 0.000000e+00 0.000000e+00 1.912287e-04 3.281684e-05 0.000000e+00 3.281684e-05 -5.459985e-05 0.000000e+00 0.000000e+00 0.000000e+00 0.000000e+00 1.436776e-04 2.911879e-05 0.000000e+00 2.911879e-05 -4.332656e-05 0.000000e+00 0.000000e+00 0.000000e+00 0.000000e+00 1.070646e-04 3.172225e-05 0.000000e+00 3.172225e-05 -3.423616e-05 0.000000e+00 0.000000e+00 0.000000e+00 0.000000e+00 9.095421e-05 5.113220e-05 0.000000e+00 5.113220e-05 -1.513027e-05 0.000000e+00 0.000000e+00 0.000000e+00 0.000000e+00 6.994957e-05 4.403067e-05 0.000000e+00 4.403067e-05 -1.643300e-05 0.000000e+00 0.000000e+00 0.000000e+00 0.000000e+00 1.014278e-05 2.972442e-05 0.000000e+00 2.972442e-05 2.691506e-06 0.000000e+00 0.000000e+00 0.000000e+00 0.000000e+00 -1.864308e-05 -1.065235e-06 0.000000e+00 -1.065235e-06 9.596867e-06 0.000000e+00 0.000000e+00 0.000000e+00 0.000000e+00 -4.938454e-06 -8.574965e-06 0.000000e+00 -8.574965e-06 -4.097423e-08 0.000000e+00 0.000000e+00 0.000000e+00 0.000000e+00 5.939743e-06 -3.121240e-06 0.000000e+00 -3.121240e-06 -1.075430e-05 0.000000e+00 0.000000e+00 0.000000e+00 0.000000e+00 3.839100e-06 6.870242e-06 0.000000e+00 6.870242e-06 -7.712492e-06 0.000000e+00 0.000000e+00 0.000000e+00 0.000000e+00 -2.770313e-06 6.026456e-06 0.000000e+00 6.026456e-06 2.526097e-06 0.000000e+00 0.000000e+00 0.000000e+00 0.000000e+00 -3.090473e-06 -1.118707e-06 0.000000e+00 -1.118707e-06 4.520606e-06 0.000000e+00 0.000000e+00 0.000000e+00 0.000000e+00 -1.169147e-04 5.093760e-05 0.000000e+00 5.093760e-05 3.503722e-05 0.000000e+00 0.000000e+00 0.000000e+00 0.000000e+00 -3.351998e-06 1.132964e-05 0.000000e+00 1.132964e-05 -4.230115e-06 0.000000e+00 0.000000e+00 0.000000e+00 0.000000e+00 -4.636084e-05 3.591978e-05 0.000000e+00 3.591978e-05 9.164365e-06 0.000000e+00 0.000000e+00 0.000000e+00 0.000000e+00 -1.861135e-04 3.569616e-05 0.000000e+00 3.569616e-05 6.336618e-05 0.000000e+00 0.000000e+00 0.000000e+00 0.000000e+00 -1.931754e-04 -2.586929e-05 0.000000e+00 -2.586929e-05 7.628925e-05 0.000000e+00 0.000000e+00 0.000000e+00 0.000000e+00 4.003221e-05 -7.691949e-05 0.000000e+00 -7.691949e-05 -1.442544e-04 0.000000e+00 0.000000e+00 0.000000e+00 0.000000e+00 1.202794e-04 -1.719161e-05 0.000000e+00 -1.719161e-05 -3.685600e-04 0.000000e+00 0.000000e+00 0.000000e+00 0.000000e+00 1.166086e-04 -1.697612e-05 0.000000e+00 -1.697612e-05 -3.282101e-04 0.000000e+00 0.000000e+00 0.000000e+00 0.000000e+00 1.251289e-04 -2.367731e-05 0.000000e+00 -2.367731e-05 -2.122435e-04 0.000000e+00 0.000000e+00 0.000000e+00 0.000000e+00 1.213361e-04 -2.076893e-05 0.000000e+00 -2.076893e-05 -2.432144e-04 0.000000e+00 0.000000e+00 0.000000e+00 0.000000e+00 1.177386e-04 -1.713959e-05 0.000000e+00 -1.713959e-05 -3.477432e-04 0.000000e+00 0.000000e+00 0.000000e+00 0.000000e+00 1.227127e-04 -2.144433e-05 0.000000e+00 -2.144433e-05 -2.271490e-04 0.000000e+00 0.000000e+00 0.000000e+00 0.000000e+00 1.190592e-04 -2.166642e-05 0.000000e+00 -2.166642e-05 -2.579042e-04 0.000000e+00 0.000000e+00 0.000000e+00 0.000000e+00 1.649677e-04 -3.097381e-05 0.000000e+00 -3.097381e-05 -1.118200e-04 0.000000e+00 0.000000e+00 0.000000e+00 0.000000e+00 1.526252e-04 -3.062105e-05 0.000000e+00 -3.062105e-05 -1.358382e-04 0.000000e+00 0.000000e+00 0.000000e+00 0.000000e+00 4.322327e-04 -1.507859e-04 0.000000e+00 -1.507859e-04 3.361009e-04 0.000000e+00 0.000000e+00 0.000000e+00 0.000000e+00 1.595075e-04 -3.079344e-05 0.000000e+00 -3.079344e-05 -1.240762e-04 0.000000e+00 0.000000e+00 0.000000e+00 0.000000e+00 1.465895e-04 -2.964281e-05 0.000000e+00 -2.964281e-05 -1.480537e-04 0.000000e+00 0.000000e+00 0.000000e+00 0.000000e+00 1.952361e-04 -3.873981e-05 0.000000e+00 -3.873981e-05 -6.553134e-05 0.000000e+00 0.000000e+00 0.000000e+00 0.000000e+00 2.143076e-04 -3.951918e-05 0.000000e+00 -3.951918e-05 -4.193219e-05 0.000000e+00 0.000000e+00 0.000000e+00 0.000000e+00 2.041371e-04 -3.949972e-05 0.000000e+00 -3.949972e-05 -5.394146e-05 0.000000e+00 0.000000e+00 0.000000e+00 0.000000e+00 1.862376e-04 -3.758591e-05 0.000000e+00 -3.758591e-05 -7.751279e-05 0.000000e+00 0.000000e+00 0.000000e+00 0.000000e+00 2.427845e-04 -4.898788e-05 0.000000e+00 -4.898788e-05 -1.367583e-06 0.000000e+00 0.000000e+00 0.000000e+00 0.000000e+00 3.063827e-04 -6.232647e-05 0.000000e+00 -6.232647e-05 8.056749e-05 0.000000e+00 0.000000e+00 0.000000e+00 0.000000e+00 2.654865e-04 -5.435480e-05 0.000000e+00 -5.435480e-05 2.958598e-05 0.000000e+00 0.000000e+00 0.000000e+00 0.000000e+00 2.896500e-04 -6.113103e-05 0.000000e+00 -6.113103e-05 6.362103e-05 0.000000e+00 0.000000e+00 0.000000e+00 0.000000e+00 4.009605e-04 -1.161132e-04 0.000000e+00 -1.161132e-04 2.439317e-04 0.000000e+00 0.000000e+00 0.000000e+00 0.000000e+00 3.617100e-04 -9.491896e-05 0.000000e+00 -9.491896e-05 1.736265e-04 0.000000e+00 0.000000e+00 0.000000e+00 0.000000e+00 2.760463e-04 -5.850791e-05 0.000000e+00 -5.850791e-05 4.608805e-05 0.000000e+00 0.000000e+00 0.000000e+00 0.000000e+00 3.784207e-04 -1.069521e-04 0.000000e+00 -1.069521e-04 2.072722e-04 0.000000e+00 0.000000e+00 0.000000e+00 0.000000e+00 3.453872e-04 -8.295504e-05 0.000000e+00 -8.295504e-05 1.426885e-04 0.000000e+00 0.000000e+00 0.000000e+00 0.000000e+00 4.373266e-04 -1.234598e-04 0.000000e+00 -1.234598e-04 2.762676e-04 0.000000e+00 0.000000e+00 0.000000e+00 0.000000e+00 1.813109e-04 6.733649e-05 0.000000e+00 6.733649e-05 -4.605435e-05 0.000000e+00 0.000000e+00 0.000000e+00 0.000000e+00 2.024808e-04 -7.689297e-05 0.000000e+00 -7.689297e-05 9.084661e-04 0.000000e+00 0.000000e+00 0.000000e+00 0.000000e+00 1.371601e-04 5.269545e-05 0.000000e+00 5.269545e-05 -4.122694e-05 0.000000e+00 0.000000e+00 0.000000e+00 0.000000e+00 2.125881e-04 8.672735e-05 0.000000e+00 8.672735e-05 -4.381847e-05 0.000000e+00 0.000000e+00 0.000000e+00 0.000000e+00 2.504924e-04 1.330564e-04 0.000000e+00 1.330564e-04 -2.961477e-05 0.000000e+00 0.000000e+00 0.000000e+00 0.000000e+00 3.315303e-04 -1.958400e-04 0.000000e+00 -1.958400e-04 7.061264e-04 0.000000e+00 0.000000e+00 0.000000e+00 0.000000e+00 1.566003e-04 5.793414e-05 0.000000e+00 5.793414e-05 -4.384870e-05 0.000000e+00 0.000000e+00 0.000000e+00 0.000000e+00 4.104072e-04 2.088985e-04 0.000000e+00 2.088985e-04 -8.455099e-05 0.000000e+00 0.000000e+00 0.000000e+00 0.000000e+00 5.574198e-05 6.904601e-05 0.000000e+00 6.904601e-05 -8.348396e-06 0.000000e+00 0.000000e+00 0.000000e+00 0.000000e+00 1.104008e-04 4.621343e-05 0.000000e+00 4.621343e-05 -3.451312e-05 0.000000e+00 0.000000e+00 0.000000e+00 0.000000e+00 7.400721e-05 6.369763e-05 0.000000e+00 6.369763e-05 -1.131118e-05 0.000000e+00 0.000000e+00 0.000000e+00 0.000000e+00 -1.517879e-06 -4.141654e-07 0.000000e+00 -4.141654e-07 -5.193827e-06 0.000000e+00 0.000000e+00 0.000000e+00 0.000000e+00 3.325008e-05 6.661690e-05 0.000000e+00 6.661690e-05 1.490738e-06 0.000000e+00 0.000000e+00 0.000000e+00 0.000000e+00 -4.188428e-06 4.638479e-06 0.000000e+00 4.638479e-06 -7.396519e-07 0.000000e+00 0.000000e+00 0.000000e+00 0.000000e+00 8.246936e-06 7.182460e-06 0.000000e+00 7.182460e-06 -1.012496e-05 0.000000e+00 0.000000e+00 0.000000e+00 0.000000e+00 -5.237114e-06 -6.455482e-06 0.000000e+00 -6.455482e-06 8.726319e-06 0.000000e+00 0.000000e+00 0.000000e+00 0.000000e+00 3.264516e-09 -1.149682e-05 0.000000e+00 -1.149682e-05 -4.178489e-08 0.000000e+00 0.000000e+00 0.000000e+00 0.000000e+00 1.243532e-04 -2.209919e-05 0.000000e+00 -2.209919e-05 -4.124818e-04 0.000000e+00 0.000000e+00 0.000000e+00 0.000000e+00 4.881782e-06 -8.574237e-06 0.000000e+00 -8.574237e-06 -6.061963e-06 0.000000e+00 0.000000e+00 0.000000e+00 0.000000e+00 1.028056e-05 -1.674957e-06 0.000000e+00 -1.674957e-06 -1.007536e-05 0.000000e+00 0.000000e+00 0.000000e+00 0.000000e+00 -5.132700e-05 6.859975e-05 0.000000e+00 6.859975e-05 8.081996e-06 0.000000e+00 0.000000e+00 0.000000e+00 0.000000e+00 -3.276427e-06 1.219480e-06 0.000000e+00 1.219480e-06 -2.765268e-06 0.000000e+00 0.000000e+00 0.000000e+00 0.000000e+00 -2.821306e-05 5.092961e-05 0.000000e+00 5.092961e-05 -2.019944e-06 0.000000e+00 0.000000e+00 0.000000e+00 0.000000e+00 -7.507516e-05 8.353792e-05 0.000000e+00 8.353792e-05 2.075828e-05 0.000000e+00 0.000000e+00 0.000000e+00 0.000000e+00 -7.343684e-08 2.858947e-07 0.000000e+00 2.858947e-07 -5.043236e-06 0.000000e+00 0.000000e+00 0.000000e+00 0.000000e+00 -1.247987e-04 7.016066e-05 0.000000e+00 7.016066e-05 5.119226e-05 0.000000e+00 0.000000e+00 0.000000e+00 0.000000e+00 -1.375884e-04 -7.743872e-05 0.000000e+00 -7.743872e-05 7.963176e-05 0.000000e+00 0.000000e+00 0.000000e+00 0.000000e+00 -1.079086e-05 3.120875e-05 0.000000e+00 3.120875e-05 -8.521741e-06 0.000000e+00 0.000000e+00 0.000000e+00 0.000000e+00 -1.022126e-04 8.193926e-05 0.000000e+00 8.193926e-05 3.634345e-05 0.000000e+00 0.000000e+00 0.000000e+00 0.000000e+00 -1.008466e-04 -1.094784e-04 0.000000e+00 -1.094784e-04 4.632145e-05 0.000000e+00 0.000000e+00 0.000000e+00 0.000000e+00 9.896653e-06 -1.216467e-04 0.000000e+00 -1.216467e-04 -8.251876e-05 0.000000e+00 0.000000e+00 0.000000e+00 0.000000e+00 -5.428082e-05 -1.142478e-04 0.000000e+00 -1.142478e-04 2.581942e-06 0.000000e+00 0.000000e+00 0.000000e+00 0.000000e+00 1.221448e-04 -1.838046e-05 0.000000e+00 -1.838046e-05 -3.897399e-04 0.000000e+00 0.000000e+00 0.000000e+00 0.000000e+00 2.544688e-04 -5.076892e-05 0.000000e+00 -5.076892e-05 1.332857e-05 0.000000e+00 0.000000e+00 0.000000e+00 0.000000e+00 2.468172e-04 3.932686e-04 0.000000e+00 3.932686e-04 8.651767e-04 0.000000e+00 0.000000e+00 0.000000e+00 0.000000e+00 -1.468907e-06 1.278459e-05 0.000000e+00 1.278459e-05 -1.063347e-05 0.000000e+00 0.000000e+00 0.000000e+00 0.000000e+00 7.014793e-05 -5.881991e-05 0.000000e+00 -5.881991e-05 -2.233321e-04 0.000000e+00 0.000000e+00 0.000000e+00 0.000000e+00 1.328528e-04 -2.411430e-05 0.000000e+00 -2.411430e-05 -1.859378e-04 0.000000e+00 0.000000e+00 0.000000e+00 0.000000e+00 1.003951e-05 -9.660966e-06 0.000000e+00 -9.660966e-06 -5.280997e-06 0.000000e+00 0.000000e+00 0.000000e+00 0.000000e+00 4.887815e-06 -1.213378e-05 0.000000e+00 -1.213378e-05 3.043853e-06 0.000000e+00 0.000000e+00 0.000000e+00 0.000000e+00 -7.859230e-06 7.834580e-06 0.000000e+00 7.834580e-06 1.406822e-05 0.000000e+00 0.000000e+00 0.000000e+00 0.000000e+00 1.312650e-05 5.075977e-05 0.000000e+00 5.075977e-05 1.157114e-05 0.000000e+00 0.000000e+00 0.000000e+00 0.000000e+00 5.133279e-05 8.994925e-05 0.000000e+00 8.994925e-05 -4.864482e-06 0.000000e+00 0.000000e+00 0.000000e+00 0.000000e+00 6.003016e-05 1.081840e-04 0.000000e+00 1.081840e-04 -1.577428e-05 0.000000e+00 0.000000e+00 0.000000e+00 0.000000e+00 2.242833e-05 1.167438e-04 0.000000e+00 1.167438e-04 -2.967188e-06 0.000000e+00 0.000000e+00 0.000000e+00 0.000000e+00 -2.305403e-05 1.219756e-04 0.000000e+00 1.219756e-04 8.875585e-06 0.000000e+00 0.000000e+00 0.000000e+00 0.000000e+00 -3.266420e-05 1.199024e-04 0.000000e+00 1.199024e-04 4.231588e-06 0.000000e+00 0.000000e+00 0.000000e+00 0.000000e+00 -3.142939e-05 1.112795e-04 0.000000e+00 1.112795e-04 -6.229888e-06 0.000000e+00 0.000000e+00 0.000000e+00 0.000000e+00 -2.143428e-05 9.654655e-05 0.000000e+00 9.654655e-05 -1.766384e-05 0.000000e+00 0.000000e+00 0.000000e+00 0.000000e+00 1.859275e-06 5.359284e-05 0.000000e+00 5.359284e-05 -3.433446e-05 0.000000e+00 0.000000e+00 0.000000e+00 0.000000e+00 7.587407e-06 3.139147e-05 0.000000e+00 3.139147e-05 -3.546149e-05 0.000000e+00 0.000000e+00 0.000000e+00 0.000000e+00 5.047564e-06 1.221817e-05 0.000000e+00 1.221817e-05 -2.801733e-05 0.000000e+00 0.000000e+00 0.000000e+00 0.000000e+00 -4.404146e-06 3.748395e-06 0.000000e+00 3.748395e-06 -8.360024e-06 0.000000e+00 0.000000e+00 0.000000e+00 0.000000e+00 -4.248269e-06 7.986666e-06 0.000000e+00 7.986666e-06 -3.799081e-06 0.000000e+00 0.000000e+00 0.000000e+00 0.000000e+00 4.385653e-04 4.102582e-04 0.000000e+00 4.102582e-04 2.349883e-04 0.000000e+00 0.000000e+00 0.000000e+00 0.000000e+00 2.647358e-04 2.221394e-04 0.000000e+00 2.221394e-04 4.589755e-05 0.000000e+00 0.000000e+00 0.000000e+00 0.000000e+00 5.686452e-05 -1.082028e-04 0.000000e+00 -1.082028e-04 -1.762346e-04 0.000000e+00 0.000000e+00 0.000000e+00 0.000000e+00 2.787304e-04 3.399386e-04 0.000000e+00 3.399386e-04 1.926896e-04 0.000000e+00 0.000000e+00 0.000000e+00 0.000000e+00 1.400790e-04 -3.425447e-05 0.000000e+00 -3.425447e-05 -4.703304e-04 0.000000e+00 0.000000e+00 0.000000e+00 0.000000e+00 1.154530e-04 -2.002677e-05 0.000000e+00 -2.002677e-05 -2.904128e-04 0.000000e+00 0.000000e+00 0.000000e+00 0.000000e+00 1.718994e-04 -3.344751e-05 0.000000e+00 -3.344751e-05 -1.003100e-04 0.000000e+00 0.000000e+00 0.000000e+00 0.000000e+00 1.302502e-04 -2.458278e-05 0.000000e+00 -2.458278e-05 -1.999878e-04 0.000000e+00 0.000000e+00 0.000000e+00 0.000000e+00 2.214524e-04 -4.248167e-05 0.000000e+00 -4.248167e-05 -2.855572e-05 0.000000e+00 0.000000e+00 0.000000e+00 0.000000e+00 3.235646e-04 -5.931881e-05 0.000000e+00 -5.931881e-05 9.494590e-05 0.000000e+00 0.000000e+00 0.000000e+00 0.000000e+00 1.077406e-04 1.941655e-04 0.000000e+00 1.941655e-04 9.163787e-04 0.000000e+00 0.000000e+00 0.000000e+00 0.000000e+00 1.219565e-04 4.946605e-05 0.000000e+00 4.946605e-05 -3.880493e-05 0.000000e+00 0.000000e+00 0.000000e+00 0.000000e+00 4.295163e-04 -1.808587e-04 0.000000e+00 -1.808587e-04 4.201914e-04 0.000000e+00 0.000000e+00 0.000000e+00 0.000000e+00 -1.422711e-04 4.727879e-05 0.000000e+00 4.727879e-05 6.728597e-05 0.000000e+00 0.000000e+00 0.000000e+00 0.000000e+00 1.001137e-04 5.502721e-05 0.000000e+00 5.502721e-05 -2.586162e-05 0.000000e+00 0.000000e+00 0.000000e+00 0.000000e+00 6.689120e-05 -6.725889e-05 0.000000e+00 -6.725889e-05 -2.417724e-04 0.000000e+00 0.000000e+00 0.000000e+00 0.000000e+00 3.202642e-05 -1.279770e-04 0.000000e+00 -1.279770e-04 -1.200907e-04 0.000000e+00 0.000000e+00 0.000000e+00 0.000000e+00 1.152649e-04 -1.808511e-05 0.000000e+00 -1.808511e-05 -3.081588e-04 0.000000e+00 0.000000e+00 0.000000e+00 0.000000e+00 -1.428006e-04 -3.568371e-05 0.000000e+00 -3.568371e-05 9.016630e-05 0.000000e+00 0.000000e+00 0.000000e+00 0.000000e+00 2.043625e-04 3.646390e-04 0.000000e+00 3.646390e-04 5.089785e-04 0.000000e+00 0.000000e+00 0.000000e+00 0.000000e+00 -1.694494e-05 -1.070686e-04 0.000000e+00 -1.070686e-04 -3.705850e-05 0.000000e+00 0.000000e+00 0.000000e+00 0.000000e+00 3.325071e-06 1.192457e-05 0.000000e+00 1.192457e-05 -6.701168e-06 0.000000e+00 0.000000e+00 0.000000e+00 0.000000e+00 1.379758e-04 -2.504968e-05 0.000000e+00 -2.504968e-05 -1.730073e-04 0.000000e+00 0.000000e+00 0.000000e+00 0.000000e+00 -1.488112e-06 1.155316e-05 0.000000e+00 1.155316e-05 -3.269377e-06 0.000000e+00 0.000000e+00 0.000000e+00 0.000000e+00 -4.728624e-07 3.081202e-06 0.000000e+00 3.081202e-06 -1.549313e-05 0.000000e+00 0.000000e+00 0.000000e+00 0.000000e+00 -8.706339e-06 7.633421e-05 0.000000e+00 7.633421e-05 -2.734887e-05 0.000000e+00 0.000000e+00 0.000000e+00 0.000000e+00 -4.486566e-05 9.373113e-05 0.000000e+00 9.373113e-05 2.531185e-06 0.000000e+00 0.000000e+00 0.000000e+00 0.000000e+00 -3.012030e-06 1.198086e-04 0.000000e+00 1.198086e-04 5.559798e-06 0.000000e+00 0.000000e+00 0.000000e+00 0.000000e+00 4.587207e-05 1.133747e-04 0.000000e+00 1.133747e-04 -1.172490e-05 0.000000e+00 0.000000e+00 0.000000e+00 0.000000e+00 6.255405e-05 9.914762e-05 0.000000e+00 9.914762e-05 -1.321467e-05 0.000000e+00 0.000000e+00 0.000000e+00 0.000000e+00 -1.202127e-06 2.903618e-05 0.000000e+00 2.903618e-05 1.519062e-05 0.000000e+00 0.000000e+00 0.000000e+00 0.000000e+00 1.294657e-04 -2.813514e-05 0.000000e+00 -2.813514e-05 -4.390538e-04 0.000000e+00 0.000000e+00 0.000000e+00 0.000000e+00 1.167850e-04 -2.115963e-05 0.000000e+00 -2.115963e-05 -2.733479e-04 0.000000e+00 0.000000e+00 0.000000e+00 0.000000e+00 1.414278e-04 -2.747934e-05 0.000000e+00 -2.747934e-05 -1.599522e-04 0.000000e+00 0.000000e+00 0.000000e+00 0.000000e+00 1.788417e-04 -3.563157e-05 0.000000e+00 -3.563157e-05 -8.930838e-05 0.000000e+00 0.000000e+00 0.000000e+00 0.000000e+00 2.311010e-04 -4.633307e-05 0.000000e+00 -4.633307e-05 -1.497662e-05 0.000000e+00 0.000000e+00 0.000000e+00 0.000000e+00 3.324957e-04 -7.170536e-05 0.000000e+00 -7.170536e-05 1.160355e-04 0.000000e+00 0.000000e+00 0.000000e+00 0.000000e+00 4.009634e-04 -2.052404e-04 0.000000e+00 -2.052404e-04 5.424002e-04 0.000000e+00 0.000000e+00 0.000000e+00 0.000000e+00 -1.528348e-04 1.017852e-05 0.000000e+00 1.017852e-05 8.359323e-05 0.000000e+00 0.000000e+00 0.000000e+00 0.000000e+00 7.780454e-05 -8.527038e-05 0.000000e+00 -8.527038e-05 -2.489277e-04 0.000000e+00 0.000000e+00 0.000000e+00 0.000000e+00 6.288327e-05 -1.159890e-04 0.000000e+00 -1.159890e-04 -1.917240e-04 0.000000e+00 0.000000e+00 0.000000e+00 0.000000e+00 9.491891e-05 -3.460535e-05 0.000000e+00 -3.460535e-05 -3.213560e-04 0.000000e+00 0.000000e+00 0.000000e+00 0.000000e+00 8.056647e-05 -1.089830e-04 0.000000e+00 -1.089830e-04 -2.232406e-04 0.000000e+00 0.000000e+00 0.000000e+00 0.000000e+00 9.663737e-05 -7.377735e-05 0.000000e+00 -7.377735e-05 -2.895995e-04 0.000000e+00 0.000000e+00 0.000000e+00 0.000000e+00 1.219687e-04 -2.291008e-05 0.000000e+00 -2.291008e-05 -3.615040e-04 0.000000e+00 0.000000e+00 0.000000e+00 0.000000e+00 1.458789e-04 -4.725439e-05 0.000000e+00 -4.725439e-05 -1.401945e-04 0.000000e+00 0.000000e+00 0.000000e+00 0.000000e+00 3.174417e-04 -1.229204e-04 0.000000e+00 -1.229204e-04 1.717903e-04 0.000000e+00 0.000000e+00 0.000000e+00 0.000000e+00 1.847792e-04 -5.959891e-05 0.000000e+00 -5.959891e-05 -6.823989e-05 0.000000e+00 0.000000e+00 0.000000e+00 0.000000e+00 -1.072636e-04 4.880317e-05 0.000000e+00 4.880317e-05 8.781218e-05 0.000000e+00 0.000000e+00 0.000000e+00 0.000000e+00 2.846752e-04 -9.638481e-05 0.000000e+00 -9.638481e-05 8.761883e-05 0.000000e+00 0.000000e+00 0.000000e+00 0.000000e+00 1.528711e-04 9.400260e-05 0.000000e+00 9.400260e-05 -3.023883e-05 0.000000e+00 0.000000e+00 0.000000e+00 0.000000e+00 1.255215e-04 -4.057747e-05 0.000000e+00 -4.057747e-05 -2.027409e-04 0.000000e+00 0.000000e+00 0.000000e+00 0.000000e+00 1.719717e-04 1.136707e-04 0.000000e+00 1.136707e-04 -2.045300e-05 0.000000e+00 0.000000e+00 0.000000e+00 0.000000e+00 8.368644e-05 6.847046e-05 0.000000e+00 6.847046e-05 -1.720373e-05 0.000000e+00 0.000000e+00 0.000000e+00 0.000000e+00 1.237177e-04 7.026544e-05 0.000000e+00 7.026544e-05 -3.646345e-05 0.000000e+00 0.000000e+00 0.000000e+00 0.000000e+00 6.034834e-05 1.526839e-04 0.000000e+00 1.526839e-04 7.844749e-04 0.000000e+00 0.000000e+00 0.000000e+00 0.000000e+00 1.122080e-04 6.237772e-05 0.000000e+00 6.237772e-05 -3.397891e-05 0.000000e+00 0.000000e+00 0.000000e+00 0.000000e+00 1.940061e-04 1.443558e-04 0.000000e+00 1.443558e-04 -7.675677e-07 0.000000e+00 0.000000e+00 0.000000e+00 0.000000e+00 1.193112e-04 -6.208911e-05 0.000000e+00 -6.208911e-05 7.655242e-04 0.000000e+00 0.000000e+00 0.000000e+00 0.000000e+00 1.383128e-04 8.004071e-05 0.000000e+00 8.004071e-05 -3.510157e-05 0.000000e+00 0.000000e+00 0.000000e+00 0.000000e+00 1.224951e-04 2.918816e-04 0.000000e+00 2.918816e-04 4.258130e-04 0.000000e+00 0.000000e+00 0.000000e+00 0.000000e+00 -1.180731e-04 -6.555060e-05 0.000000e+00 -6.555060e-05 1.097981e-04 0.000000e+00 0.000000e+00 0.000000e+00 0.000000e+00 -2.769811e-05 7.588577e-05 0.000000e+00 7.588577e-05 -8.274085e-06 0.000000e+00 0.000000e+00 0.000000e+00 0.000000e+00 -9.093562e-05 8.137614e-05 0.000000e+00 8.137614e-05 6.078158e-05 0.000000e+00 0.000000e+00 0.000000e+00 0.000000e+00 3.932069e-05 -1.475119e-04 0.000000e+00 -1.475119e-04 -1.212399e-04 0.000000e+00 0.000000e+00 0.000000e+00 0.000000e+00 1.147993e-04 -2.787035e-05 0.000000e+00 -2.787035e-05 -3.001733e-04 0.000000e+00 0.000000e+00 0.000000e+00 0.000000e+00 1.182049e-04 -3.253937e-05 0.000000e+00 -3.253937e-05 -2.480937e-04 0.000000e+00 0.000000e+00 0.000000e+00 0.000000e+00 -6.316273e-05 -1.447141e-04 0.000000e+00 -1.447141e-04 2.792306e-05 0.000000e+00 0.000000e+00 0.000000e+00 0.000000e+00 6.664990e-05 8.285312e-05 0.000000e+00 8.285312e-05 -1.118044e-05 0.000000e+00 0.000000e+00 0.000000e+00 0.000000e+00 1.933934e-04 1.939103e-04 0.000000e+00 1.939103e-04 6.490332e-05 0.000000e+00 0.000000e+00 0.000000e+00 0.000000e+00 -1.246553e-05 5.500668e-05 0.000000e+00 5.500668e-05 -1.702314e-05 0.000000e+00 0.000000e+00 0.000000e+00 0.000000e+00 -2.192101e-05 1.203380e-04 0.000000e+00 1.203380e-04 1.599791e-05 0.000000e+00 0.000000e+00 0.000000e+00 0.000000e+00 3.675322e-05 1.160952e-04 0.000000e+00 1.160952e-04 -3.319316e-06 0.000000e+00 0.000000e+00 0.000000e+00 0.000000e+00 5.942467e-06 -1.531195e-04 0.000000e+00 -1.531195e-04 -6.699432e-05 0.000000e+00 0.000000e+00 0.000000e+00 0.000000e+00 -2.427157e-05 -1.434503e-04 0.000000e+00 -1.434503e-04 -2.402735e-05 0.000000e+00 0.000000e+00 0.000000e+00 0.000000e+00 7.007185e-05 9.956920e-05 0.000000e+00 9.956920e-05 -1.828858e-05 0.000000e+00 0.000000e+00 0.000000e+00 0.000000e+00 6.340776e-05 1.086279e-04 0.000000e+00 1.086279e-04 -1.418267e-05 0.000000e+00 0.000000e+00 0.000000e+00 0.000000e+00 6.057594e-06 1.198403e-04 0.000000e+00 1.198403e-04 7.912703e-06 0.000000e+00 0.000000e+00 0.000000e+00 0.000000e+00 -4.202771e-05 1.174644e-04 0.000000e+00 1.174644e-04 1.693521e-05 0.000000e+00 0.000000e+00 0.000000e+00 0.000000e+00 -4.963258e-05 1.071875e-04 0.000000e+00 1.071875e-04 1.092999e-05 0.000000e+00 0.000000e+00 0.000000e+00 0.000000e+00 -1.859963e-06 3.401010e-05 0.000000e+00 3.401010e-05 -2.237072e-05 0.000000e+00 0.000000e+00 0.000000e+00 0.000000e+00 2.617499e-06 1.820367e-05 0.000000e+00 1.820367e-05 -2.251167e-05 0.000000e+00 0.000000e+00 0.000000e+00 0.000000e+00 9.647642e-05 -9.406450e-05 0.000000e+00 -9.406450e-05 -2.598247e-04 0.000000e+00 0.000000e+00 0.000000e+00 0.000000e+00 6.349912e-05 -1.404599e-04 0.000000e+00 -1.404599e-04 -1.604046e-04 0.000000e+00 0.000000e+00 0.000000e+00 0.000000e+00 -9.606207e-05 -1.193250e-04 0.000000e+00 -1.193250e-04 8.129887e-05 0.000000e+00 0.000000e+00 0.000000e+00 0.000000e+00 1.166826e-04 -2.403667e-05 0.000000e+00 -2.403667e-05 -3.351711e-04 0.000000e+00 0.000000e+00 0.000000e+00 0.000000e+00 2.267542e-04 -7.275091e-05 0.000000e+00 -7.275091e-05 -3.656606e-06 0.000000e+00 0.000000e+00 0.000000e+00 0.000000e+00 1.411408e-04 -4.383381e-05 0.000000e+00 -4.383381e-05 -1.544322e-04 0.000000e+00 0.000000e+00 0.000000e+00 0.000000e+00 1.234483e-04 -3.452942e-05 0.000000e+00 -3.452942e-05 -2.200465e-04 0.000000e+00 0.000000e+00 0.000000e+00 0.000000e+00 1.651825e-04 -4.861511e-05 0.000000e+00 -4.861511e-05 -1.060147e-04 0.000000e+00 0.000000e+00 0.000000e+00 0.000000e+00 2.665324e-04 -9.364403e-05 0.000000e+00 -9.364403e-05 6.893885e-05 0.000000e+00 0.000000e+00 0.000000e+00 0.000000e+00 3.075546e-04 -1.097989e-04 0.000000e+00 -1.097989e-04 1.365749e-04 0.000000e+00 0.000000e+00 0.000000e+00 0.000000e+00 2.235834e-04 -1.689936e-04 0.000000e+00 -1.689936e-04 6.386591e-04 0.000000e+00 0.000000e+00 0.000000e+00 0.000000e+00 3.319823e-04 -1.547365e-04 0.000000e+00 -1.547365e-04 2.602059e-04 0.000000e+00 0.000000e+00 0.000000e+00 0.000000e+00 2.015676e-04 -6.024346e-05 0.000000e+00 -6.024346e-05 -4.263383e-05 0.000000e+00 0.000000e+00 0.000000e+00 0.000000e+00 2.588686e-04 -8.528487e-05 0.000000e+00 -8.528487e-05 4.773136e-05 0.000000e+00 0.000000e+00 0.000000e+00 0.000000e+00 1.587941e-04 -4.619689e-05 0.000000e+00 -4.619689e-05 -1.162573e-04 0.000000e+00 0.000000e+00 0.000000e+00 0.000000e+00 3.546382e-04 -1.646093e-04 0.000000e+00 -1.646093e-04 3.136397e-04 0.000000e+00 0.000000e+00 0.000000e+00 0.000000e+00 1.161630e-04 -2.521023e-05 0.000000e+00 -2.521023e-05 -3.180934e-04 0.000000e+00 0.000000e+00 0.000000e+00 0.000000e+00 1.550748e-04 2.735172e-04 0.000000e+00 2.735172e-04 2.500092e-04 0.000000e+00 0.000000e+00 0.000000e+00 0.000000e+00 3.244460e-04 -1.406895e-04 0.000000e+00 -1.406895e-04 2.153595e-04 0.000000e+00 0.000000e+00 0.000000e+00 0.000000e+00 -7.958535e-05 9.805940e-05 0.000000e+00 9.805940e-05 4.045696e-05 0.000000e+00 0.000000e+00 0.000000e+00 0.000000e+00 1.144036e-04 -3.259765e-05 0.000000e+00 -3.259765e-05 -2.792650e-04 0.000000e+00 0.000000e+00 0.000000e+00 0.000000e+00 2.503539e-04 -7.820727e-05 0.000000e+00 -7.820727e-05 2.776652e-05 0.000000e+00 0.000000e+00 0.000000e+00 0.000000e+00 4.750255e-07 5.535658e-06 0.000000e+00 5.535658e-06 -1.449135e-05 0.000000e+00 0.000000e+00 0.000000e+00 0.000000e+00 3.062220e-04 -9.149450e-05 0.000000e+00 -9.149450e-05 1.054491e-04 0.000000e+00 0.000000e+00 0.000000e+00 0.000000e+00 7.770737e-05 8.648608e-05 0.000000e+00 8.648608e-05 -1.827711e-05 0.000000e+00 0.000000e+00 0.000000e+00 0.000000e+00 1.765424e-04 -5.704955e-05 0.000000e+00 -5.704955e-05 -8.088947e-05 0.000000e+00 0.000000e+00 0.000000e+00 0.000000e+00 2.379353e-04 -7.561733e-05 0.000000e+00 -7.561733e-05 1.170108e-05 0.000000e+00 0.000000e+00 0.000000e+00 0.000000e+00 -4.607704e-05 1.142890e-04 0.000000e+00 1.142890e-04 2.774960e-05 0.000000e+00 0.000000e+00 0.000000e+00 0.000000e+00 1.210476e-04 -2.995556e-05 0.000000e+00 -2.995556e-05 -2.345015e-04 0.000000e+00 0.000000e+00 0.000000e+00 0.000000e+00 1.276639e-04 -2.102869e-05 0.000000e+00 -2.102869e-05 -3.855594e-04 0.000000e+00 0.000000e+00 0.000000e+00 0.000000e+00 1.337938e-04 -3.763804e-05 0.000000e+00 -3.763804e-05 -1.776931e-04 0.000000e+00 0.000000e+00 0.000000e+00 0.000000e+00 1.173392e-04 -3.439880e-05 0.000000e+00 -3.439880e-05 -2.638530e-04 0.000000e+00 0.000000e+00 0.000000e+00 0.000000e+00 -1.194170e-04 -3.145036e-06 0.000000e+00 -3.145036e-06 1.090957e-04 0.000000e+00 0.000000e+00 0.000000e+00 0.000000e+00 2.129345e-04 -6.035572e-05 0.000000e+00 -6.035572e-05 -3.273215e-05 0.000000e+00 0.000000e+00 0.000000e+00 0.000000e+00 3.344935e-04 -1.882380e-04 0.000000e+00 -1.882380e-04 4.073114e-04 0.000000e+00 0.000000e+00 0.000000e+00 0.000000e+00 1.277577e-04 2.179896e-04 0.000000e+00 2.179896e-04 1.799554e-04 0.000000e+00 0.000000e+00 0.000000e+00 0.000000e+00 1.510385e-04 -2.516124e-05 0.000000e+00 -2.516124e-05 -4.578609e-04 0.000000e+00 0.000000e+00 0.000000e+00 0.000000e+00 1.291429e-04 -3.542959e-05 0.000000e+00 -3.542959e-05 -1.902178e-04 0.000000e+00 0.000000e+00 0.000000e+00 0.000000e+00 1.323882e-04 -2.293071e-05 0.000000e+00 -2.293071e-05 -4.098900e-04 0.000000e+00 0.000000e+00 0.000000e+00 0.000000e+00 1.086061e-04 -7.205777e-05 0.000000e+00 -7.205777e-05 -3.191145e-04 0.000000e+00 0.000000e+00 0.000000e+00 0.000000e+00 1.377576e-04 -2.522446e-05 0.000000e+00 -2.522446e-05 -4.283512e-04 0.000000e+00 0.000000e+00 0.000000e+00 0.000000e+00 1.944124e-04 -6.055714e-05 0.000000e+00 -6.055714e-05 -5.571347e-05 0.000000e+00 0.000000e+00 0.000000e+00 0.000000e+00 1.533817e-04 -4.842005e-05 0.000000e+00 -4.842005e-05 -1.270292e-04 0.000000e+00 0.000000e+00 0.000000e+00 0.000000e+00 -6.838541e-05 1.040679e-04 0.000000e+00 1.040679e-04 2.578394e-05 0.000000e+00 0.000000e+00 0.000000e+00 0.000000e+00 1.228448e-04 -5.768334e-05 0.000000e+00 -5.768334e-05 -3.496512e-04 0.000000e+00 0.000000e+00 0.000000e+00 0.000000e+00 8.313717e-05 -1.228724e-04 0.000000e+00 -1.228724e-04 -1.980585e-04 0.000000e+00 0.000000e+00 0.000000e+00 0.000000e+00 1.055652e-04 -3.919945e-05 0.000000e+00 -3.919945e-05 -3.779312e-04 0.000000e+00 0.000000e+00 0.000000e+00 0.000000e+00 1.076727e-04 -5.278950e-05 0.000000e+00 -5.278950e-05 -3.369384e-04 0.000000e+00 0.000000e+00 0.000000e+00 0.000000e+00 1.169719e-04 -2.752714e-05 0.000000e+00 -2.752714e-05 -3.779996e-04 0.000000e+00 0.000000e+00 0.000000e+00 0.000000e+00 1.174878e-04 -3.814087e-05 0.000000e+00 -3.814087e-05 -3.541475e-04 0.000000e+00 0.000000e+00 0.000000e+00 0.000000e+00 1.268568e-04 -1.405407e-05 0.000000e+00 -1.405407e-05 -4.069294e-04 0.000000e+00 0.000000e+00 0.000000e+00 0.000000e+00 1.100565e-04 -5.714508e-05 0.000000e+00 -5.714508e-05 -3.104153e-04 0.000000e+00 0.000000e+00 0.000000e+00 0.000000e+00 1.234394e-04 -2.647649e-05 0.000000e+00 -2.647649e-05 -3.725939e-04 0.000000e+00 0.000000e+00 0.000000e+00 0.000000e+00 1.248358e-04 6.711657e-06 0.000000e+00 6.711657e-06 -4.447129e-04 0.000000e+00 0.000000e+00 0.000000e+00 0.000000e+00 1.569537e-04 -1.325771e-05 0.000000e+00 -1.325771e-05 -4.634759e-04 0.000000e+00 0.000000e+00 0.000000e+00 0.000000e+00 1.057341e-04 -7.735076e-05 0.000000e+00 -7.735076e-05 -2.882073e-04 0.000000e+00 0.000000e+00 0.000000e+00 0.000000e+00 1.414387e-04 -2.022546e-05 0.000000e+00 -2.022546e-05 -4.198222e-04 0.000000e+00 0.000000e+00 0.000000e+00 0.000000e+00 1.389941e-04 -3.850110e-05 0.000000e+00 -3.850110e-05 -1.665751e-04 0.000000e+00 0.000000e+00 0.000000e+00 0.000000e+00 1.707041e-04 -5.286500e-05 0.000000e+00 -5.286500e-05 -9.348286e-05 0.000000e+00 0.000000e+00 0.000000e+00 0.000000e+00 -6.078141e-05 8.884181e-05 0.000000e+00 8.884181e-05 8.190561e-05 0.000000e+00 0.000000e+00 0.000000e+00 0.000000e+00 1.291169e-04 -5.034222e-05 0.000000e+00 -5.034222e-05 -1.850075e-04 0.000000e+00 0.000000e+00 0.000000e+00 0.000000e+00 2.165064e-04 -6.767858e-05 0.000000e+00 -6.767858e-05 -1.887303e-05 0.000000e+00 0.000000e+00 0.000000e+00 0.000000e+00 2.928111e-04 -1.929717e-04 0.000000e+00 -1.929717e-04 5.095670e-04 0.000000e+00 0.000000e+00 0.000000e+00 0.000000e+00 9.543230e-05 7.506071e-05 0.000000e+00 7.506071e-05 -2.530459e-05 0.000000e+00 0.000000e+00 0.000000e+00 0.000000e+00 4.008449e-05 -1.676431e-04 0.000000e+00 -1.676431e-04 -9.330481e-05 0.000000e+00 0.000000e+00 0.000000e+00 0.000000e+00 1.225523e-04 1.086810e-04 0.000000e+00 1.086810e-04 -1.615215e-05 0.000000e+00 0.000000e+00 0.000000e+00 0.000000e+00 3.411481e-05 6.852567e-05 0.000000e+00 6.852567e-05 6.768062e-04 0.000000e+00 0.000000e+00 0.000000e+00 0.000000e+00 -4.544757e-05 1.086065e-04 0.000000e+00 1.086065e-04 4.584458e-05 0.000000e+00 0.000000e+00 0.000000e+00 0.000000e+00 8.906722e-06 -1.724286e-04 0.000000e+00 -1.724286e-04 -4.880748e-05 0.000000e+00 0.000000e+00 0.000000e+00 0.000000e+00 2.565707e-04 -1.784880e-04 0.000000e+00 -1.784880e-04 3.244652e-04 0.000000e+00 0.000000e+00 0.000000e+00 0.000000e+00 5.993749e-05 2.193617e-04 0.000000e+00 2.193617e-04 6.116638e-04 0.000000e+00 0.000000e+00 0.000000e+00 0.000000e+00 8.523187e-05 9.344797e-05 0.000000e+00 9.344797e-05 -2.273264e-05 0.000000e+00 0.000000e+00 0.000000e+00 0.000000e+00 1.175441e-04 -3.048291e-05 0.000000e+00 -3.048291e-05 -3.417931e-04 0.000000e+00 0.000000e+00 0.000000e+00 0.000000e+00 1.365991e-04 -3.422491e-05 0.000000e+00 -3.422491e-05 -3.941189e-04 0.000000e+00 0.000000e+00 0.000000e+00 0.000000e+00 1.423734e-04 1.723928e-04 0.000000e+00 1.723928e-04 6.599616e-05 0.000000e+00 0.000000e+00 0.000000e+00 0.000000e+00 4.594207e-05 1.908621e-04 0.000000e+00 1.908621e-04 4.146298e-04 0.000000e+00 0.000000e+00 0.000000e+00 0.000000e+00 1.162946e-04 -4.229457e-05 0.000000e+00 -4.229457e-05 -3.296629e-04 0.000000e+00 0.000000e+00 0.000000e+00 0.000000e+00 -2.675644e-05 -1.664330e-04 0.000000e+00 -1.664330e-04 -5.150783e-06 0.000000e+00 0.000000e+00 0.000000e+00 0.000000e+00 5.184535e-05 1.167343e-04 0.000000e+00 1.167343e-04 -2.222075e-06 0.000000e+00 0.000000e+00 0.000000e+00 0.000000e+00 1.118670e-04 -5.453740e-05 0.000000e+00 -5.453740e-05 -2.899122e-04 0.000000e+00 0.000000e+00 0.000000e+00 0.000000e+00 1.253759e-04 1.255421e-04 0.000000e+00 1.255421e-04 2.711252e-06 0.000000e+00 0.000000e+00 0.000000e+00 0.000000e+00 1.619284e-04 -6.602875e-05 0.000000e+00 -6.602875e-05 -9.924998e-05 0.000000e+00 0.000000e+00 0.000000e+00 0.000000e+00 5.173982e-05 1.925301e-04 0.000000e+00 1.925301e-04 3.067161e-04 0.000000e+00 0.000000e+00 0.000000e+00 0.000000e+00 1.350771e-04 -5.423977e-05 0.000000e+00 -5.423977e-05 -1.661977e-04 0.000000e+00 0.000000e+00 0.000000e+00 0.000000e+00 -8.554228e-05 4.489179e-05 0.000000e+00 4.489179e-05 1.210077e-04 0.000000e+00 0.000000e+00 0.000000e+00 0.000000e+00 2.654200e-04 -1.448076e-04 0.000000e+00 -1.448076e-04 1.721508e-04 0.000000e+00 0.000000e+00 0.000000e+00 0.000000e+00 2.898587e-05 1.525880e-04 0.000000e+00 1.525880e-04 5.406351e-04 0.000000e+00 0.000000e+00 0.000000e+00 0.000000e+00 2.437653e-04 -1.156425e-04 0.000000e+00 -1.156425e-04 6.841970e-05 0.000000e+00 0.000000e+00 0.000000e+00 0.000000e+00 2.157022e-04 -9.980315e-05 0.000000e+00 -9.980315e-05 1.337690e-05 0.000000e+00 0.000000e+00 0.000000e+00 0.000000e+00 8.532533e-05 -7.758704e-05 0.000000e+00 -7.758704e-05 6.430757e-04 0.000000e+00 0.000000e+00 0.000000e+00 0.000000e+00 1.453572e-04 -6.774666e-05 0.000000e+00 -6.774666e-05 -1.295138e-04 0.000000e+00 0.000000e+00 0.000000e+00 0.000000e+00 1.339031e-04 1.463748e-04 0.000000e+00 1.463748e-04 2.908434e-05 0.000000e+00 0.000000e+00 0.000000e+00 0.000000e+00 8.368148e-05 1.051784e-04 0.000000e+00 1.051784e-04 -1.678627e-05 0.000000e+00 0.000000e+00 0.000000e+00 0.000000e+00 1.539519e-04 -6.617929e-05 0.000000e+00 -6.617929e-05 -1.132319e-04 0.000000e+00 0.000000e+00 0.000000e+00 0.000000e+00 9.143812e-05 1.792902e-04 0.000000e+00 1.792902e-04 1.493782e-04 0.000000e+00 0.000000e+00 0.000000e+00 0.000000e+00 1.041561e-04 8.478939e-05 0.000000e+00 8.478939e-05 -2.873856e-05 0.000000e+00 0.000000e+00 0.000000e+00 0.000000e+00 2.718672e-04 -1.837841e-04 0.000000e+00 -1.837841e-04 3.805534e-04 0.000000e+00 0.000000e+00 0.000000e+00 0.000000e+00 1.142359e-04 9.345232e-05 0.000000e+00 9.345232e-05 -2.672644e-05 0.000000e+00 0.000000e+00 0.000000e+00 0.000000e+00 1.142926e-04 -3.557210e-05 0.000000e+00 -3.557210e-05 -3.142827e-04 0.000000e+00 0.000000e+00 0.000000e+00 0.000000e+00 2.602542e-04 -1.705208e-04 0.000000e+00 -1.705208e-04 2.625807e-04 0.000000e+00 0.000000e+00 0.000000e+00 0.000000e+00 1.921052e-04 -8.161141e-05 0.000000e+00 -8.161141e-05 -4.330036e-05 0.000000e+00 0.000000e+00 0.000000e+00 0.000000e+00 2.417778e-04 -1.026160e-04 0.000000e+00 -1.026160e-04 4.505342e-05 0.000000e+00 0.000000e+00 0.000000e+00 0.000000e+00 1.381111e-04 -6.415392e-05 0.000000e+00 -6.415392e-05 -1.456503e-04 0.000000e+00 0.000000e+00 0.000000e+00 0.000000e+00 1.137918e-04 -4.577982e-05 0.000000e+00 -4.577982e-05 -2.483969e-04 0.000000e+00 0.000000e+00 0.000000e+00 0.000000e+00 1.715354e-04 -8.021162e-05 0.000000e+00 -8.021162e-05 -7.021623e-05 0.000000e+00 0.000000e+00 0.000000e+00 0.000000e+00 1.704289e-04 -1.066955e-05 0.000000e+00 -1.066955e-05 -5.036681e-04 0.000000e+00 0.000000e+00 0.000000e+00 0.000000e+00 1.065388e-04 -7.621804e-05 0.000000e+00 -7.621804e-05 -2.661616e-04 0.000000e+00 0.000000e+00 0.000000e+00 0.000000e+00 1.232731e-04 -5.947121e-05 0.000000e+00 -5.947121e-05 -1.967752e-04 0.000000e+00 0.000000e+00 0.000000e+00 0.000000e+00 1.188948e-04 -4.077425e-05 0.000000e+00 -4.077425e-05 -2.332393e-04 0.000000e+00 0.000000e+00 0.000000e+00 0.000000e+00 -1.014516e-04 -2.218789e-05 0.000000e+00 -2.218789e-05 1.426260e-04 0.000000e+00 0.000000e+00 0.000000e+00 0.000000e+00 1.810800e-04 -8.284539e-05 0.000000e+00 -8.284539e-05 -5.489514e-05 0.000000e+00 0.000000e+00 0.000000e+00 0.000000e+00 1.753104e-05 1.206934e-04 0.000000e+00 1.206934e-04 1.186903e-05 0.000000e+00 0.000000e+00 0.000000e+00 0.000000e+00 2.806629e-04 -1.559401e-04 0.000000e+00 -1.559401e-04 2.073729e-04 0.000000e+00 0.000000e+00 0.000000e+00 0.000000e+00 1.157347e-04 -4.111279e-05 0.000000e+00 -4.111279e-05 -2.916879e-04 0.000000e+00 0.000000e+00 0.000000e+00 0.000000e+00 1.986308e-04 -8.573170e-05 0.000000e+00 -8.573170e-05 -2.632505e-05 0.000000e+00 0.000000e+00 0.000000e+00 0.000000e+00 -9.612849e-05 -9.000943e-05 0.000000e+00 -9.000943e-05 1.341968e-04 0.000000e+00 0.000000e+00 0.000000e+00 0.000000e+00 9.867938e-05 -1.004015e-04 0.000000e+00 -1.004015e-04 -2.349966e-04 0.000000e+00 0.000000e+00 0.000000e+00 0.000000e+00 1.652743e-04 -7.422114e-05 0.000000e+00 -7.422114e-05 -8.559917e-05 0.000000e+00 0.000000e+00 0.000000e+00 0.000000e+00 -8.755402e-05 -4.689857e-05 0.000000e+00 -4.689857e-05 1.795413e-04 0.000000e+00 0.000000e+00 0.000000e+00 0.000000e+00 1.214010e-04 -5.030776e-05 0.000000e+00 -5.030776e-05 -2.148619e-04 0.000000e+00 0.000000e+00 0.000000e+00 0.000000e+00 -5.963707e-05 -1.595742e-04 0.000000e+00 -1.595742e-04 5.467784e-05 0.000000e+00 0.000000e+00 0.000000e+00 0.000000e+00 2.068944e-04 -9.520549e-05 0.000000e+00 -9.520549e-05 -5.800139e-06 0.000000e+00 0.000000e+00 0.000000e+00 0.000000e+00 2.742665e-04 -1.259781e-04 0.000000e+00 -1.259781e-04 1.250400e-04 0.000000e+00 0.000000e+00 0.000000e+00 0.000000e+00 6.790851e-05 -1.514173e-04 0.000000e+00 -1.514173e-04 -1.368673e-04 0.000000e+00 0.000000e+00 0.000000e+00 0.000000e+00 1.252411e-04 -6.810630e-05 0.000000e+00 -6.810630e-05 -1.756514e-04 0.000000e+00 0.000000e+00 0.000000e+00 0.000000e+00 1.464687e-05 -1.832345e-04 0.000000e+00 -1.832345e-04 -2.593362e-05 0.000000e+00 0.000000e+00 0.000000e+00 0.000000e+00 1.123262e-04 -4.989760e-05 0.000000e+00 -4.989760e-05 -2.666488e-04 0.000000e+00 0.000000e+00 0.000000e+00 0.000000e+00 8.020706e-05 1.280766e-04 0.000000e+00 1.280766e-04 1.976707e-05 0.000000e+00 0.000000e+00 0.000000e+00 0.000000e+00 7.665968e-05 1.566318e-04 0.000000e+00 1.566318e-04 1.028056e-04 0.000000e+00 0.000000e+00 0.000000e+00 0.000000e+00 2.277699e-04 -1.017614e-04 0.000000e+00 -1.017614e-04 3.073121e-05 0.000000e+00 0.000000e+00 0.000000e+00 0.000000e+00 -7.465492e-05 -1.393991e-04 0.000000e+00 -1.393991e-04 1.072452e-04 0.000000e+00 0.000000e+00 0.000000e+00 0.000000e+00 7.574811e-05 1.414389e-04 0.000000e+00 1.414389e-04 5.620995e-05 0.000000e+00 0.000000e+00 0.000000e+00 0.000000e+00 1.090150e-04 -7.111948e-05 0.000000e+00 -7.111948e-05 -2.495885e-04 0.000000e+00 0.000000e+00 0.000000e+00 0.000000e+00 -1.791966e-05 1.187802e-04 0.000000e+00 1.187802e-04 2.314543e-05 0.000000e+00 0.000000e+00 0.000000e+00 0.000000e+00 1.921728e-04 -1.222460e-04 0.000000e+00 -1.222460e-04 1.628180e-05 0.000000e+00 0.000000e+00 0.000000e+00 0.000000e+00 1.010900e-04 -9.596835e-05 0.000000e+00 -9.596835e-05 -2.176310e-04 0.000000e+00 0.000000e+00 0.000000e+00 0.000000e+00 8.972601e-05 -1.275959e-04 0.000000e+00 -1.275959e-04 -1.737661e-04 0.000000e+00 0.000000e+00 0.000000e+00 0.000000e+00 2.536411e-05 1.226653e-04 0.000000e+00 1.226653e-04 2.185679e-05 0.000000e+00 0.000000e+00 0.000000e+00 0.000000e+00 2.465886e-04 -1.286647e-04 0.000000e+00 -1.286647e-04 1.025194e-04 0.000000e+00 0.000000e+00 0.000000e+00 0.000000e+00 -3.575813e-05 9.535211e-05 0.000000e+00 9.535211e-05 1.148850e-04 0.000000e+00 0.000000e+00 0.000000e+00 0.000000e+00 -1.091391e-05 1.158853e-04 0.000000e+00 1.158853e-04 5.750143e-05 0.000000e+00 0.000000e+00 0.000000e+00 0.000000e+00 -3.257382e-06 1.212535e-04 0.000000e+00 1.212535e-04 2.871460e-05 0.000000e+00 0.000000e+00 0.000000e+00 0.000000e+00 2.310258e-04 -1.561634e-04 0.000000e+00 -1.561634e-04 1.576057e-04 0.000000e+00 0.000000e+00 0.000000e+00 0.000000e+00 -7.383003e-05 3.312535e-05 0.000000e+00 3.312535e-05 1.661505e-04 0.000000e+00 0.000000e+00 0.000000e+00 0.000000e+00 -7.444966e-05 -1.139903e-04 0.000000e+00 -1.139903e-04 1.587733e-04 0.000000e+00 0.000000e+00 0.000000e+00 0.000000e+00 2.037906e-04 -1.260763e-04 0.000000e+00 -1.260763e-04 3.742359e-05 0.000000e+00 0.000000e+00 0.000000e+00 0.000000e+00 1.173563e-04 -6.692225e-05 0.000000e+00 -6.692225e-05 -2.133153e-04 0.000000e+00 0.000000e+00 0.000000e+00 0.000000e+00 1.927276e-05 1.445819e-04 0.000000e+00 1.445819e-04 2.546597e-04 0.000000e+00 0.000000e+00 0.000000e+00 0.000000e+00 2.538297e-05 2.249345e-06 0.000000e+00 2.249345e-06 5.682094e-04 0.000000e+00 0.000000e+00 0.000000e+00 0.000000e+00 2.128273e-04 -1.440817e-04 0.000000e+00 -1.440817e-04 9.295352e-05 0.000000e+00 0.000000e+00 0.000000e+00 0.000000e+00 1.678509e-04 -1.535929e-04 0.000000e+00 -1.535929e-04 5.640854e-04 0.000000e+00 0.000000e+00 0.000000e+00 0.000000e+00 1.565702e-04 -9.737050e-05 0.000000e+00 -9.737050e-05 -7.515616e-05 0.000000e+00 0.000000e+00 0.000000e+00 0.000000e+00 2.108887e-04 -1.795634e-04 0.000000e+00 -1.795634e-04 4.735421e-04 0.000000e+00 0.000000e+00 0.000000e+00 0.000000e+00 6.733043e-05 1.207569e-04 0.000000e+00 1.207569e-04 4.395269e-06 0.000000e+00 0.000000e+00 0.000000e+00 0.000000e+00 7.614995e-05 -1.541519e-04 0.000000e+00 -1.541519e-04 -1.169213e-04 0.000000e+00 0.000000e+00 0.000000e+00 0.000000e+00 1.516359e-06 7.261606e-05 0.000000e+00 7.261606e-05 4.817820e-04 0.000000e+00 0.000000e+00 0.000000e+00 0.000000e+00 -2.045060e-05 -1.785988e-04 0.000000e+00 -1.785988e-04 1.537407e-05 0.000000e+00 0.000000e+00 0.000000e+00 0.000000e+00 4.938704e-05 -1.751757e-04 0.000000e+00 -1.751757e-04 -6.549194e-05 0.000000e+00 0.000000e+00 0.000000e+00 0.000000e+00 1.819421e-04 -1.795659e-04 0.000000e+00 -1.795659e-04 3.221245e-04 0.000000e+00 0.000000e+00 0.000000e+00 0.000000e+00 1.747487e-04 -1.086213e-04 0.000000e+00 -1.086213e-04 -3.240088e-05 0.000000e+00 0.000000e+00 0.000000e+00 0.000000e+00 9.659012e-05 1.113849e-04 0.000000e+00 1.113849e-04 -1.198511e-05 0.000000e+00 0.000000e+00 0.000000e+00 0.000000e+00 1.323641e-04 -9.006728e-05 0.000000e+00 -9.006728e-05 -1.359465e-04 0.000000e+00 0.000000e+00 0.000000e+00 0.000000e+00 1.865314e-04 -1.145114e-04 0.000000e+00 -1.145114e-04 -9.372939e-06 0.000000e+00 0.000000e+00 0.000000e+00 0.000000e+00 2.110009e-04 -1.715800e-04 0.000000e+00 -1.715800e-04 2.281346e-04 0.000000e+00 0.000000e+00 0.000000e+00 0.000000e+00 1.637001e-04 -1.057212e-04 0.000000e+00 -1.057212e-04 -5.371524e-05 0.000000e+00 0.000000e+00 0.000000e+00 0.000000e+00 1.159053e-04 -5.241635e-05 0.000000e+00 -5.241635e-05 -2.302218e-04 0.000000e+00 0.000000e+00 0.000000e+00 0.000000e+00 -4.466527e-05 -1.707001e-04 0.000000e+00 -1.707001e-04 7.115830e-05 0.000000e+00 0.000000e+00 0.000000e+00 0.000000e+00 1.174174e-04 -7.781213e-05 0.000000e+00 -7.781213e-05 -1.893898e-04 0.000000e+00 0.000000e+00 0.000000e+00 0.000000e+00 1.113736e-04 -6.263496e-05 0.000000e+00 -6.263496e-05 -2.370577e-04 0.000000e+00 0.000000e+00 0.000000e+00 0.000000e+00 1.414158e-04 -8.951702e-05 0.000000e+00 -8.951702e-05 -1.125441e-04 0.000000e+00 0.000000e+00 0.000000e+00 0.000000e+00 -4.450094e-06 1.056693e-04 0.000000e+00 1.056693e-04 3.732758e-04 0.000000e+00 0.000000e+00 0.000000e+00 0.000000e+00 1.728898e-04 -1.704289e-04 0.000000e+00 -1.704289e-04 4.051125e-04 0.000000e+00 0.000000e+00 0.000000e+00 0.000000e+00 1.534537e-04 -8.523023e-05 0.000000e+00 -8.523023e-05 -9.646340e-05 0.000000e+00 0.000000e+00 0.000000e+00 0.000000e+00 -4.201721e-05 -1.631783e-04 0.000000e+00 -1.631783e-04 1.109808e-04 0.000000e+00 0.000000e+00 0.000000e+00 0.000000e+00 1.034728e-04 -1.110892e-04 0.000000e+00 -1.110892e-04 -1.749489e-04 0.000000e+00 0.000000e+00 0.000000e+00 0.000000e+00 1.445522e-04 -1.213675e-04 0.000000e+00 -1.213675e-04 -5.948874e-05 0.000000e+00 0.000000e+00 0.000000e+00 0.000000e+00 2.414273e-05 -1.899533e-04 0.000000e+00 -1.899533e-04 2.267917e-06 0.000000e+00 0.000000e+00 0.000000e+00 0.000000e+00 9.327920e-05 -1.352412e-04 0.000000e+00 -1.352412e-04 -1.297311e-04 0.000000e+00 0.000000e+00 0.000000e+00 0.000000e+00 2.046070e-04 -1.550637e-04 0.000000e+00 -1.550637e-04 1.335206e-04 0.000000e+00 0.000000e+00 0.000000e+00 0.000000e+00 1.334637e-04 -7.145575e-05 0.000000e+00 -7.145575e-05 -1.579305e-04 0.000000e+00 0.000000e+00 0.000000e+00 0.000000e+00 -1.267838e-05 -1.840836e-04 0.000000e+00 -1.840836e-04 4.120519e-05 0.000000e+00 0.000000e+00 0.000000e+00 0.000000e+00 2.210557e-04 -1.257553e-04 0.000000e+00 -1.257553e-04 5.673801e-05 0.000000e+00 0.000000e+00 0.000000e+00 0.000000e+00 1.610373e-05 1.343886e-04 0.000000e+00 1.343886e-04 1.817079e-04 0.000000e+00 0.000000e+00 0.000000e+00 0.000000e+00 1.084259e-04 -8.422932e-05 0.000000e+00 -8.422932e-05 -2.094051e-04 0.000000e+00 0.000000e+00 0.000000e+00 0.000000e+00 2.514388e-05 -5.904770e-05 0.000000e+00 -5.904770e-05 4.793621e-04 0.000000e+00 0.000000e+00 0.000000e+00 0.000000e+00 1.653069e-04 -1.731765e-04 0.000000e+00 -1.731765e-04 1.931171e-04 0.000000e+00 0.000000e+00 0.000000e+00 0.000000e+00 1.715444e-04 -1.663873e-04 0.000000e+00 -1.663873e-04 1.238880e-04 0.000000e+00 0.000000e+00 0.000000e+00 0.000000e+00 -7.011977e-05 -7.638623e-05 0.000000e+00 -7.638623e-05 2.151180e-04 0.000000e+00 0.000000e+00 0.000000e+00 0.000000e+00 2.462241e-05 1.285808e-04 0.000000e+00 1.285808e-04 7.035600e-05 0.000000e+00 0.000000e+00 0.000000e+00 0.000000e+00 9.186701e-05 -1.179070e-04 0.000000e+00 -1.179070e-04 5.106229e-04 0.000000e+00 0.000000e+00 0.000000e+00 0.000000e+00 1.374393e-04 -1.741766e-04 0.000000e+00 -1.741766e-04 2.823478e-04 0.000000e+00 0.000000e+00 0.000000e+00 0.000000e+00 7.876027e-05 -1.628478e-04 0.000000e+00 -1.628478e-04 -7.739299e-05 0.000000e+00 0.000000e+00 0.000000e+00 0.000000e+00 1.259401e-04 -1.152089e-04 0.000000e+00 -1.152089e-04 -1.077396e-04 0.000000e+00 0.000000e+00 0.000000e+00 0.000000e+00 1.717378e-04 -1.467903e-04 0.000000e+00 -1.467903e-04 4.533174e-05 0.000000e+00 0.000000e+00 0.000000e+00 0.000000e+00 -1.503066e-05 8.957360e-08 0.000000e+00 8.957360e-08 4.329309e-04 0.000000e+00 0.000000e+00 0.000000e+00 0.000000e+00 1.019954e-04 -1.722220e-04 0.000000e+00 -1.722220e-04 2.455193e-04 0.000000e+00 0.000000e+00 0.000000e+00 0.000000e+00 1.496328e-04 -1.307293e-04 0.000000e+00 -1.307293e-04 -3.118426e-05 0.000000e+00 0.000000e+00 0.000000e+00 0.000000e+00 1.408396e-04 -1.078627e-04 0.000000e+00 -1.078627e-04 -8.806868e-05 0.000000e+00 0.000000e+00 0.000000e+00 0.000000e+00 -4.487553e-05 -1.383722e-04 0.000000e+00 -1.383722e-04 1.723294e-04 0.000000e+00 0.000000e+00 0.000000e+00 0.000000e+00 4.072947e-05 1.286227e-04 0.000000e+00 1.286227e-04 3.152898e-05 0.000000e+00 0.000000e+00 0.000000e+00 0.000000e+00 1.879479e-04 -1.497345e-04 0.000000e+00 -1.497345e-04 7.347218e-05 0.000000e+00 0.000000e+00 0.000000e+00 0.000000e+00 1.126824e-04 -1.132880e-04 0.000000e+00 -1.132880e-04 -1.364390e-04 0.000000e+00 0.000000e+00 0.000000e+00 0.000000e+00 -3.666055e-05 8.319447e-05 0.000000e+00 8.319447e-05 1.794774e-04 0.000000e+00 0.000000e+00 0.000000e+00 0.000000e+00 1.663801e-05 1.287292e-04 0.000000e+00 1.287292e-04 1.186063e-04 0.000000e+00 0.000000e+00 0.000000e+00 0.000000e+00 1.716592e-04 -1.403591e-04 0.000000e+00 -1.403591e-04 1.609870e-05 0.000000e+00 0.000000e+00 0.000000e+00 0.000000e+00 -6.905936e-05 6.728620e-06 0.000000e+00 6.728620e-06 2.194058e-04 0.000000e+00 0.000000e+00 0.000000e+00 0.000000e+00 1.035586e-04 -1.415673e-04 0.000000e+00 -1.415673e-04 -9.019156e-05 0.000000e+00 0.000000e+00 0.000000e+00 0.000000e+00 1.876625e-05 -9.634837e-05 0.000000e+00 -9.634837e-05 4.025209e-04 0.000000e+00 0.000000e+00 0.000000e+00 0.000000e+00 1.237764e-04 -1.771981e-04 0.000000e+00 -1.771981e-04 1.648492e-04 0.000000e+00 0.000000e+00 0.000000e+00 0.000000e+00 1.583006e-04 -1.358839e-04 0.000000e+00 -1.358839e-04 -5.818379e-06 0.000000e+00 0.000000e+00 0.000000e+00 0.000000e+00 1.283837e-04 -1.464310e-04 0.000000e+00 -1.464310e-04 -3.625715e-05 0.000000e+00 0.000000e+00 0.000000e+00 0.000000e+00 -1.294587e-05 -1.749428e-04 0.000000e+00 -1.749428e-04 1.209451e-04 0.000000e+00 0.000000e+00 0.000000e+00 0.000000e+00 1.424144e-04 -1.676592e-04 0.000000e+00 -1.676592e-04 9.164581e-05 0.000000e+00 0.000000e+00 0.000000e+00 0.000000e+00 1.219776e-04 -8.994417e-05 0.000000e+00 -8.994417e-05 -1.591585e-04 0.000000e+00 0.000000e+00 0.000000e+00 0.000000e+00 -1.213820e-06 -1.871910e-04 0.000000e+00 -1.871910e-04 7.041456e-05 0.000000e+00 0.000000e+00 0.000000e+00 0.000000e+00 1.259341e-04 -1.307984e-04 0.000000e+00 -1.307984e-04 -7.487141e-05 0.000000e+00 0.000000e+00 0.000000e+00 0.000000e+00 9.017534e-05 -1.447820e-04 0.000000e+00 -1.447820e-04 3.992217e-04 0.000000e+00 0.000000e+00 0.000000e+00 0.000000e+00 6.260255e-05 -1.515200e-04 0.000000e+00 -1.515200e-04 3.321443e-04 0.000000e+00 0.000000e+00 0.000000e+00 0.000000e+00 -3.628085e-05 -1.168113e-04 0.000000e+00 -1.168113e-04 2.282593e-04 0.000000e+00 0.000000e+00 0.000000e+00 0.000000e+00 -3.316467e-05 2.077238e-05 0.000000e+00 2.077238e-05 3.677274e-04 0.000000e+00 0.000000e+00 0.000000e+00 0.000000e+00 5.685740e-05 -1.827723e-04 0.000000e+00 -1.827723e-04 -2.159890e-05 0.000000e+00 0.000000e+00 0.000000e+00 0.000000e+00 8.657291e-05 -1.687762e-04 0.000000e+00 -1.687762e-04 -3.766273e-05 0.000000e+00 0.000000e+00 0.000000e+00 0.000000e+00 -3.697901e-05 7.048276e-05 0.000000e+00 7.048276e-05 2.438706e-04 0.000000e+00 0.000000e+00 0.000000e+00 0.000000e+00 1.143562e-04 -9.611171e-05 0.000000e+00 -9.611171e-05 -1.750522e-04 0.000000e+00 0.000000e+00 0.000000e+00 0.000000e+00 -5.698189e-05 -2.992312e-05 0.000000e+00 -2.992312e-05 2.700006e-04 0.000000e+00 0.000000e+00 0.000000e+00 0.000000e+00 1.296881e-04 -1.568013e-04 0.000000e+00 -1.568013e-04 -1.993091e-07 0.000000e+00 0.000000e+00 0.000000e+00 0.000000e+00 4.763605e-06 -1.694028e-04 0.000000e+00 -1.694028e-04 1.563265e-04 0.000000e+00 0.000000e+00 0.000000e+00 0.000000e+00 1.387076e-04 -1.622243e-04 0.000000e+00 -1.622243e-04 3.806699e-05 0.000000e+00 0.000000e+00 0.000000e+00 0.000000e+00 3.378322e-05 -1.906280e-04 0.000000e+00 -1.906280e-04 3.190145e-05 0.000000e+00 0.000000e+00 0.000000e+00 0.000000e+00 -2.591957e-05 -5.838483e-05 0.000000e+00 -5.838483e-05 3.688666e-04 0.000000e+00 0.000000e+00 0.000000e+00 0.000000e+00 6.534818e-05 -1.848028e-04 0.000000e+00 -1.848028e-04 2.630062e-05 0.000000e+00 0.000000e+00 0.000000e+00 0.000000e+00 1.054006e-04 -1.800579e-04 0.000000e+00 -1.800579e-04 1.256023e-04 0.000000e+00 0.000000e+00 0.000000e+00 0.000000e+00 -2.489001e-05 -1.020763e-04 0.000000e+00 -1.020763e-04 2.917889e-04 0.000000e+00 0.000000e+00 0.000000e+00 0.000000e+00 7.398687e-05 -1.714224e-04 0.000000e+00 -1.714224e-04 2.114375e-04 0.000000e+00 0.000000e+00 0.000000e+00 0.000000e+00 9.789461e-05 -1.763282e-04 0.000000e+00 -1.763282e-04 3.733434e-05 0.000000e+00 0.000000e+00 0.000000e+00 0.000000e+00 1.091911e-04 -1.527924e-04 0.000000e+00 -1.527924e-04 -5.001955e-05 0.000000e+00 0.000000e+00 0.000000e+00 0.000000e+00 1.002736e-04 -1.781860e-04 0.000000e+00 -1.781860e-04 8.318250e-05 0.000000e+00 0.000000e+00 0.000000e+00 0.000000e+00 6.183193e-06 -1.172195e-04 0.000000e+00 -1.172195e-04 3.376938e-04 0.000000e+00 0.000000e+00 0.000000e+00 0.000000e+00 -3.414498e-05 6.278315e-05 0.000000e+00 6.278315e-05 3.151767e-04 0.000000e+00 0.000000e+00 0.000000e+00 0.000000e+00 3.162223e-05 -1.491145e-04 0.000000e+00 -1.491145e-04 2.814156e-04 0.000000e+00 0.000000e+00 0.000000e+00 0.000000e+00 1.024104e-04 -1.686850e-04 0.000000e+00 -1.686850e-04 -8.479301e-06 0.000000e+00 0.000000e+00 0.000000e+00 0.000000e+00 -4.587013e-05 -2.569163e-05 0.000000e+00 -2.569163e-05 3.250385e-04 0.000000e+00 0.000000e+00 0.000000e+00 0.000000e+00 2.601298e-05 -1.878255e-04 0.000000e+00 -1.878255e-04 8.115383e-05 0.000000e+00 0.000000e+00 0.000000e+00 0.000000e+00 7.160264e-05 -1.797903e-04 0.000000e+00 -1.797903e-04 1.759467e-04 0.000000e+00 0.000000e+00 0.000000e+00 0.000000e+00 1.678972e-05 -1.560421e-04 0.000000e+00 -1.560421e-04 2.130632e-04 0.000000e+00 0.000000e+00 0.000000e+00 0.000000e+00 5.534617e-05 -1.852974e-04 0.000000e+00 -1.852974e-04 9.038192e-05 0.000000e+00 0.000000e+00 0.000000e+00 0.000000e+00 5.760261e-05 -1.809976e-04 0.000000e+00 -1.809976e-04 1.365207e-04 0.000000e+00 0.000000e+00 0.000000e+00 0.000000e+00 </DataArray>
</PointData>
<CellData Scalars="" Vectors="" Tensors="" >
</CellData>
</Piece>
</UnstructuredGrid>
</VTKFile>