<VTKFile type="UnstructuredGrid" version="0.1" byte_order="LittleEndian">
<UnstructuredGrid>
<Piece NumberOfPoints="1187" NumberOfCells="1187">
<Points>
 <DataArray type="Float64" NumberOfComponents="3" format="ascii"> -2.332000e-02 1.736043e-04 0.000000e+00 -2.232320e-02 1.539420e-04 0.000000e+00 -2.136317e-02 1.603477e-04 0.000000e+00 -2.040513e-02 1.642530e-04 0.000000e+00 -1.944433e-02 1.655560e-04 0.000000e+00 -1.848023e-02 1.652967e-04 0.000000e+00 -1.751903e-02 1.563843e-04 0.000000e+00 -1.656200e-02 1.559450e-04 0.000000e+00 -1.560550e-02 1.591977e-04 0.000000e+00 -1.464463e-02 1.630360e-04 0.000000e+00 -1.368757e-02 1.657183e-04 0.000000e+00 -1.272113e-02 1.614177e-04 0.000000e+00 -1.176670e-02 1.655930e-04 0.000000e+00 -1.080180e-02 1.615147e-04 0.000000e+00 -9.848193e-03 1.588433e-04 0.000000e+00 -8.875250e-03 1.613557e-04 0.000000e+00 -7.915243e-03 1.670577e-04 0.000000e+00 -6.956947e-03 1.640973e-04 0.000000e+00 -6.006427e-03 1.415340e-04 0.000000e+00 -5.035117e-03 1.576240e-04 0.000000e+00 -4.075140e-03 1.611887e-04 0.000000e+00 -3.122987e-03 1.483890e-04 0.000000e+00 -2.163810e-03 1.587610e-04 0.000000e+00 -1.195820e-03 1.744137e-04 0.000000e+00 -1.989733e-04 2.049480e-04 0.000000e+00 5.899183e-03 6.880700e-04 0.000000e+00 9.634380e-03 8.314163e-04 0.000000e+00 1.288147e-02 8.811043e-04 0.000000e+00 1.556457e-02 8.507557e-04 0.000000e+00 1.625697e-02 1.110600e-03 0.000000e+00 1.714523e-02 1.943163e-03 0.000000e+00 1.858460e-02 2.346393e-03 0.000000e+00 2.161180e-02 2.502910e-03 0.000000e+00 2.617350e-02 2.524113e-03 0.000000e+00 3.137873e-02 2.639627e-03 0.000000e+00 3.752137e-02 3.008683e-03 0.000000e+00 3.776597e-02 6.166347e-03 0.000000e+00 3.784643e-02 1.101230e-02 0.000000e+00 3.786090e-02 1.518913e-02 0.000000e+00 3.783230e-02 1.955867e-02 0.000000e+00 3.754713e-02 2.470217e-02 0.000000e+00 3.723927e-02 2.790707e-02 0.000000e+00 3.628640e-02 2.608390e-02 0.000000e+00 3.611833e-02 2.912723e-02 0.000000e+00 3.408643e-02 2.912723e-02 0.000000e+00 3.087660e-02 2.921273e-02 0.000000e+00 2.501827e-02 2.926087e-02 0.000000e+00 1.904280e-02 2.911593e-02 0.000000e+00 1.198477e-02 2.896897e-02 0.000000e+00 3.632203e-03 2.877927e-02 0.000000e+00 -6.986700e-03 2.871053e-02 0.000000e+00 -1.324537e-02 2.870067e-02 0.000000e+00 -1.980157e-02 2.827160e-02 0.000000e+00 -1.603787e-02 2.697227e-02 0.000000e+00 -2.214197e-02 2.605700e-02 0.000000e+00 -2.292793e-02 2.020170e-02 0.000000e+00 3.262367e-02 1.308173e-02 0.000000e+00 3.230910e-02 1.158190e-02 0.000000e+00 3.163363e-02 1.021931e-02 0.000000e+00 3.067930e-02 9.118857e-03 0.000000e+00 2.954320e-02 8.202103e-03 0.000000e+00 2.821697e-02 7.534673e-03 0.000000e+00 2.677307e-02 7.219233e-03 0.000000e+00 2.535023e-02 7.229130e-03 0.000000e+00 2.386283e-02 7.541663e-03 0.000000e+00 2.245127e-02 8.173457e-03 0.000000e+00 2.127943e-02 9.111423e-03 0.000000e+00 2.036480e-02 1.024937e-02 0.000000e+00 1.971930e-02 1.160353e-02 0.000000e+00 1.938457e-02 1.303760e-02 0.000000e+00 1.937697e-02 1.447027e-02 0.000000e+00 1.966720e-02 1.588373e-02 0.000000e+00 2.030720e-02 1.725297e-02 0.000000e+00 2.126137e-02 1.847507e-02 0.000000e+00 2.246777e-02 1.943387e-02 0.000000e+00 2.380200e-02 2.006090e-02 0.000000e+00 2.519913e-02 2.038260e-02 0.000000e+00 2.659083e-02 2.039017e-02 0.000000e+00 2.803923e-02 2.009040e-02 0.000000e+00 2.941547e-02 1.950650e-02 0.000000e+00 3.063903e-02 1.857997e-02 0.000000e+00 3.163043e-02 1.731373e-02 0.000000e+00 3.228907e-02 1.595550e-02 0.000000e+00 3.260633e-02 1.455787e-02 0.000000e+00 3.678733e-02 4.307610e-03 0.000000e+00 -2.364000e-02 1.736043e-04 0.000000e+00 -2.281467e-02 1.631223e-04 0.000000e+00 -2.309467e-02 3.367267e-04 0.000000e+00 -2.257787e-02 3.170643e-04 0.000000e+00 -2.184373e-02 1.550423e-04 0.000000e+00 -2.160690e-02 3.153900e-04 0.000000e+00 -2.087983e-02 1.651600e-04 0.000000e+00 -1.992243e-02 1.635233e-04 0.000000e+00 -1.896147e-02 1.715653e-04 0.000000e+00 -1.920580e-02 3.371213e-04 0.000000e+00 -1.872170e-02 3.368620e-04 0.000000e+00 -1.799830e-02 1.583367e-04 0.000000e+00 -1.704340e-02 1.550750e-04 0.000000e+00 -1.607933e-02 1.567140e-04 0.000000e+00 -1.512317e-02 1.617350e-04 0.000000e+00 -1.536867e-02 3.209327e-04 0.000000e+00 -1.488780e-02 3.247710e-04 0.000000e+00 -1.417147e-02 1.657430e-04 0.000000e+00 -1.320137e-02 1.615120e-04 0.000000e+00 -1.224380e-02 1.628883e-04 0.000000e+00 -1.248493e-02 3.243060e-04 0.000000e+00 -1.201050e-02 3.284813e-04 0.000000e+00 -1.128930e-02 1.641377e-04 0.000000e+00 -1.032373e-02 1.591453e-04 0.000000e+00 -9.361707e-03 1.591803e-04 0.000000e+00 -9.609900e-03 3.180237e-04 0.000000e+00 -9.116957e-03 3.205360e-04 0.000000e+00 -8.396620e-03 1.641813e-04 0.000000e+00 -8.151863e-03 3.312390e-04 0.000000e+00 -7.440907e-03 1.688460e-04 0.000000e+00 -6.475497e-03 1.541883e-04 0.000000e+00 -5.522450e-03 1.401560e-04 0.000000e+00 -5.768877e-03 2.816900e-04 0.000000e+00 -5.277567e-03 2.977800e-04 0.000000e+00 -4.557890e-03 1.618643e-04 0.000000e+00 -3.599783e-03 1.586310e-04 0.000000e+00 -2.639110e-03 1.465977e-04 0.000000e+00 -1.678670e-03 1.661163e-04 0.000000e+00 -1.922480e-03 3.248773e-04 0.000000e+00 -1.434490e-03 3.405300e-04 0.000000e+00 -7.058257e-04 1.853213e-04 0.000000e+00 4.950083e-03 1.130889e-03 0.000000e+00 3.849230e-03 5.918352e-04 0.000000e+00 7.838260e-03 7.557517e-04 0.000000e+00 1.133543e-02 8.656797e-04 0.000000e+00 1.427630e-02 8.817397e-04 0.000000e+00 1.640513e-02 1.806197e-03 0.000000e+00 1.733643e-02 2.723213e-03 0.000000e+00 1.805710e-02 2.874010e-03 0.000000e+00 1.993840e-02 2.425463e-03 0.000000e+00 2.375830e-02 2.577830e-03 0.000000e+00 2.505957e-02 3.101943e-03 0.000000e+00 3.005377e-02 3.205280e-03 0.000000e+00 2.871977e-02 2.565653e-03 0.000000e+00 3.409720e-02 2.803037e-03 0.000000e+00 3.707943e-02 7.335193e-03 0.000000e+00 3.781347e-02 8.701033e-03 0.000000e+00 3.715990e-02 9.769497e-03 0.000000e+00 3.788740e-02 1.314723e-02 0.000000e+00 3.774823e-02 1.729790e-02 0.000000e+00 3.770757e-02 2.198053e-02 0.000000e+00 1.732697e-02 2.813503e-02 0.000000e+00 1.557927e-02 2.901910e-02 0.000000e+00 3.269900e-02 2.833997e-02 0.000000e+00 2.935370e-02 2.845227e-02 0.000000e+00 2.781170e-02 2.923953e-02 0.000000e+00 2.639500e-02 2.850040e-02 0.000000e+00 2.223157e-02 2.922417e-02 0.000000e+00 1.381527e-02 2.798807e-02 0.000000e+00 8.031137e-03 2.889270e-02 0.000000e+00 -4.123090e-03 2.728437e-02 0.000000e+00 -1.198417e-03 2.857383e-02 0.000000e+00 -1.002719e-02 2.741120e-02 0.000000e+00 3.294570e-02 1.223310e-02 0.000000e+00 3.308240e-02 1.382250e-02 0.000000e+00 3.240927e-02 1.066846e-02 0.000000e+00 3.151247e-02 9.382083e-03 0.000000e+00 3.036437e-02 8.311407e-03 0.000000e+00 2.906530e-02 7.459887e-03 0.000000e+00 2.756433e-02 6.933003e-03 0.000000e+00 2.604700e-02 6.802027e-03 0.000000e+00 2.451277e-02 6.968320e-03 0.000000e+00 2.295897e-02 7.446843e-03 0.000000e+00 2.158077e-02 8.277360e-03 0.000000e+00 2.046297e-02 9.380470e-03 0.000000e+00 1.962013e-02 1.072123e-02 0.000000e+00 1.909593e-02 1.221973e-02 0.000000e+00 1.891300e-02 1.375080e-02 0.000000e+00 1.906483e-02 1.527593e-02 0.000000e+00 1.955993e-02 1.677317e-02 0.000000e+00 2.042313e-02 1.817600e-02 0.000000e+00 2.157573e-02 1.932917e-02 0.000000e+00 2.294480e-02 2.016120e-02 0.000000e+00 2.440160e-02 2.064950e-02 0.000000e+00 2.589963e-02 2.081680e-02 0.000000e+00 2.739473e-02 2.065897e-02 0.000000e+00 2.894647e-02 2.018490e-02 0.000000e+00 3.032357e-02 1.941143e-02 0.000000e+00 3.151980e-02 1.822977e-02 0.000000e+00 3.238047e-02 1.681127e-02 0.000000e+00 3.289473e-02 1.536320e-02 0.000000e+00 -1.138429e-03 8.096280e-03 0.000000e+00 -2.208693e-02 3.089843e-04 0.000000e+00 -2.112300e-02 3.255077e-04 0.000000e+00 -2.016757e-02 3.277763e-04 0.000000e+00 -1.775733e-02 3.147210e-04 0.000000e+00 -1.823853e-02 3.236333e-04 0.000000e+00 -1.728243e-02 3.114593e-04 0.000000e+00 -1.632133e-02 3.126590e-04 0.000000e+00 -1.393903e-02 3.314613e-04 0.000000e+00 -1.441610e-02 3.287790e-04 0.000000e+00 -1.344893e-02 3.272303e-04 0.000000e+00 -1.105110e-02 3.256523e-04 0.000000e+00 -1.153600e-02 3.297307e-04 0.000000e+00 -1.056553e-02 3.206600e-04 0.000000e+00 -8.631870e-03 3.255370e-04 0.000000e+00 -7.676150e-03 3.359037e-04 0.000000e+00 -6.712443e-03 3.182857e-04 0.000000e+00 -4.313030e-03 3.230530e-04 0.000000e+00 -4.793007e-03 3.194883e-04 0.000000e+00 -3.834923e-03 3.198197e-04 0.000000e+00 -2.882097e-03 2.949867e-04 0.000000e+00 -4.247990e-04 3.902693e-04 0.000000e+00 -9.416457e-04 3.597350e-04 0.000000e+00 6.837617e-03 1.229541e-03 0.000000e+00 1.043452e-02 1.369913e-03 0.000000e+00 1.359147e-02 1.341531e-03 0.000000e+00 1.928013e-02 2.771857e-03 0.000000e+00 2.269583e-02 3.080740e-03 0.000000e+00 2.752970e-02 3.089767e-03 0.000000e+00 3.266823e-02 3.442663e-03 0.000000e+00 3.723383e-02 1.202530e-02 0.000000e+00 3.710913e-02 1.624160e-02 0.000000e+00 3.703987e-02 2.079103e-02 0.000000e+00 2.364283e-02 2.848503e-02 0.000000e+00 1.001834e-02 2.786167e-02 0.000000e+00 1.148280e-03 2.735310e-02 0.000000e+00 -2.187153e-02 1.781887e-02 0.000000e+00 -1.584483e-02 3.159117e-04 0.000000e+00 -2.402920e-03 3.053587e-04 0.000000e+00 1.209650e-02 1.370374e-03 0.000000e+00 1.496447e-02 1.270496e-03 0.000000e+00 3.675470e-02 2.326907e-02 0.000000e+00 -1.968677e-02 3.290793e-04 0.000000e+00 -2.064497e-02 3.294130e-04 0.000000e+00 -1.680540e-02 3.110200e-04 0.000000e+00 -1.296250e-02 3.229297e-04 0.000000e+00 -1.009193e-02 3.179887e-04 0.000000e+00 -6.241923e-03 2.957223e-04 0.000000e+00 -7.197853e-03 3.329433e-04 0.000000e+00 -3.362770e-03 3.070200e-04 0.000000e+00 8.672683e-03 1.313877e-03 0.000000e+00 2.076100e-02 2.928373e-03 0.000000e+00 3.708053e-02 1.843863e-02 0.000000e+00 3.724830e-02 1.411830e-02 0.000000e+00 2.070107e-02 2.834010e-02 0.000000e+00 5.806120e-03 2.767197e-02 0.000000e+00 -2.113147e-02 6.741743e-04 0.000000e+00 -2.017700e-02 6.675697e-04 0.000000e+00 -1.681017e-02 6.413607e-04 0.000000e+00 -1.776050e-02 6.320880e-04 0.000000e+00 -2.065687e-02 6.803663e-04 0.000000e+00 -2.042647e-02 8.549997e-04 0.000000e+00 -1.728120e-02 6.240420e-04 0.000000e+00 -1.752097e-02 7.863340e-04 0.000000e+00 -1.704693e-02 7.979983e-04 0.000000e+00 -1.823567e-02 6.679367e-04 0.000000e+00 -1.799860e-02 8.200070e-04 0.000000e+00 -1.297003e-02 6.521550e-04 0.000000e+00 -1.395507e-02 6.872580e-04 0.000000e+00 -2.422197e-03 6.212563e-04 0.000000e+00 -1.345897e-02 6.659070e-04 0.000000e+00 -1.371363e-02 8.601917e-04 0.000000e+00 -1.321893e-02 8.294140e-04 0.000000e+00 -1.443523e-02 6.776690e-04 0.000000e+00 -1.420663e-02 8.704297e-04 0.000000e+00 -1.106217e-02 6.789157e-04 0.000000e+00 -1.010423e-02 6.359690e-04 0.000000e+00 -1.056813e-02 6.585800e-04 0.000000e+00 -1.081547e-02 8.526980e-04 0.000000e+00 -1.033863e-02 8.150457e-04 0.000000e+00 -1.155370e-02 6.818440e-04 0.000000e+00 -1.131807e-02 8.695143e-04 0.000000e+00 -8.626533e-03 6.718603e-04 0.000000e+00 -6.225067e-03 6.136127e-04 0.000000e+00 -7.670987e-03 6.826937e-04 0.000000e+00 -6.692707e-03 6.670623e-04 0.000000e+00 -6.438903e-03 8.208553e-04 0.000000e+00 -3.352210e-03 6.298753e-04 0.000000e+00 -4.315503e-03 6.706063e-04 0.000000e+00 -7.183523e-03 6.831767e-04 0.000000e+00 -7.421413e-03 8.658693e-04 0.000000e+00 -6.922880e-03 8.631073e-04 0.000000e+00 -3.822647e-03 6.598830e-04 0.000000e+00 -4.065337e-03 8.488053e-04 0.000000e+00 -3.576947e-03 8.215497e-04 0.000000e+00 -4.803527e-03 6.599717e-04 0.000000e+00 -4.570883e-03 8.499010e-04 0.000000e+00 -2.886033e-03 5.791333e-04 0.000000e+00 -3.116363e-03 7.553910e-04 0.000000e+00 -2.662323e-03 7.466420e-04 0.000000e+00 8.547863e-03 2.366473e-03 0.000000e+00 -3.893530e-04 7.865993e-04 0.000000e+00 1.206793e-02 2.382087e-03 0.000000e+00 6.754843e-03 2.251067e-03 0.000000e+00 7.630667e-03 2.829873e-03 0.000000e+00 4.990537e-03 2.142250e-03 0.000000e+00 5.856863e-03 2.720957e-03 0.000000e+00 -9.266963e-04 7.301950e-04 0.000000e+00 -6.554303e-04 9.521113e-04 0.000000e+00 1.034436e-02 2.423680e-03 0.000000e+00 1.121670e-02 2.931160e-03 0.000000e+00 3.125810e-03 1.048723e-03 0.000000e+00 2.066553e-02 3.906283e-03 0.000000e+00 1.505923e-02 2.117567e-03 0.000000e+00 1.917840e-02 3.580290e-03 0.000000e+00 1.974120e-02 4.211807e-03 0.000000e+00 3.511567e-02 2.311397e-02 0.000000e+00 1.580750e-02 2.393423e-03 0.000000e+00 2.260070e-02 4.251100e-03 0.000000e+00 3.586613e-02 1.862647e-02 0.000000e+00 3.603747e-02 1.191807e-02 0.000000e+00 3.005147e-02 4.419667e-03 0.000000e+00 3.250367e-02 4.738617e-03 0.000000e+00 3.524783e-02 4.101963e-03 0.000000e+00 -2.209340e-02 6.150420e-04 0.000000e+00 3.573183e-02 7.171230e-03 0.000000e+00 3.579240e-02 9.645447e-03 0.000000e+00 3.509837e-02 8.413020e-03 0.000000e+00 3.528257e-02 1.078102e-02 0.000000e+00 2.079387e-02 2.676097e-02 0.000000e+00 3.563480e-02 2.079390e-02 0.000000e+00 3.521283e-02 1.974937e-02 0.000000e+00 3.466347e-02 2.182830e-02 0.000000e+00 3.609167e-02 1.403767e-02 0.000000e+00 2.365937e-02 2.705360e-02 0.000000e+00 1.749990e-02 2.625723e-02 0.000000e+00 3.429497e-02 2.573990e-02 0.000000e+00 3.391667e-02 2.420307e-02 0.000000e+00 3.273947e-02 2.677580e-02 0.000000e+00 9.975903e-03 2.575977e-02 0.000000e+00 -4.668067e-03 2.470700e-02 0.000000e+00 2.635837e-02 2.710997e-02 0.000000e+00 2.499817e-02 2.643900e-02 0.000000e+00 1.376610e-02 2.603250e-02 0.000000e+00 1.570303e-02 2.518573e-02 0.000000e+00 1.189317e-02 2.491150e-02 0.000000e+00 -9.891197e-03 2.493080e-02 0.000000e+00 -1.994560e-02 1.818683e-02 0.000000e+00 -1.508767e-02 2.441360e-02 0.000000e+00 -2.106990e-02 2.280297e-02 0.000000e+00 -2.161170e-02 6.396367e-04 0.000000e+00 -2.185500e-02 7.853467e-04 0.000000e+00 -2.137643e-02 8.332610e-04 0.000000e+00 -8.140893e-03 6.772690e-04 0.000000e+00 -8.380313e-03 8.565347e-04 0.000000e+00 -7.899110e-03 8.598777e-04 0.000000e+00 1.605870e-04 4.904367e-04 0.000000e+00 2.933663e-02 2.694580e-02 0.000000e+00 3.090000e-02 2.614210e-02 0.000000e+00 2.775800e-02 2.634263e-02 0.000000e+00 -2.234150e-02 1.564757e-02 0.000000e+00 3.388193e-02 1.206330e-02 0.000000e+00 -1.584783e-02 6.313860e-04 0.000000e+00 3.214200e-02 8.751980e-03 0.000000e+00 3.083187e-02 7.693727e-03 0.000000e+00 2.947333e-02 6.606507e-03 0.000000e+00 2.767550e-02 6.075050e-03 0.000000e+00 2.432400e-02 6.221340e-03 0.000000e+00 2.261970e-02 6.558173e-03 0.000000e+00 2.106680e-02 7.550473e-03 0.000000e+00 1.881357e-02 1.035269e-02 0.000000e+00 1.799233e-02 1.375013e-02 0.000000e+00 1.869060e-02 1.718847e-02 0.000000e+00 1.968563e-02 1.877930e-02 0.000000e+00 2.102133e-02 2.008083e-02 0.000000e+00 2.255063e-02 2.098120e-02 0.000000e+00 2.590557e-02 2.166383e-02 0.000000e+00 2.757607e-02 2.145653e-02 0.000000e+00 2.930520e-02 2.098250e-02 0.000000e+00 3.226413e-02 1.873693e-02 0.000000e+00 3.320063e-02 1.716293e-02 0.000000e+00 2.277147e-03 8.143718e-04 0.000000e+00 3.355163e-03 2.058880e-03 0.000000e+00 4.119037e-03 2.613353e-03 0.000000e+00 3.487887e-02 5.796737e-03 0.000000e+00 -2.104710e-02 1.444430e-02 0.000000e+00 2.066997e-03 1.553265e-03 0.000000e+00 -2.309697e-02 6.830367e-04 0.000000e+00 2.142120e-02 4.651180e-03 0.000000e+00 -2.090020e-02 8.647800e-04 0.000000e+00 -1.920997e-02 6.935513e-04 0.000000e+00 -1.274020e-02 8.278563e-04 0.000000e+00 -1.249647e-02 6.615193e-04 0.000000e+00 -1.632307e-02 6.368347e-04 0.000000e+00 3.356367e-02 5.793763e-03 0.000000e+00 -9.863427e-03 8.021573e-04 0.000000e+00 -9.612833e-03 6.433573e-04 0.000000e+00 -1.656850e-02 8.104613e-04 0.000000e+00 -5.994700e-03 7.347690e-04 0.000000e+00 -5.774007e-03 5.570347e-04 0.000000e+00 2.255800e-04 9.051833e-04 0.000000e+00 9.419393e-03 2.937780e-03 0.000000e+00 -9.853433e-05 1.016025e-03 0.000000e+00 1.286917e-02 2.836703e-03 0.000000e+00 1.360773e-02 2.285417e-03 0.000000e+00 2.624673e-03 2.309320e-03 0.000000e+00 -2.194553e-03 8.079053e-04 0.000000e+00 -1.933947e-03 6.581240e-04 0.000000e+00 1.438733e-02 2.672697e-03 0.000000e+00 1.837113e-02 3.682443e-03 0.000000e+00 7.976040e-03 2.452527e-02 0.000000e+00 5.793457e-03 2.540643e-02 0.000000e+00 1.595987e-02 3.243063e-03 0.000000e+00 1.674870e-02 3.435887e-03 0.000000e+00 2.345150e-02 4.894410e-03 0.000000e+00 2.234090e-02 2.621360e-02 0.000000e+00 2.768227e-02 4.134707e-03 0.000000e+00 2.887003e-02 4.824980e-03 0.000000e+00 3.121187e-02 5.149967e-03 0.000000e+00 -2.130067e-02 1.282827e-02 0.000000e+00 -1.985610e-02 1.497737e-02 0.000000e+00 1.930853e-02 2.565900e-02 0.000000e+00 -1.969310e-02 6.670293e-04 0.000000e+00 -2.703100e-03 2.327877e-02 0.000000e+00 1.463047e-03 1.631935e-03 0.000000e+00 -1.993820e-02 8.412667e-04 0.000000e+00 -1.922457e-02 1.654860e-02 0.000000e+00 -1.945483e-02 8.599360e-04 0.000000e+00 -1.215918e-02 2.366160e-02 0.000000e+00 -1.886943e-02 2.203520e-02 0.000000e+00 -2.339790e-02 1.381913e-02 0.000000e+00 3.400910e-02 1.385767e-02 0.000000e+00 -1.561703e-02 7.924050e-04 0.000000e+00 -1.537720e-02 6.386657e-04 0.000000e+00 3.400423e-02 1.651773e-02 0.000000e+00 3.378973e-02 1.557377e-02 0.000000e+00 3.319493e-02 1.817257e-02 0.000000e+00 3.048700e-02 2.104420e-02 0.000000e+00 3.103637e-02 2.015153e-02 0.000000e+00 2.857930e-02 2.168557e-02 0.000000e+00 2.677810e-02 2.203477e-02 0.000000e+00 2.322713e-02 2.174373e-02 0.000000e+00 2.422090e-02 2.151233e-02 0.000000e+00 2.151920e-02 2.100553e-02 0.000000e+00 2.099827e-02 2.193663e-02 0.000000e+00 1.996947e-02 1.983003e-02 0.000000e+00 1.870037e-02 1.827157e-02 0.000000e+00 1.753440e-02 1.466473e-02 0.000000e+00 1.814293e-02 1.547107e-02 0.000000e+00 1.800960e-02 1.104843e-02 0.000000e+00 1.819280e-02 1.203317e-02 0.000000e+00 2.003213e-02 7.793663e-03 0.000000e+00 1.972963e-02 8.789597e-03 0.000000e+00 2.159803e-02 6.557900e-03 0.000000e+00 2.333480e-02 5.906013e-03 0.000000e+00 2.678890e-02 5.522403e-03 0.000000e+00 2.666180e-02 4.580420e-03 0.000000e+00 2.595167e-02 5.963150e-03 0.000000e+00 2.873617e-02 5.823340e-03 0.000000e+00 3.177633e-02 7.871073e-03 0.000000e+00 -1.665090e-02 2.273057e-02 0.000000e+00 3.417483e-02 1.093852e-02 0.000000e+00 -1.608407e-02 7.963640e-04 0.000000e+00 2.506613e-02 5.643273e-03 0.000000e+00 1.882490e-02 9.289963e-03 0.000000e+00 1.756077e-02 1.285037e-02 0.000000e+00 1.787597e-02 1.649417e-02 0.000000e+00 2.502437e-02 2.209247e-02 0.000000e+00 3.209617e-02 1.982723e-02 0.000000e+00 3.333877e-02 1.019487e-02 0.000000e+00 -2.258683e-02 6.357107e-04 0.000000e+00 -2.282593e-02 8.280787e-04 0.000000e+00 -2.233863e-02 7.786460e-04 0.000000e+00 -1.872067e-02 6.936587e-04 0.000000e+00 -1.896460e-02 8.847920e-04 0.000000e+00 -1.847633e-02 8.663967e-04 0.000000e+00 -1.489527e-02 6.508127e-04 0.000000e+00 -1.513917e-02 8.055097e-04 0.000000e+00 -1.467123e-02 8.379677e-04 0.000000e+00 -1.202210e-02 6.773313e-04 0.000000e+00 -1.226693e-02 8.489517e-04 0.000000e+00 -1.179600e-02 8.665563e-04 0.000000e+00 -9.124930e-03 6.613460e-04 0.000000e+00 -9.372613e-03 8.253240e-04 0.000000e+00 -8.877887e-03 8.484890e-04 0.000000e+00 -5.293817e-03 6.175843e-04 0.000000e+00 -5.543830e-03 7.353050e-04 0.000000e+00 -5.061887e-03 8.179117e-04 0.000000e+00 -1.435627e-03 6.882900e-04 0.000000e+00 -1.691273e-03 8.471230e-04 0.000000e+00 -1.182007e-03 8.926337e-04 0.000000e+00 2.539530e-02 4.113310e-03 0.000000e+00 3.586767e-02 1.610443e-02 0.000000e+00 1.321520e-03 2.492930e-02 0.000000e+00 -2.259507e-02 1.193533e-02 0.000000e+00 -2.258303e-02 1.040013e-02 0.000000e+00 -2.062893e-02 1.077192e-02 0.000000e+00 5.624867e-04 1.286269e-03 0.000000e+00 3.792780e-03 2.408993e-02 0.000000e+00 3.442803e-02 1.480360e-02 0.000000e+00 -1.880153e-02 1.980190e-02 0.000000e+00 -2.148737e-02 1.008898e-02 0.000000e+00 3.319267e-02 9.115627e-03 0.000000e+00 -2.043020e-02 1.197600e-02 0.000000e+00 -1.990343e-02 1.000308e-02 0.000000e+00 -2.029727e-02 8.987387e-03 0.000000e+00 -2.121147e-02 9.009147e-03 0.000000e+00 2.105560e-02 5.737430e-03 0.000000e+00 -2.091647e-02 1.256287e-03 0.000000e+00 -1.421800e-02 1.270137e-03 0.000000e+00 3.319577e-02 6.996180e-03 0.000000e+00 -4.605877e-03 1.223703e-03 0.000000e+00 -1.132327e-02 1.269920e-03 0.000000e+00 4.062860e-03 2.192527e-02 0.000000e+00 -6.372183e-03 1.203270e-03 0.000000e+00 9.379530e-03 4.036273e-03 0.000000e+00 -1.655530e-02 1.218693e-03 0.000000e+00 7.580757e-03 3.932737e-03 0.000000e+00 8.458090e-03 4.567830e-03 0.000000e+00 1.796320e-02 4.402587e-03 0.000000e+00 1.293797e-02 3.861143e-03 0.000000e+00 -5.262590e-05 1.424830e-03 0.000000e+00 1.452027e-02 3.629000e-03 0.000000e+00 1.380947e-02 4.266160e-03 0.000000e+00 1.534453e-02 3.923510e-03 0.000000e+00 5.835037e-03 3.779433e-03 0.000000e+00 6.683107e-03 4.412407e-03 0.000000e+00 -6.442880e-04 1.361610e-03 0.000000e+00 -3.323022e-04 1.604903e-03 0.000000e+00 1.122253e-02 4.017227e-03 0.000000e+00 1.214257e-02 4.492593e-03 0.000000e+00 1.375263e-03 3.070085e-04 0.000000e+00 1.301493e-03 2.336470e-03 0.000000e+00 -3.277010e-03 2.101097e-02 0.000000e+00 2.251423e-02 2.490727e-02 0.000000e+00 8.089197e-03 2.242460e-02 0.000000e+00 -1.876427e-02 1.390437e-02 0.000000e+00 3.698614e-04 1.614533e-03 0.000000e+00 -1.947213e-02 1.251523e-03 0.000000e+00 1.974917e-02 2.420257e-02 0.000000e+00 3.387750e-02 8.240943e-03 0.000000e+00 -1.799170e-02 1.179814e-03 0.000000e+00 -1.176068e-02 2.144077e-02 0.000000e+00 3.238230e-02 2.381337e-02 0.000000e+00 -7.395687e-03 2.365277e-02 0.000000e+00 1.993857e-02 5.931157e-03 0.000000e+00 1.937983e-02 5.150430e-03 0.000000e+00 1.944633e-02 6.994817e-03 0.000000e+00 3.448660e-02 1.294710e-02 0.000000e+00 4.141643e-03 3.723167e-03 0.000000e+00 4.991317e-03 4.310540e-03 0.000000e+00 -6.312497e-03 6.714737e-03 0.000000e+00 2.496660e-02 2.305317e-02 0.000000e+00 1.683837e-02 1.681310e-02 0.000000e+00 1.652663e-02 1.277687e-02 0.000000e+00 3.041873e-02 6.731043e-03 0.000000e+00 -1.768927e-02 1.650597e-02 0.000000e+00 -1.908480e-02 1.251903e-02 0.000000e+00 -1.555473e-02 2.079750e-02 0.000000e+00 -1.359300e-02 2.025970e-02 0.000000e+00 -1.691940e-02 1.939447e-02 0.000000e+00 1.798517e-02 8.923917e-03 0.000000e+00 1.696250e-02 1.067353e-02 0.000000e+00 1.650410e-02 1.479313e-02 0.000000e+00 1.592790e-02 1.380503e-02 0.000000e+00 1.607503e-02 1.591840e-02 0.000000e+00 1.770087e-02 1.881257e-02 0.000000e+00 1.916480e-02 2.062803e-02 0.000000e+00 1.788147e-02 2.011830e-02 0.000000e+00 1.969573e-02 2.180993e-02 0.000000e+00 2.297093e-02 2.271157e-02 0.000000e+00 2.690143e-02 2.298603e-02 0.000000e+00 2.879597e-02 2.255727e-02 0.000000e+00 -6.512660e-03 7.574000e-03 0.000000e+00 -1.995007e-02 8.117607e-03 0.000000e+00 3.504740e-02 1.688067e-02 0.000000e+00 -1.894403e-02 1.014177e-02 0.000000e+00 -7.349987e-03 2.114787e-02 0.000000e+00 -5.196277e-03 1.993430e-02 0.000000e+00 -9.446997e-03 2.020507e-02 0.000000e+00 -2.067583e-02 1.447960e-03 0.000000e+00 -2.042917e-02 1.231087e-03 0.000000e+00 -8.886500e-03 1.250753e-03 0.000000e+00 -1.469827e-02 1.216292e-03 0.000000e+00 -1.447363e-02 1.455700e-03 0.000000e+00 -1.705957e-02 1.154897e-03 0.000000e+00 -1.680960e-02 1.406491e-03 0.000000e+00 -1.276757e-02 1.177555e-03 0.000000e+00 -6.878477e-03 1.251793e-03 0.000000e+00 -6.581583e-03 1.438163e-03 0.000000e+00 -5.121853e-03 1.180634e-03 0.000000e+00 -4.898487e-03 1.396497e-03 0.000000e+00 6.176693e-03 2.114110e-02 0.000000e+00 -1.181397e-03 1.277357e-03 0.000000e+00 -9.149440e-04 1.524417e-03 0.000000e+00 1.706143e-02 4.306827e-03 0.000000e+00 -3.548013e-03 1.192055e-03 0.000000e+00 -1.033743e-02 1.176084e-03 0.000000e+00 -7.393873e-03 1.229387e-03 0.000000e+00 -7.111580e-03 1.435380e-03 0.000000e+00 1.840910e-02 5.239057e-03 0.000000e+00 -1.323273e-02 1.157485e-03 0.000000e+00 -1.301120e-02 1.329925e-03 0.000000e+00 -2.752223e-03 1.078088e-03 0.000000e+00 1.031033e-02 4.608240e-03 0.000000e+00 -3.058167e-04 2.343233e-02 0.000000e+00 2.463687e-02 4.735417e-03 0.000000e+00 -2.019217e-02 1.386713e-03 0.000000e+00 -1.995067e-02 1.184323e-03 0.000000e+00 2.366580e-03 3.065250e-03 0.000000e+00 -4.355273e-03 1.423023e-03 0.000000e+00 -4.070113e-03 1.227420e-03 0.000000e+00 1.009526e-02 2.170593e-02 0.000000e+00 -1.746697e-02 1.479723e-02 0.000000e+00 3.507447e-02 1.790477e-02 0.000000e+00 -1.923220e-02 1.499817e-03 0.000000e+00 -1.896953e-02 1.299470e-03 0.000000e+00 -7.892657e-03 1.218833e-03 0.000000e+00 -7.636993e-03 1.405167e-03 0.000000e+00 3.216070e-02 2.239113e-02 0.000000e+00 1.692673e-02 9.611747e-03 0.000000e+00 -5.908683e-03 1.051952e-03 0.000000e+00 -6.072330e-03 1.313210e-03 0.000000e+00 -5.621790e-03 1.053866e-03 0.000000e+00 3.324287e-02 2.149517e-02 0.000000e+00 1.838910e-02 7.061943e-03 0.000000e+00 1.791060e-02 6.086910e-03 0.000000e+00 1.778547e-02 7.916903e-03 0.000000e+00 1.647350e-03 3.013730e-03 0.000000e+00 1.189937e-02 2.295833e-02 0.000000e+00 -1.181543e-02 1.253783e-03 0.000000e+00 -1.157833e-02 1.469477e-03 0.000000e+00 -8.375413e-03 1.240317e-03 0.000000e+00 -8.630247e-03 1.457907e-03 0.000000e+00 -8.129540e-03 1.420007e-03 0.000000e+00 1.665350e-02 1.804840e-02 0.000000e+00 1.541827e-02 1.847280e-02 0.000000e+00 -1.776230e-02 1.294650e-03 0.000000e+00 -1.752967e-02 1.089090e-03 0.000000e+00 -2.140577e-02 1.217903e-03 0.000000e+00 -1.561423e-02 1.132254e-03 0.000000e+00 -1.846850e-02 1.276543e-03 0.000000e+00 -1.822093e-02 1.437890e-03 0.000000e+00 -2.330020e-02 1.083144e-03 0.000000e+00 2.390693e-02 2.344087e-02 0.000000e+00 2.177350e-02 2.288013e-02 0.000000e+00 1.611157e-02 1.158477e-02 0.000000e+00 3.092113e-02 2.471650e-02 0.000000e+00 3.546280e-02 1.497133e-02 0.000000e+00 3.606617e-04 2.127843e-02 0.000000e+00 2.258078e-03 2.061073e-02 0.000000e+00 -1.355598e-03 2.000827e-02 0.000000e+00 -1.972287e-02 1.401673e-03 0.000000e+00 -1.010707e-02 1.326747e-03 0.000000e+00 -9.867473e-03 1.131897e-03 0.000000e+00 -2.556247e-03 1.304888e-03 0.000000e+00 -2.238703e-03 1.160091e-03 0.000000e+00 2.643367e-03 4.001433e-03 0.000000e+00 3.394317e-03 4.362860e-03 0.000000e+00 -2.117707e-02 1.450323e-03 0.000000e+00 -2.310203e-02 1.450570e-03 0.000000e+00 -2.281310e-02 1.205986e-03 0.000000e+00 3.402560e-02 1.855147e-02 0.000000e+00 2.498137e-02 2.521023e-02 0.000000e+00 -1.607943e-02 1.115453e-03 0.000000e+00 1.881230e-02 2.295780e-02 0.000000e+00 -1.652817e-02 1.773677e-02 0.000000e+00 -2.186673e-02 1.100641e-03 0.000000e+00 -2.165277e-02 1.339573e-03 0.000000e+00 2.791607e-02 2.327950e-02 0.000000e+00 3.086020e-02 2.209207e-02 0.000000e+00 -2.045917e-02 7.224357e-03 0.000000e+00 -2.233617e-02 1.093514e-03 0.000000e+00 -2.257153e-02 1.328486e-03 0.000000e+00 -2.210267e-02 1.245204e-03 0.000000e+00 -1.630523e-02 1.364156e-03 0.000000e+00 -1.106987e-02 1.462387e-03 0.000000e+00 -1.081797e-02 1.235763e-03 0.000000e+00 -1.396703e-02 1.472770e-03 0.000000e+00 -1.371423e-02 1.245997e-03 0.000000e+00 -1.584040e-02 1.290324e-03 0.000000e+00 2.381590e-02 2.451850e-02 0.000000e+00 1.709490e-02 2.249103e-02 0.000000e+00 1.669500e-02 2.083343e-02 0.000000e+00 1.559117e-02 2.335937e-02 0.000000e+00 -2.119297e-02 7.251023e-03 0.000000e+00 3.407990e-02 1.960833e-02 0.000000e+00 -1.846783e-02 9.088497e-03 0.000000e+00 -1.908003e-02 8.080033e-03 0.000000e+00 -2.159807e-02 8.166033e-03 0.000000e+00 3.308127e-02 2.031973e-02 0.000000e+00 -2.174757e-02 6.357997e-03 0.000000e+00 -2.243517e-02 6.670187e-03 0.000000e+00 -2.149623e-02 5.561960e-03 0.000000e+00 -2.313723e-02 4.654507e-03 0.000000e+00 -2.184190e-02 4.821557e-03 0.000000e+00 -2.142183e-02 4.208163e-03 0.000000e+00 -2.172737e-02 3.609793e-03 0.000000e+00 -2.084030e-02 4.205837e-03 0.000000e+00 -2.149360e-02 3.043390e-03 0.000000e+00 -2.233293e-02 3.631170e-03 0.000000e+00 -2.246367e-02 4.419383e-03 0.000000e+00 -2.257330e-02 3.067217e-03 0.000000e+00 -2.068393e-02 5.585367e-03 0.000000e+00 -2.020147e-02 6.354737e-03 0.000000e+00 -2.044807e-02 4.842637e-03 0.000000e+00 -2.226810e-02 2.529950e-03 0.000000e+00 -2.179397e-02 2.527500e-03 0.000000e+00 -1.515540e-02 1.123848e-03 0.000000e+00 -1.539063e-02 1.296853e-03 0.000000e+00 -1.493853e-02 1.347475e-03 0.000000e+00 -1.228723e-02 1.218807e-03 0.000000e+00 -1.254413e-02 1.381073e-03 0.000000e+00 -1.206183e-02 1.434413e-03 0.000000e+00 3.214527e-02 6.989957e-03 0.000000e+00 6.389880e-03 1.902650e-02 0.000000e+00 -1.586587e-02 1.658010e-03 0.000000e+00 -1.832413e-02 1.145363e-02 0.000000e+00 -9.392020e-03 1.205290e-03 0.000000e+00 -9.636287e-03 1.353064e-03 0.000000e+00 -9.152950e-03 1.443577e-03 0.000000e+00 -3.249300e-03 1.330035e-03 0.000000e+00 -1.719170e-03 1.210353e-03 0.000000e+00 -2.005993e-03 1.373540e-03 0.000000e+00 -1.462913e-03 1.436243e-03 0.000000e+00 1.648870e-02 5.063407e-03 0.000000e+00 1.689197e-02 6.007020e-03 0.000000e+00 -1.704230e-02 1.148207e-02 0.000000e+00 3.122137e-02 6.198890e-03 0.000000e+00 -1.056943e-02 1.402683e-03 0.000000e+00 -2.252480e-02 2.045517e-03 0.000000e+00 1.030179e-02 5.799427e-03 0.000000e+00 2.140783e-02 2.399820e-02 0.000000e+00 -3.239919e-04 2.043840e-03 0.000000e+00 1.366043e-02 2.225297e-02 0.000000e+00 1.032663e-02 1.971087e-02 0.000000e+00 -3.798490e-03 1.409003e-03 0.000000e+00 -1.617587e-02 1.434620e-02 0.000000e+00 -3.204307e-03 1.748133e-03 0.000000e+00 4.320971e-04 2.018573e-03 0.000000e+00 1.613933e-02 8.912403e-03 0.000000e+00 -2.065897e-02 1.835063e-03 0.000000e+00 1.020964e-03 1.152077e-03 0.000000e+00 -2.234517e-02 7.895970e-03 0.000000e+00 -2.305423e-02 9.050233e-03 0.000000e+00 -2.304607e-02 2.604983e-03 0.000000e+00 4.973437e-03 5.352780e-03 0.000000e+00 1.262162e-03 3.638083e-03 0.000000e+00 2.749337e-02 2.511667e-02 0.000000e+00 -2.096830e-02 3.020557e-03 0.000000e+00 2.989507e-02 2.290207e-02 0.000000e+00 -2.062053e-02 3.584633e-03 0.000000e+00 -1.617197e-02 1.723140e-03 0.000000e+00 -1.328490e-02 1.839800e-02 0.000000e+00 -1.485540e-02 1.727810e-02 0.000000e+00 -2.298653e-02 1.924353e-03 0.000000e+00 2.607693e-02 2.465523e-02 0.000000e+00 -2.078753e-02 2.558330e-03 0.000000e+00 7.870787e-04 2.389910e-03 0.000000e+00 1.792010e-05 2.267807e-03 0.000000e+00 2.597113e-02 2.357580e-02 0.000000e+00 1.491887e-02 1.151110e-02 0.000000e+00 -2.007123e-02 3.467573e-03 0.000000e+00 8.393337e-03 5.827850e-03 0.000000e+00 9.306243e-03 6.487480e-03 0.000000e+00 -2.314423e-02 5.869487e-03 0.000000e+00 1.527917e-02 1.995210e-02 0.000000e+00 -1.259567e-02 1.740287e-03 0.000000e+00 -2.094380e-02 2.112367e-03 0.000000e+00 -1.730253e-02 1.283696e-03 0.000000e+00 1.403352e-03 4.364327e-03 0.000000e+00 2.065327e-03 4.676157e-03 0.000000e+00 -1.560227e-02 1.880023e-03 0.000000e+00 -1.535320e-02 1.676937e-03 0.000000e+00 4.497693e-03 1.769773e-02 0.000000e+00 -4.969913e-03 1.795367e-03 0.000000e+00 -3.042387e-03 1.085045e-03 0.000000e+00 5.235677e-04 2.906910e-03 0.000000e+00 4.540733e-05 2.757087e-03 0.000000e+00 6.527940e-04 3.477823e-03 0.000000e+00 -7.080913e-03 1.845693e-03 0.000000e+00 -8.635597e-03 1.886973e-03 0.000000e+00 -9.423800e-04 1.962860e-03 0.000000e+00 -6.634137e-04 2.238990e-03 0.000000e+00 -1.395223e-02 1.915293e-03 0.000000e+00 -5.431743e-03 1.298868e-03 0.000000e+00 5.720470e-03 6.006920e-03 0.000000e+00 6.586420e-03 5.597653e-03 0.000000e+00 1.500233e-02 9.008217e-03 0.000000e+00 1.434810e-02 1.025143e-02 0.000000e+00 -1.310030e-02 1.721963e-03 0.000000e+00 -1.290820e-02 1.928807e-03 0.000000e+00 7.230303e-04 5.660440e-04 0.000000e+00 3.466220e-03 5.564160e-03 0.000000e+00 4.195667e-03 5.966707e-03 0.000000e+00 1.399070e-02 5.334313e-03 0.000000e+00 -1.472540e-02 1.559627e-02 0.000000e+00 -2.914127e-03 1.897733e-03 0.000000e+00 -2.617640e-03 1.667727e-03 0.000000e+00 1.374833e-02 2.050330e-02 0.000000e+00 1.223713e-02 5.621407e-03 0.000000e+00 3.553440e-02 1.295937e-02 0.000000e+00 8.533750e-03 1.831493e-02 0.000000e+00 -1.982320e-02 1.812960e-03 0.000000e+00 1.221863e-02 1.921360e-02 0.000000e+00 -3.810183e-03 1.837467e-03 0.000000e+00 -3.514713e-03 2.038617e-03 0.000000e+00 -1.601317e-02 1.273710e-02 0.000000e+00 -2.012940e-02 1.796157e-03 0.000000e+00 -1.871777e-02 1.518483e-03 0.000000e+00 -1.054170e-02 1.787013e-03 0.000000e+00 1.667390e-02 7.839290e-03 0.000000e+00 -7.617220e-03 1.751590e-03 0.000000e+00 -7.343433e-03 1.986123e-03 0.000000e+00 -2.034953e-02 2.027633e-03 0.000000e+00 -1.451710e-02 1.883743e-03 0.000000e+00 -1.424667e-02 2.140703e-03 0.000000e+00 -1.999300e-02 2.835090e-03 0.000000e+00 -1.817387e-02 1.847387e-03 0.000000e+00 -1.158917e-02 1.908830e-03 0.000000e+00 -1.347337e-02 1.379783e-03 0.000000e+00 -7.987167e-03 6.701330e-03 0.000000e+00 1.321377e-02 6.058110e-03 0.000000e+00 -1.980787e-02 4.769940e-03 0.000000e+00 -1.628837e-02 2.102513e-03 0.000000e+00 2.973440e-02 2.410427e-02 0.000000e+00 -1.769260e-02 1.627513e-03 0.000000e+00 -1.787493e-02 1.922173e-03 0.000000e+00 -1.739723e-02 1.621343e-03 0.000000e+00 1.130857e-02 6.337227e-03 0.000000e+00 -1.209114e-03 1.815727e-02 0.000000e+00 -1.105033e-02 1.894543e-03 0.000000e+00 -1.131457e-02 2.141430e-03 0.000000e+00 -1.077070e-02 2.052250e-03 0.000000e+00 -2.122127e-02 1.919300e-03 0.000000e+00 1.556063e-02 4.872913e-03 0.000000e+00 1.478577e-02 1.385910e-02 0.000000e+00 -2.160133e-02 2.047027e-03 0.000000e+00 -1.965080e-02 4.016080e-03 0.000000e+00 7.419317e-03 6.378003e-03 0.000000e+00 -2.036153e-02 2.489923e-03 0.000000e+00 -4.711743e-03 1.994110e-03 0.000000e+00 -4.389713e-03 1.794560e-03 0.000000e+00 2.479725e-03 1.849780e-02 0.000000e+00 -1.961513e-02 2.090693e-03 0.000000e+00 -1.962000e-02 2.616773e-03 0.000000e+00 -1.927487e-02 1.927700e-03 0.000000e+00 -1.024073e-02 1.970717e-03 0.000000e+00 -1.003810e-02 1.737050e-03 0.000000e+00 2.840220e-02 2.433070e-02 0.000000e+00 -2.839806e-03 1.707190e-02 0.000000e+00 1.419180e-02 1.275727e-02 0.000000e+00 -8.766773e-03 6.468413e-03 0.000000e+00 -1.944673e-02 6.297737e-03 0.000000e+00 -1.883440e-02 7.129783e-03 0.000000e+00 -2.347927e-02 3.404060e-03 0.000000e+00 -4.905557e-03 1.784623e-02 0.000000e+00 -1.239120e-02 1.986960e-03 0.000000e+00 -1.211427e-02 1.843353e-03 0.000000e+00 -2.507346e-03 1.531240e-02 0.000000e+00 1.491760e-02 5.646557e-03 0.000000e+00 -1.687710e-02 1.822007e-03 0.000000e+00 -1.722177e-02 1.908060e-03 0.000000e+00 -1.665217e-02 2.165210e-03 0.000000e+00 -1.156863e-02 1.759353e-02 0.000000e+00 -8.929953e-03 2.113863e-03 0.000000e+00 -9.191053e-03 1.877620e-03 0.000000e+00 -5.565400e-03 1.658247e-03 0.000000e+00 -5.326937e-03 1.938883e-03 0.000000e+00 1.625890e-02 6.904440e-03 0.000000e+00 -1.668350e-02 1.015628e-02 0.000000e+00 -1.928900e-02 5.455670e-03 0.000000e+00 7.287923e-04 1.731450e-02 0.000000e+00 -1.602497e-02 2.461033e-03 0.000000e+00 -1.454623e-02 1.242220e-02 0.000000e+00 -1.871353e-02 2.036793e-03 0.000000e+00 -1.900797e-02 2.245663e-03 0.000000e+00 -1.841720e-02 2.204350e-03 0.000000e+00 9.272310e-03 7.908027e-03 0.000000e+00 5.406847e-03 7.079490e-03 0.000000e+00 -1.748913e-02 9.074580e-03 0.000000e+00 -1.187870e-02 2.102077e-03 0.000000e+00 -1.339997e-02 1.762370e-03 0.000000e+00 -8.119757e-03 1.819140e-03 0.000000e+00 -8.370980e-03 2.068517e-03 0.000000e+00 -7.863100e-03 1.964390e-03 0.000000e+00 -6.282423e-03 1.662493e-02 0.000000e+00 1.341867e-02 7.401017e-03 0.000000e+00 7.169850e-03 7.685097e-03 0.000000e+00 6.023330e-03 7.977317e-03 0.000000e+00 8.109937e-03 8.555490e-03 0.000000e+00 -1.907997e-02 3.900743e-03 0.000000e+00 1.442253e-02 1.745567e-02 0.000000e+00 1.521260e-02 6.734470e-03 0.000000e+00 -8.936043e-03 2.560963e-03 0.000000e+00 -9.530517e-03 2.042283e-03 0.000000e+00 -1.858753e-02 5.335500e-03 0.000000e+00 -1.721137e-02 7.948403e-03 0.000000e+00 1.489443e-02 1.613657e-02 0.000000e+00 1.449060e-02 7.765133e-03 0.000000e+00 -1.506217e-02 1.719250e-03 0.000000e+00 -5.722840e-03 6.350240e-03 0.000000e+00 -1.486537e-02 2.016110e-03 0.000000e+00 1.290363e-02 1.283903e-02 0.000000e+00 -6.481560e-03 1.889177e-03 0.000000e+00 4.597220e-03 1.556333e-02 0.000000e+00 -2.180413e-02 1.699720e-03 0.000000e+00 -5.919093e-03 1.674503e-03 0.000000e+00 1.418137e-02 1.506537e-02 0.000000e+00 8.679277e-03 1.630933e-02 0.000000e+00 6.634933e-03 1.488650e-02 0.000000e+00 -6.118923e-03 2.015577e-03 0.000000e+00 -2.209237e-02 1.623540e-03 0.000000e+00 1.290100e-02 1.513930e-02 0.000000e+00 -5.440393e-03 2.361677e-03 0.000000e+00 -6.747787e-03 2.113120e-03 0.000000e+00 -6.884593e-03 6.191627e-03 0.000000e+00 -3.612637e-03 6.436050e-03 0.000000e+00 8.712427e-04 1.544710e-02 0.000000e+00 2.721702e-03 1.449600e-02 0.000000e+00 -7.342040e-04 1.453037e-02 0.000000e+00 -1.794443e-02 7.012070e-03 0.000000e+00 -2.361790e-02 7.368343e-04 0.000000e+00 -3.923863e-03 1.428817e-02 0.000000e+00 -8.584053e-03 2.775157e-03 0.000000e+00 -8.313347e-03 2.509600e-03 0.000000e+00 -1.684213e-02 2.630087e-03 0.000000e+00 1.991533e-03 5.710110e-03 0.000000e+00 2.641477e-03 6.236687e-03 0.000000e+00 1.221723e-02 1.401480e-02 0.000000e+00 -7.292483e-04 2.734400e-03 0.000000e+00 -1.785530e-02 6.059853e-03 0.000000e+00 -6.783110e-03 2.573143e-03 0.000000e+00 -1.362603e-02 2.071107e-03 0.000000e+00 -1.496333e-03 1.819270e-03 0.000000e+00 -1.242253e-03 2.098827e-03 0.000000e+00 -1.195750e-02 2.566263e-03 0.000000e+00 -2.054667e-03 1.779927e-03 0.000000e+00 -1.801263e-03 1.999767e-03 0.000000e+00 1.296877e-02 1.042496e-02 0.000000e+00 1.225137e-02 1.176640e-02 0.000000e+00 -3.623393e-04 3.028530e-03 0.000000e+00 -1.627190e-02 7.904603e-03 0.000000e+00 1.439277e-04 3.924113e-03 0.000000e+00 -1.326063e-02 1.503653e-02 0.000000e+00 -2.348770e-03 1.929317e-03 0.000000e+00 -1.433060e-02 1.096297e-02 0.000000e+00 -1.564497e-02 2.303673e-03 0.000000e+00 -3.510617e-03 2.524937e-03 0.000000e+00 -1.324417e-02 1.347157e-02 0.000000e+00 -1.543873e-02 9.952083e-03 0.000000e+00 -1.065270e-02 2.497867e-03 0.000000e+00 4.418123e-03 7.038540e-03 0.000000e+00 1.135227e-02 7.508490e-03 0.000000e+00 1.033455e-02 1.573907e-02 0.000000e+00 1.031156e-02 8.391237e-03 0.000000e+00 -1.429883e-02 2.682617e-03 0.000000e+00 -9.614553e-03 2.512657e-03 0.000000e+00 -9.281180e-03 2.795093e-03 0.000000e+00 -5.633190e-03 1.482637e-02 0.000000e+00 -4.672330e-03 2.446987e-03 0.000000e+00 -1.853557e-02 4.534433e-03 0.000000e+00 -4.116247e-03 2.027420e-03 0.000000e+00 -9.563047e-03 1.821953e-02 0.000000e+00 -1.167436e-02 1.591390e-02 0.000000e+00 -1.130407e-02 2.620610e-03 0.000000e+00 -1.092183e-02 2.819340e-03 0.000000e+00 -5.878687e-03 2.422113e-03 0.000000e+00 -1.774403e-02 2.256007e-03 0.000000e+00 -1.738623e-02 2.248063e-03 0.000000e+00 -1.043736e-02 1.510007e-02 0.000000e+00 -5.043957e-03 2.671037e-03 0.000000e+00 -1.661263e-02 3.032210e-03 0.000000e+00 -1.615927e-02 2.925853e-03 0.000000e+00 -1.530490e-02 8.826580e-03 0.000000e+00 -1.788193e-02 2.643970e-03 0.000000e+00 -1.355037e-02 2.552597e-03 0.000000e+00 -1.165747e-02 2.852197e-03 0.000000e+00 1.848327e-04 4.713570e-03 0.000000e+00 8.348890e-04 4.993523e-03 0.000000e+00 -3.111490e-03 2.688160e-03 0.000000e+00 -2.825407e-03 2.351440e-03 0.000000e+00 -9.488293e-03 7.056850e-03 0.000000e+00 -1.028449e-02 2.440730e-03 0.000000e+00 -1.392873e-02 2.938697e-03 0.000000e+00 -8.161880e-03 1.682443e-02 0.000000e+00 -1.825617e-02 2.667100e-03 0.000000e+00 -1.253403e-02 2.373363e-03 0.000000e+00 -1.288663e-02 2.336837e-03 0.000000e+00 -1.233590e-02 2.693943e-03 0.000000e+00 -1.315607e-02 2.673423e-03 0.000000e+00 -6.811970e-03 1.365983e-02 0.000000e+00 -1.711017e-02 5.774600e-03 0.000000e+00 -3.930453e-04 3.624643e-03 0.000000e+00 -1.173653e-02 3.380237e-03 0.000000e+00 -1.300040e-02 1.071463e-02 0.000000e+00 1.061252e-02 1.415900e-02 0.000000e+00 -1.582760e-02 7.009580e-03 0.000000e+00 -1.619673e-02 6.166447e-03 0.000000e+00 -6.036470e-03 2.818337e-03 0.000000e+00 -1.535920e-02 2.569007e-03 0.000000e+00 -2.865293e-03 6.514370e-03 0.000000e+00 -1.187350e-02 1.296927e-02 0.000000e+00 -1.065296e-02 1.372040e-02 0.000000e+00 -1.184537e-02 1.167157e-02 0.000000e+00 -1.891530e-02 3.224713e-03 0.000000e+00 -7.420233e-03 2.372283e-03 0.000000e+00 -7.764477e-03 2.356900e-03 0.000000e+00 -7.193037e-03 2.691877e-03 0.000000e+00 3.727220e-03 7.854223e-03 0.000000e+00 1.248573e-02 8.135577e-03 0.000000e+00 1.194527e-02 1.640010e-02 0.000000e+00 -4.269800e-03 2.476160e-03 0.000000e+00 -1.788833e-02 4.352280e-03 0.000000e+00 -6.495797e-03 2.888003e-03 0.000000e+00 -9.475977e-04 3.883497e-03 0.000000e+00 -5.739203e-03 3.297240e-03 0.000000e+00 1.223147e-02 9.438670e-03 0.000000e+00 -6.610013e-03 3.399960e-03 0.000000e+00 -3.599217e-03 1.270117e-02 0.000000e+00 -1.723153e-02 2.626887e-03 0.000000e+00 -3.959640e-03 2.772527e-03 0.000000e+00 -9.736680e-03 1.756013e-03 0.000000e+00 -1.840017e-02 3.179683e-03 0.000000e+00 -5.184983e-03 3.210377e-03 0.000000e+00 6.821800e-03 1.312750e-02 0.000000e+00 -1.200188e-03 2.899803e-03 0.000000e+00 -1.387831e-03 3.452787e-03 0.000000e+00 -4.043500e-03 3.305787e-03 0.000000e+00 -1.438377e-02 8.331100e-03 0.000000e+00 -1.384543e-02 3.556480e-03 0.000000e+00 -1.755063e-02 2.919223e-03 0.000000e+00 -1.744230e-02 3.436230e-03 0.000000e+00 -8.493413e-03 3.288777e-03 0.000000e+00 -1.473227e-02 7.242393e-03 0.000000e+00 -1.468030e-02 2.832790e-03 0.000000e+00 -1.057470e-03 4.532543e-03 0.000000e+00 -6.125120e-03 3.665847e-03 0.000000e+00 -8.930457e-03 1.538460e-02 0.000000e+00 -4.699720e-03 3.569023e-03 0.000000e+00 -4.805580e-03 4.196547e-03 0.000000e+00 -1.134593e-02 3.706283e-03 0.000000e+00 -1.088463e-02 3.376973e-03 0.000000e+00 -1.791760e-02 3.673560e-03 0.000000e+00 -1.298827e-02 3.175387e-03 0.000000e+00 -1.252070e-02 3.159380e-03 0.000000e+00 1.148431e-03 5.901070e-03 0.000000e+00 -7.526313e-03 6.125930e-03 0.000000e+00 -6.348597e-03 1.218810e-02 0.000000e+00 9.944867e-03 1.307290e-02 0.000000e+00 1.089731e-02 1.185607e-02 0.000000e+00 -2.461100e-03 2.350120e-03 0.000000e+00 1.075313e-02 9.606397e-03 0.000000e+00 -1.222137e-02 3.559740e-03 0.000000e+00 -1.719517e-02 4.868093e-03 0.000000e+00 -4.620123e-04 5.063147e-03 0.000000e+00 -1.001478e-02 2.728000e-03 0.000000e+00 1.275373e-02 1.764527e-02 0.000000e+00 -7.362847e-03 3.119283e-03 0.000000e+00 -7.963500e-03 2.652733e-03 0.000000e+00 -4.845170e-03 1.176763e-02 0.000000e+00 -1.490040e-02 3.914223e-03 0.000000e+00 8.487523e-03 1.261080e-02 0.000000e+00 1.013637e-02 1.068235e-02 0.000000e+00 -8.229780e-03 1.401857e-02 0.000000e+00 8.653530e-03 1.097362e-02 0.000000e+00 2.589219e-03 1.276427e-02 0.000000e+00 -1.329927e-02 3.672343e-03 0.000000e+00 7.731677e-03 1.001202e-02 0.000000e+00 4.151930e-03 9.101213e-03 0.000000e+00 -9.338280e-03 1.308823e-02 0.000000e+00 -7.067137e-03 3.512507e-03 0.000000e+00 5.459317e-03 9.183357e-03 0.000000e+00 -2.366837e-02 7.629943e-03 0.000000e+00 -1.689370e-02 3.546017e-03 0.000000e+00 -1.918807e-02 2.742643e-03 0.000000e+00 3.843907e-03 1.169663e-02 0.000000e+00 -9.268630e-03 3.276373e-03 0.000000e+00 -8.832853e-03 3.555863e-03 0.000000e+00 -5.758563e-04 1.288380e-02 0.000000e+00 8.971070e-04 1.206880e-02 0.000000e+00 -2.024352e-03 1.207883e-02 0.000000e+00 -2.239873e-02 1.694233e-03 0.000000e+00 -1.432877e-02 4.114027e-03 0.000000e+00 -1.414667e-02 6.556673e-03 0.000000e+00 -1.801880e-03 2.471090e-03 0.000000e+00 -1.699353e-03 4.750107e-03 0.000000e+00 -6.133437e-03 4.232630e-03 0.000000e+00 -5.518310e-03 4.536950e-03 0.000000e+00 -1.044850e-02 3.660183e-03 0.000000e+00 -1.139543e-02 4.312073e-03 0.000000e+00 -1.434227e-03 2.540360e-03 0.000000e+00 -7.188567e-03 1.122603e-02 0.000000e+00 -7.302283e-03 4.046530e-03 0.000000e+00 -1.550540e-02 5.481517e-03 0.000000e+00 -2.167613e-03 2.672053e-03 0.000000e+00 -1.539767e-02 3.087490e-03 0.000000e+00 -1.581773e-02 3.286977e-03 0.000000e+00 -1.494727e-02 3.272157e-03 0.000000e+00 -1.067011e-02 1.124327e-02 0.000000e+00 -7.789067e-03 3.095523e-03 0.000000e+00 -8.048273e-03 3.466010e-03 0.000000e+00 -1.238680e-02 4.119857e-03 0.000000e+00 -1.299713e-02 4.216453e-03 0.000000e+00 2.680020e-03 7.454917e-03 0.000000e+00 -2.970020e-03 3.209820e-03 0.000000e+00 -7.857200e-03 4.023793e-03 0.000000e+00 -3.453007e-03 3.579857e-03 0.000000e+00 -3.493653e-03 4.179940e-03 0.000000e+00 -2.390450e-03 3.195033e-03 0.000000e+00 -4.606983e-03 1.039577e-02 0.000000e+00 -6.130560e-04 5.782130e-03 0.000000e+00 -1.266643e-02 9.575283e-03 0.000000e+00 -1.332287e-02 8.581087e-03 0.000000e+00 -1.268200e-02 7.725413e-03 0.000000e+00 -1.315730e-02 6.789707e-03 0.000000e+00 3.280390e-03 1.013619e-02 0.000000e+00 1.974900e-03 9.722170e-03 0.000000e+00 1.799240e-03 8.287883e-03 0.000000e+00 8.463053e-04 1.058714e-02 0.000000e+00 -9.626547e-03 3.592587e-03 0.000000e+00 -6.853477e-03 4.500767e-03 0.000000e+00 -5.055653e-03 6.331243e-03 0.000000e+00 -4.190007e-03 4.533393e-03 0.000000e+00 -1.195147e-02 4.546143e-03 0.000000e+00 -1.581953e-02 4.818047e-03 0.000000e+00 -1.003932e-02 3.326650e-03 0.000000e+00 -2.030290e-03 3.625170e-03 0.000000e+00 -3.204090e-03 9.853840e-03 0.000000e+00 -1.455067e-02 5.638930e-03 0.000000e+00 -1.039437e-02 4.353167e-03 0.000000e+00 -1.497640e-02 2.423243e-03 0.000000e+00 -1.088000e-02 4.675747e-03 0.000000e+00 -2.381790e-02 2.182400e-03 0.000000e+00 -9.383557e-03 1.190880e-02 0.000000e+00 -1.655773e-02 3.962253e-03 0.000000e+00 -5.784650e-03 9.531123e-03 0.000000e+00 -6.862807e-03 9.940920e-03 0.000000e+00 -8.335000e-03 4.442427e-03 0.000000e+00 -2.919210e-03 4.527097e-03 0.000000e+00 6.227577e-03 1.034767e-02 0.000000e+00 -1.867412e-03 1.060337e-02 0.000000e+00 -1.065447e-02 1.018453e-02 0.000000e+00 -1.149577e-02 9.473480e-03 0.000000e+00 -1.867620e-03 5.471200e-03 0.000000e+00 -1.376780e-03 5.972620e-03 0.000000e+00 -1.104653e-02 8.517377e-03 0.000000e+00 -1.157633e-02 7.763507e-03 0.000000e+00 -1.659587e-02 4.596470e-03 0.000000e+00 -7.007970e-03 5.068920e-03 0.000000e+00 -3.196677e-03 8.573187e-03 0.000000e+00 -9.762650e-03 4.616700e-03 0.000000e+00 -1.593513e-02 3.809570e-03 0.000000e+00 -1.327447e-02 4.932837e-03 0.000000e+00 -5.498397e-03 5.181830e-03 0.000000e+00 -9.607103e-03 5.344920e-03 0.000000e+00 -1.276360e-02 5.442600e-03 0.000000e+00 -1.263253e-02 6.207270e-03 0.000000e+00 -1.205093e-02 5.152503e-03 0.000000e+00 -8.290273e-03 5.111377e-03 0.000000e+00 -7.676610e-03 5.384690e-03 0.000000e+00 -3.055120e-03 5.228960e-03 0.000000e+00 -2.536117e-03 5.696400e-03 0.000000e+00 -2.506078e-04 6.572903e-03 0.000000e+00 -4.697180e-04 9.926680e-03 0.000000e+00 -4.262470e-03 5.236267e-03 0.000000e+00 -4.858130e-03 5.544300e-03 0.000000e+00 -3.702027e-03 5.584677e-03 0.000000e+00 -8.424880e-03 1.119940e-02 0.000000e+00 -1.090533e-02 5.383190e-03 0.000000e+00 -1.152023e-02 5.625877e-03 0.000000e+00 -1.026416e-02 5.788830e-03 0.000000e+00 6.173822e-04 6.719787e-03 0.000000e+00 -8.660552e-04 7.175573e-03 0.000000e+00 -8.764823e-03 1.001159e-02 0.000000e+00 -9.707867e-03 9.662257e-03 0.000000e+00 -1.029816e-02 6.652047e-03 0.000000e+00 -2.228497e-03 8.033143e-03 0.000000e+00 8.143252e-04 7.898173e-03 0.000000e+00 -1.405993e-02 4.946273e-03 0.000000e+00 5.483707e-03 1.182597e-02 0.000000e+00 -6.567883e-03 5.545747e-03 0.000000e+00 -5.981993e-03 5.589420e-03 0.000000e+00 -7.858340e-03 9.308147e-03 0.000000e+00 -1.526510e-03 6.728503e-03 0.000000e+00 -9.964460e-03 8.622287e-03 0.000000e+00 -8.919583e-03 5.619700e-03 0.000000e+00 -8.865513e-03 4.151730e-03 0.000000e+00 -2.231940e-03 4.273443e-03 0.000000e+00 -2.346527e-03 7.045053e-03 0.000000e+00 -4.443163e-03 7.905127e-03 0.000000e+00 -1.176603e-02 6.318157e-03 0.000000e+00 -9.404010e-03 4.189653e-03 0.000000e+00 -8.121687e-03 8.318447e-03 0.000000e+00 -5.628243e-03 8.321133e-03 0.000000e+00 -9.284763e-03 7.981923e-03 0.000000e+00 -4.370603e-03 6.874583e-03 0.000000e+00 -7.545610e-03 7.626290e-03 0.000000e+00 -1.546820e-02 4.252150e-03 0.000000e+00 -1.118513e-02 6.938687e-03 0.000000e+00 -3.260382e-04 8.671997e-03 0.000000e+00  </DataArray>
</Points>
<Cells>
 <DataArray type="Int32" Name="connectivity" format="ascii">0 1 2 3 4 5 6 7 8 9 10 11 12 13 14 15 16 17 18 19 20 21 22 23 24 25 26 27 28 29 30 31 32 33 34 35 36 37 38 39 40 41 42 43 44 45 46 47 48 49 50 51 52 53 54 55 56 57 58 59 60 61 62 63 64 65 66 67 68 69 70 71 72 73 74 75 76 77 78 79 80 81 82 83 84 85 86 87 88 89 90 91 92 93 94 95 96 97 98 99 100 101 102 103 104 105 106 107 108 109 110 111 112 113 114 115 116 117 118 119 120 121 122 123 124 125 126 127 128 129 130 131 132 133 134 135 136 137 138 139 140 141 142 143 144 145 146 147 148 149 150 151 152 153 154 155 156 157 158 159 160 161 162 163 164 165 166 167 168 169 170 171 172 173 174 175 176 177 178 179 180 181 182 183 184 185 186 187 188 189 190 191 192 193 194 195 196 197 198 199 200 201 202 203 204 205 206 207 208 209 210 211 212 213 214 215 216 217 218 219 220 221 222 223 224 225 226 227 228 229 230 231 232 233 234 235 236 237 238 239 240 241 242 243 244 245 246 247 248 249 250 251 252 253 254 255 256 257 258 259 260 261 262 263 264 265 266 267 268 269 270 271 272 273 274 275 276 277 278 279 280 281 282 283 284 285 286 287 288 289 290 291 292 293 294 295 296 297 298 299 300 301 302 303 304 305 306 307 308 309 310 311 312 313 314 315 316 317 318 319 320 321 322 323 324 325 326 327 328 329 330 331 332 333 334 335 336 337 338 339 340 341 342 343 344 345 346 347 348 349 350 351 352 353 354 355 356 357 358 359 360 361 362 363 364 365 366 367 368 369 370 371 372 373 374 375 376 377 378 379 380 381 382 383 384 385 386 387 388 389 390 391 392 393 394 395 396 397 398 399 400 401 402 403 404 405 406 407 408 409 410 411 412 413 414 415 416 417 418 419 420 421 422 423 424 425 426 427 428 429 430 431 432 433 434 435 436 437 438 439 440 441 442 443 444 445 446 447 448 449 450 451 452 453 454 455 456 457 458 459 460 461 462 463 464 465 466 467 468 469 470 471 472 473 474 475 476 477 478 479 480 481 482 483 484 485 486 487 488 489 490 491 492 493 494 495 496 497 498 499 500 501 502 503 504 505 506 507 508 509 510 511 512 513 514 515 516 517 518 519 520 521 522 523 524 525 526 527 528 529 530 531 532 533 534 535 536 537 538 539 540 541 542 543 544 545 546 547 548 549 550 551 552 553 554 555 556 557 558 559 560 561 562 563 564 565 566 567 568 569 570 571 572 573 574 575 576 577 578 579 580 581 582 583 584 585 586 587 588 589 590 591 592 593 594 595 596 597 598 599 600 601 602 603 604 605 606 607 608 609 610 611 612 613 614 615 616 617 618 619 620 621 622 623 624 625 626 627 628 629 630 631 632 633 634 635 636 637 638 639 640 641 642 643 644 645 646 647 648 649 650 651 652 653 654 655 656 657 658 659 660 661 662 663 664 665 666 667 668 669 670 671 672 673 674 675 676 677 678 679 680 681 682 683 684 685 686 687 688 689 690 691 692 693 694 695 696 697 698 699 700 701 702 703 704 705 706 707 708 709 710 711 712 713 714 715 716 717 718 719 720 721 722 723 724 725 726 727 728 729 730 731 732 733 734 735 736 737 738 739 740 741 742 743 744 745 746 747 748 749 750 751 752 753 754 755 756 757 758 759 760 761 762 763 764 765 766 767 768 769 770 771 772 773 774 775 776 777 778 779 780 781 782 783 784 785 786 787 788 789 790 791 792 793 794 795 796 797 798 799 800 801 802 803 804 805 806 807 808 809 810 811 812 813 814 815 816 817 818 819 820 821 822 823 824 825 826 827 828 829 830 831 832 833 834 835 836 837 838 839 840 841 842 843 844 845 846 847 848 849 850 851 852 853 854 855 856 857 858 859 860 861 862 863 864 865 866 867 868 869 870 871 872 873 874 875 876 877 878 879 880 881 882 883 884 885 886 887 888 889 890 891 892 893 894 895 896 897 898 899 900 901 902 903 904 905 906 907 908 909 910 911 912 913 914 915 916 917 918 919 920 921 922 923 924 925 926 927 928 929 930 931 932 933 934 935 936 937 938 939 940 941 942 943 944 945 946 947 948 949 950 951 952 953 954 955 956 957 958 959 960 961 962 963 964 965 966 967 968 969 970 971 972 973 974 975 976 977 978 979 980 981 982 983 984 985 986 987 988 989 990 991 992 993 994 995 996 997 998 999 1000 1001 1002 1003 1004 1005 1006 1007 1008 1009 1010 1011 1012 1013 1014 1015 1016 1017 1018 1019 1020 1021 1022 1023 1024 1025 1026 1027 1028 1029 1030 1031 1032 1033 1034 1035 1036 1037 1038 1039 1040 1041 1042 1043 1044 1045 1046 1047 1048 1049 1050 1051 1052 1053 1054 1055 1056 1057 1058 1059 1060 1061 1062 1063 1064 1065 1066 1067 1068 1069 1070 1071 1072 1073 1074 1075 1076 1077 1078 1079 1080 1081 1082 1083 1084 1085 1086 1087 1088 1089 1090 1091 1092 1093 1094 1095 1096 1097 1098 1099 1100 1101 1102 1103 1104 1105 1106 1107 1108 1109 1110 1111 1112 1113 1114 1115 1116 1117 1118 1119 1120 1121 1122 1123 1124 1125 1126 1127 1128 1129 1130 1131 1132 1133 1134 1135 1136 1137 1138 1139 1140 1141 1142 1143 1144 1145 1146 1147 1148 1149 1150 1151 1152 1153 1154 1155 1156 1157 1158 1159 1160 1161 1162 1163 1164 1165 1166 1167 1168 1169 1170 1171 1172 1173 1174 1175 1176 1177 1178 1179 1180 1181 1182 1183 1184 1185 1186  </DataArray>
 <DataArray type="Int32" Name="offsets" format="ascii">1 2 3 4 5 6 7 8 9 10 11 12 13 14 15 16 17 18 19 20 21 22 23 24 25 26 27 28 29 30 31 32 33 34 35 36 37 38 39 40 41 42 43 44 45 46 47 48 49 50 51 52 53 54 55 56 57 58 59 60 61 62 63 64 65 66 67 68 69 70 71 72 73 74 75 76 77 78 79 80 81 82 83 84 85 86 87 88 89 90 91 92 93 94 95 96 97 98 99 100 101 102 103 104 105 106 107 108 109 110 111 112 113 114 115 116 117 118 119 120 121 122 123 124 125 126 127 128 129 130 131 132 133 134 135 136 137 138 139 140 141 142 143 144 145 146 147 148 149 150 151 152 153 154 155 156 157 158 159 160 161 162 163 164 165 166 167 168 169 170 171 172 173 174 175 176 177 178 179 180 181 182 183 184 185 186 187 188 189 190 191 192 193 194 195 196 197 198 199 200 201 202 203 204 205 206 207 208 209 210 211 212 213 214 215 216 217 218 219 220 221 222 223 224 225 226 227 228 229 230 231 232 233 234 235 236 237 238 239 240 241 242 243 244 245 246 247 248 249 250 251 252 253 254 255 256 257 258 259 260 261 262 263 264 265 266 267 268 269 270 271 272 273 274 275 276 277 278 279 280 281 282 283 284 285 286 287 288 289 290 291 292 293 294 295 296 297 298 299 300 301 302 303 304 305 306 307 308 309 310 311 312 313 314 315 316 317 318 319 320 321 322 323 324 325 326 327 328 329 330 331 332 333 334 335 336 337 338 339 340 341 342 343 344 345 346 347 348 349 350 351 352 353 354 355 356 357 358 359 360 361 362 363 364 365 366 367 368 369 370 371 372 373 374 375 376 377 378 379 380 381 382 383 384 385 386 387 388 389 390 391 392 393 394 395 396 397 398 399 400 401 402 403 404 405 406 407 408 409 410 411 412 413 414 415 416 417 418 419 420 421 422 423 424 425 426 427 428 429 430 431 432 433 434 435 436 437 438 439 440 441 442 443 444 445 446 447 448 449 450 451 452 453 454 455 456 457 458 459 460 461 462 463 464 465 466 467 468 469 470 471 472 473 474 475 476 477 478 479 480 481 482 483 484 485 486 487 488 489 490 491 492 493 494 495 496 497 498 499 500 501 502 503 504 505 506 507 508 509 510 511 512 513 514 515 516 517 518 519 520 521 522 523 524 525 526 527 528 529 530 531 532 533 534 535 536 537 538 539 540 541 542 543 544 545 546 547 548 549 550 551 552 553 554 555 556 557 558 559 560 561 562 563 564 565 566 567 568 569 570 571 572 573 574 575 576 577 578 579 580 581 582 583 584 585 586 587 588 589 590 591 592 593 594 595 596 597 598 599 600 601 602 603 604 605 606 607 608 609 610 611 612 613 614 615 616 617 618 619 620 621 622 623 624 625 626 627 628 629 630 631 632 633 634 635 636 637 638 639 640 641 642 643 644 645 646 647 648 649 650 651 652 653 654 655 656 657 658 659 660 661 662 663 664 665 666 667 668 669 670 671 672 673 674 675 676 677 678 679 680 681 682 683 684 685 686 687 688 689 690 691 692 693 694 695 696 697 698 699 700 701 702 703 704 705 706 707 708 709 710 711 712 713 714 715 716 717 718 719 720 721 722 723 724 725 726 727 728 729 730 731 732 733 734 735 736 737 738 739 740 741 742 743 744 745 746 747 748 749 750 751 752 753 754 755 756 757 758 759 760 761 762 763 764 765 766 767 768 769 770 771 772 773 774 775 776 777 778 779 780 781 782 783 784 785 786 787 788 789 790 791 792 793 794 795 796 797 798 799 800 801 802 803 804 805 806 807 808 809 810 811 812 813 814 815 816 817 818 819 820 821 822 823 824 825 826 827 828 829 830 831 832 833 834 835 836 837 838 839 840 841 842 843 844 845 846 847 848 849 850 851 852 853 854 855 856 857 858 859 860 861 862 863 864 865 866 867 868 869 870 871 872 873 874 875 876 877 878 879 880 881 882 883 884 885 886 887 888 889 890 891 892 893 894 895 896 897 898 899 900 901 902 903 904 905 906 907 908 909 910 911 912 913 914 915 916 917 918 919 920 921 922 923 924 925 926 927 928 929 930 931 932 933 934 935 936 937 938 939 940 941 942 943 944 945 946 947 948 949 950 951 952 953 954 955 956 957 958 959 960 961 962 963 964 965 966 967 968 969 970 971 972 973 974 975 976 977 978 979 980 981 982 983 984 985 986 987 988 989 990 991 992 993 994 995 996 997 998 999 1000 1001 1002 1003 1004 1005 1006 1007 1008 1009 1010 1011 1012 1013 1014 1015 1016 1017 1018 1019 1020 1021 1022 1023 1024 1025 1026 1027 1028 1029 1030 1031 1032 1033 1034 1035 1036 1037 1038 1039 1040 1041 1042 1043 1044 1045 1046 1047 1048 1049 1050 1051 1052 1053 1054 1055 1056 1057 1058 1059 1060 1061 1062 1063 1064 1065 1066 1067 1068 1069 1070 1071 1072 1073 1074 1075 1076 1077 1078 1079 1080 1081 1082 1083 1084 1085 1086 1087 1088 1089 1090 1091 1092 1093 1094 1095 1096 1097 1098 1099 1100 1101 1102 1103 1104 1105 1106 1107 1108 1109 1110 1111 1112 1113 1114 1115 1116 1117 1118 1119 1120 1121 1122 1123 1124 1125 1126 1127 1128 1129 1130 1131 1132 1133 1134 1135 1136 1137 1138 1139 1140 1141 1142 1143 1144 1145 1146 1147 1148 1149 1150 1151 1152 1153 1154 1155 1156 1157 1158 1159 1160 1161 1162 1163 1164 1165 1166 1167 1168 1169 1170 1171 1172 1173 1174 1175 1176 1177 1178 1179 1180 1181 1182 1183 1184 1185 1186 1187  </DataArray>
 <DataArray type="UInt8" Name="types" format="ascii">1 1 1 1 1 1 1 1 1 1 1 1 1 1 1 1 1 1 1 1 1 1 1 1 1 1 1 1 1 1 1 1 1 1 1 1 1 1 1 1 1 1 1 1 1 1 1 1 1 1 1 1 1 1 1 1 1 1 1 1 1 1 1 1 1 1 1 1 1 1 1 1 1 1 1 1 1 1 1 1 1 1 1 1 1 1 1 1 1 1 1 1 1 1 1 1 1 1 1 1 1 1 1 1 1 1 1 1 1 1 1 1 1 1 1 1 1 1 1 1 1 1 1 1 1 1 1 1 1 1 1 1 1 1 1 1 1 1 1 1 1 1 1 1 1 1 1 1 1 1 1 1 1 1 1 1 1 1 1 1 1 1 1 1 1 1 1 1 1 1 1 1 1 1 1 1 1 1 1 1 1 1 1 1 1 1 1 1 1 1 1 1 1 1 1 1 1 1 1 1 1 1 1 1 1 1 1 1 1 1 1 1 1 1 1 1 1 1 1 1 1 1 1 1 1 1 1 1 1 1 1 1 1 1 1 1 1 1 1 1 1 1 1 1 1 1 1 1 1 1 1 1 1 1 1 1 1 1 1 1 1 1 1 1 1 1 1 1 1 1 1 1 1 1 1 1 1 1 1 1 1 1 1 1 1 1 1 1 1 1 1 1 1 1 1 1 1 1 1 1 1 1 1 1 1 1 1 1 1 1 1 1 1 1 1 1 1 1 1 1 1 1 1 1 1 1 1 1 1 1 1 1 1 1 1 1 1 1 1 1 1 1 1 1 1 1 1 1 1 1 1 1 1 1 1 1 1 1 1 1 1 1 1 1 1 1 1 1 1 1 1 1 1 1 1 1 1 1 1 1 1 1 1 1 1 1 1 1 1 1 1 1 1 1 1 1 1 1 1 1 1 1 1 1 1 1 1 1 1 1 1 1 1 1 1 1 1 1 1 1 1 1 1 1 1 1 1 1 1 1 1 1 1 1 1 1 1 1 1 1 1 1 1 1 1 1 1 1 1 1 1 1 1 1 1 1 1 1 1 1 1 1 1 1 1 1 1 1 1 1 1 1 1 1 1 1 1 1 1 1 1 1 1 1 1 1 1 1 1 1 1 1 1 1 1 1 1 1 1 1 1 1 1 1 1 1 1 1 1 1 1 1 1 1 1 1 1 1 1 1 1 1 1 1 1 1 1 1 1 1 1 1 1 1 1 1 1 1 1 1 1 1 1 1 1 1 1 1 1 1 1 1 1 1 1 1 1 1 1 1 1 1 1 1 1 1 1 1 1 1 1 1 1 1 1 1 1 1 1 1 1 1 1 1 1 1 1 1 1 1 1 1 1 1 1 1 1 1 1 1 1 1 1 1 1 1 1 1 1 1 1 1 1 1 1 1 1 1 1 1 1 1 1 1 1 1 1 1 1 1 1 1 1 1 1 1 1 1 1 1 1 1 1 1 1 1 1 1 1 1 1 1 1 1 1 1 1 1 1 1 1 1 1 1 1 1 1 1 1 1 1 1 1 1 1 1 1 1 1 1 1 1 1 1 1 1 1 1 1 1 1 1 1 1 1 1 1 1 1 1 1 1 1 1 1 1 1 1 1 1 1 1 1 1 1 1 1 1 1 1 1 1 1 1 1 1 1 1 1 1 1 1 1 1 1 1 1 1 1 1 1 1 1 1 1 1 1 1 1 1 1 1 1 1 1 1 1 1 1 1 1 1 1 1 1 1 1 1 1 1 1 1 1 1 1 1 1 1 1 1 1 1 1 1 1 1 1 1 1 1 1 1 1 1 1 1 1 1 1 1 1 1 1 1 1 1 1 1 1 1 1 1 1 1 1 1 1 1 1 1 1 1 1 1 1 1 1 1 1 1 1 1 1 1 1 1 1 1 1 1 1 1 1 1 1 1 1 1 1 1 1 1 1 1 1 1 1 1 1 1 1 1 1 1 1 1 1 1 1 1 1 1 1 1 1 1 1 1 1 1 1 1 1 1 1 1 1 1 1 1 1 1 1 1 1 1 1 1 1 1 1 1 1 1 1 1 1 1 1 1 1 1 1 1 1 1 1 1 1 1 1 1 1 1 1 1 1 1 1 1 1 1 1 1 1 1 1 1 1 1 1 1 1 1 1 1 1 1 1 1 1 1 1 1 1 1 1 1 1 1 1 1 1 1 1 1 1 1 1 1 1 1 1 1 1 1 1 1 1 1 1 1 1 1 1 1 1 1 1 1 1 1 1 1 1 1 1 1 1 1 1 1 1 1 1 1 1 1 1 1 1 1 1 1 1 1 1 1 1 1 1 1 1 1 1 1 1 1 1 1 1 1 1 1 1 1 1 1 1 1 1 1 1 1 1 1 1 1 1 1 1 1 1 1 1 1 1 1 1 1 1 1 1 1 1 1 1 1 1 1 1 1 1 1 1 1 1 1 1 1 1 1 1 1 1 1 1 1 1 1 1 1 1 1 1 1 1 1 1 1 1 1 1 1 1 1 1 1 1 1 1 1 1 1 1 1 1 1 1 1 1 1 1 1 1 1 1 1 1 1 1 1 1 1 1 1 1 1 1 1 1 1 1 1 1 1 1 1 1 1 1 1 1 1 1 1 1 1 1 1 1 1 1 1 1 1 1 1 1 1 1 1 1 1 1 1 1 1 1 1 1 1 1 1 1 1 1  </DataArray>
</Cells>
<PointData Scalars="" Vectors="IST_PrincipalStressTensor IST_PrincStressVector1 " Tensors="IST_StressTensor IST_StrainTensor " >
  <DataArray type="Float64" Name="IST_StressTensor" NumberOfComponents="9" format="ascii">-7.454027e+00 -2.958725e+00 0.000000e+00 -2.958725e+00 -5.922811e+01 0.000000e+00 0.000000e+00 0.000000e+00 0.000000e+00 -2.403998e+00 -1.342566e+00 0.000000e+00 -1.342566e+00 -5.293293e+01 0.000000e+00 0.000000e+00 0.000000e+00 0.000000e+00 2.317728e-01 -9.803449e-01 0.000000e+00 -9.803449e-01 -4.720136e+01 0.000000e+00 0.000000e+00 0.000000e+00 0.000000e+00 1.961089e+00 -8.736986e-01 0.000000e+00 -8.736986e-01 -4.177287e+01 0.000000e+00 0.000000e+00 0.000000e+00 0.000000e+00 3.588763e+00 -8.666086e-01 0.000000e+00 -8.666086e-01 -3.679579e+01 0.000000e+00 0.000000e+00 0.000000e+00 0.000000e+00 5.284856e+00 -8.856187e-01 0.000000e+00 -8.856187e-01 -3.194109e+01 0.000000e+00 0.000000e+00 0.000000e+00 0.000000e+00 7.177832e+00 -8.364434e-01 0.000000e+00 -8.364434e-01 -2.752138e+01 0.000000e+00 0.000000e+00 0.000000e+00 0.000000e+00 9.211339e+00 -8.685205e-01 0.000000e+00 -8.685205e-01 -2.330864e+01 0.000000e+00 0.000000e+00 0.000000e+00 0.000000e+00 1.145530e+01 -9.105686e-01 0.000000e+00 -9.105686e-01 -1.929123e+01 0.000000e+00 0.000000e+00 0.000000e+00 0.000000e+00 1.387576e+01 -9.687840e-01 0.000000e+00 -9.687840e-01 -1.542883e+01 0.000000e+00 0.000000e+00 0.000000e+00 0.000000e+00 1.644770e+01 -1.044567e+00 0.000000e+00 -1.044567e+00 -1.147064e+01 0.000000e+00 0.000000e+00 0.000000e+00 0.000000e+00 1.931340e+01 -1.061176e+00 0.000000e+00 -1.061176e+00 -7.755454e+00 0.000000e+00 0.000000e+00 0.000000e+00 0.000000e+00 2.240336e+01 -1.156217e+00 0.000000e+00 -1.156217e+00 -4.057196e+00 0.000000e+00 0.000000e+00 0.000000e+00 0.000000e+00 2.569692e+01 -1.226510e+00 0.000000e+00 -1.226510e+00 -2.972828e-02 0.000000e+00 0.000000e+00 0.000000e+00 0.000000e+00 2.937236e+01 -1.287914e+00 0.000000e+00 -1.287914e+00 3.948303e+00 0.000000e+00 0.000000e+00 0.000000e+00 0.000000e+00 3.330038e+01 -1.448195e+00 0.000000e+00 -1.448195e+00 8.483418e+00 0.000000e+00 0.000000e+00 0.000000e+00 0.000000e+00 3.767558e+01 -1.653777e+00 0.000000e+00 -1.653777e+00 1.336615e+01 0.000000e+00 0.000000e+00 0.000000e+00 0.000000e+00 4.276131e+01 -1.858124e+00 0.000000e+00 -1.858124e+00 1.838291e+01 0.000000e+00 0.000000e+00 0.000000e+00 0.000000e+00 4.849874e+01 -1.899859e+00 0.000000e+00 -1.899859e+00 2.466073e+01 0.000000e+00 0.000000e+00 0.000000e+00 0.000000e+00 5.532034e+01 -2.527849e+00 0.000000e+00 -2.527849e+00 3.166493e+01 0.000000e+00 0.000000e+00 0.000000e+00 0.000000e+00 6.391606e+01 -3.274901e+00 0.000000e+00 -3.274901e+00 4.015273e+01 0.000000e+00 0.000000e+00 0.000000e+00 0.000000e+00 7.567888e+01 -4.314879e+00 0.000000e+00 -4.314879e+00 5.159997e+01 0.000000e+00 0.000000e+00 0.000000e+00 0.000000e+00 9.363208e+01 -7.496559e+00 0.000000e+00 -7.496559e+00 6.787378e+01 0.000000e+00 0.000000e+00 0.000000e+00 0.000000e+00 1.279053e+02 -1.822370e+01 0.000000e+00 -1.822370e+01 9.902589e+01 0.000000e+00 0.000000e+00 0.000000e+00 0.000000e+00 1.943019e+02 -5.805021e+01 0.000000e+00 -5.805021e+01 1.994777e+02 0.000000e+00 0.000000e+00 0.000000e+00 0.000000e+00 2.156807e+01 1.113634e+00 0.000000e+00 1.113634e+00 7.345947e-01 0.000000e+00 0.000000e+00 0.000000e+00 0.000000e+00 1.890624e+01 1.276556e+00 0.000000e+00 1.276556e+00 -3.127397e-01 0.000000e+00 0.000000e+00 0.000000e+00 0.000000e+00 1.459333e+01 1.718931e+00 0.000000e+00 1.718931e+00 -1.940722e-01 0.000000e+00 0.000000e+00 0.000000e+00 0.000000e+00 7.527460e+00 2.300527e+00 0.000000e+00 2.300527e+00 3.742781e-01 0.000000e+00 0.000000e+00 0.000000e+00 0.000000e+00 9.204809e+00 2.688034e+00 0.000000e+00 2.688034e+00 1.046526e+00 0.000000e+00 0.000000e+00 0.000000e+00 0.000000e+00 1.610301e+01 5.992114e+00 0.000000e+00 5.992114e+00 2.913864e+00 0.000000e+00 0.000000e+00 0.000000e+00 0.000000e+00 1.885958e+01 4.185073e+00 0.000000e+00 4.185073e+00 2.143012e+00 0.000000e+00 0.000000e+00 0.000000e+00 0.000000e+00 4.608431e+00 2.229810e+00 0.000000e+00 2.229810e+00 3.831427e-01 0.000000e+00 0.000000e+00 0.000000e+00 0.000000e+00 -3.580128e+00 1.194801e+00 0.000000e+00 1.194801e+00 1.323800e+00 0.000000e+00 0.000000e+00 0.000000e+00 0.000000e+00 -3.216384e+00 -6.910530e-01 0.000000e+00 -6.910530e-01 4.244585e-01 0.000000e+00 0.000000e+00 0.000000e+00 0.000000e+00 -2.888136e-01 -2.976819e-01 0.000000e+00 -2.976819e-01 -3.068226e-01 0.000000e+00 0.000000e+00 0.000000e+00 0.000000e+00 -8.078335e-02 -3.253575e-01 0.000000e+00 -3.253575e-01 -1.211700e+00 0.000000e+00 0.000000e+00 0.000000e+00 0.000000e+00 3.169332e-01 2.928315e-01 0.000000e+00 2.928315e-01 -1.821974e+00 0.000000e+00 0.000000e+00 0.000000e+00 0.000000e+00 -2.328560e-02 5.700634e-01 0.000000e+00 5.700634e-01 2.024234e-01 0.000000e+00 0.000000e+00 0.000000e+00 0.000000e+00 -2.418794e-01 2.075009e-01 0.000000e+00 2.075009e-01 1.841831e+00 0.000000e+00 0.000000e+00 0.000000e+00 0.000000e+00 -1.255022e-01 -3.203785e-01 0.000000e+00 -3.203785e-01 1.070027e+00 0.000000e+00 0.000000e+00 0.000000e+00 0.000000e+00 1.093300e-01 -2.735314e-01 0.000000e+00 -2.735314e-01 2.886143e-01 0.000000e+00 0.000000e+00 0.000000e+00 0.000000e+00 2.726419e-02 -3.468071e-01 0.000000e+00 -3.468071e-01 1.649976e-01 0.000000e+00 0.000000e+00 0.000000e+00 0.000000e+00 2.995716e-01 -3.248411e-01 0.000000e+00 -3.248411e-01 -1.049334e-01 0.000000e+00 0.000000e+00 0.000000e+00 0.000000e+00 9.285278e-01 -1.807572e-01 0.000000e+00 -1.807572e-01 8.482451e-03 0.000000e+00 0.000000e+00 0.000000e+00 0.000000e+00 1.418309e+00 5.634293e-02 0.000000e+00 5.634293e-02 -5.534999e-01 0.000000e+00 0.000000e+00 0.000000e+00 0.000000e+00 -1.566061e+00 1.349967e+00 0.000000e+00 1.349967e+00 -6.687650e-01 0.000000e+00 0.000000e+00 0.000000e+00 0.000000e+00 -1.198716e+01 2.798757e+00 0.000000e+00 2.798757e+00 -3.279072e-01 0.000000e+00 0.000000e+00 0.000000e+00 0.000000e+00 -2.573699e+01 3.034562e+00 0.000000e+00 3.034562e+00 5.382711e-01 0.000000e+00 0.000000e+00 0.000000e+00 0.000000e+00 -3.550272e+01 1.514567e+00 0.000000e+00 1.514567e+00 2.013742e+00 0.000000e+00 0.000000e+00 0.000000e+00 0.000000e+00 -2.720695e+01 -3.403507e+00 0.000000e+00 -3.403507e+00 2.735593e+00 0.000000e+00 0.000000e+00 0.000000e+00 0.000000e+00 -1.266777e+01 -5.161030e+00 0.000000e+00 -5.161030e+00 5.915033e-01 0.000000e+00 0.000000e+00 0.000000e+00 0.000000e+00 -2.069573e+00 -1.942949e+00 0.000000e+00 -1.942949e+00 -1.698966e+00 0.000000e+00 0.000000e+00 0.000000e+00 0.000000e+00 -9.428233e+00 -4.586796e+00 0.000000e+00 -4.586796e+00 -1.408209e+00 0.000000e+00 0.000000e+00 0.000000e+00 0.000000e+00 -1.690861e+00 -1.863224e+00 0.000000e+00 -1.863224e+00 -1.853878e+00 0.000000e+00 0.000000e+00 0.000000e+00 0.000000e+00 -5.081656e-01 -5.011155e+00 0.000000e+00 -5.011155e+00 -1.126188e+01 0.000000e+00 0.000000e+00 0.000000e+00 0.000000e+00 8.841222e-01 1.508990e+00 0.000000e+00 1.508990e+00 -1.195595e+00 0.000000e+00 0.000000e+00 0.000000e+00 0.000000e+00 1.873268e+00 7.655239e-01 0.000000e+00 7.655239e-01 -1.192554e+00 0.000000e+00 0.000000e+00 0.000000e+00 0.000000e+00 2.335184e+00 -2.135651e-01 0.000000e+00 -2.135651e-01 -6.292830e-01 0.000000e+00 0.000000e+00 0.000000e+00 0.000000e+00 2.092786e+00 -8.607469e-01 0.000000e+00 -8.607469e-01 4.746957e-01 0.000000e+00 0.000000e+00 0.000000e+00 0.000000e+00 1.100378e+00 -7.708056e-01 0.000000e+00 -7.708056e-01 1.820292e+00 0.000000e+00 0.000000e+00 0.000000e+00 0.000000e+00 3.535318e-02 5.886082e-01 0.000000e+00 5.886082e-01 3.063281e+00 0.000000e+00 0.000000e+00 0.000000e+00 0.000000e+00 2.661740e-02 2.464561e+00 0.000000e+00 2.464561e+00 3.530596e+00 0.000000e+00 0.000000e+00 0.000000e+00 0.000000e+00 2.674150e-01 5.098643e+00 0.000000e+00 5.098643e+00 3.352540e+00 0.000000e+00 0.000000e+00 0.000000e+00 0.000000e+00 1.184259e+00 7.628696e+00 0.000000e+00 7.628696e+00 2.926377e+00 0.000000e+00 0.000000e+00 0.000000e+00 0.000000e+00 4.327145e+00 9.960633e+00 0.000000e+00 9.960633e+00 2.193236e+00 0.000000e+00 0.000000e+00 0.000000e+00 0.000000e+00 5.964693e+00 1.099557e+01 0.000000e+00 1.099557e+01 1.044175e+00 0.000000e+00 0.000000e+00 0.000000e+00 0.000000e+00 6.574925e+00 1.130657e+01 0.000000e+00 1.130657e+01 5.164345e-02 0.000000e+00 0.000000e+00 0.000000e+00 0.000000e+00 6.019616e+00 1.111312e+01 0.000000e+00 1.111312e+01 -4.151201e-01 0.000000e+00 0.000000e+00 0.000000e+00 0.000000e+00 4.097536e+00 1.080336e+01 0.000000e+00 1.080336e+01 -5.269182e-01 0.000000e+00 0.000000e+00 0.000000e+00 0.000000e+00 1.410235e+00 1.077450e+01 0.000000e+00 1.077450e+01 -4.616835e-01 0.000000e+00 0.000000e+00 0.000000e+00 0.000000e+00 -1.329951e+00 1.133294e+01 0.000000e+00 1.133294e+01 -3.306462e-01 0.000000e+00 0.000000e+00 0.000000e+00 0.000000e+00 -2.705115e+00 1.224853e+01 0.000000e+00 1.224853e+01 -1.016672e+00 0.000000e+00 0.000000e+00 0.000000e+00 0.000000e+00 -2.631004e+00 1.249743e+01 0.000000e+00 1.249743e+01 -2.585429e+00 0.000000e+00 0.000000e+00 0.000000e+00 0.000000e+00 -1.380915e+00 1.156814e+01 0.000000e+00 1.156814e+01 -4.342374e+00 0.000000e+00 0.000000e+00 0.000000e+00 0.000000e+00 2.455688e-02 9.642481e+00 0.000000e+00 9.642481e+00 -5.555239e+00 0.000000e+00 0.000000e+00 0.000000e+00 0.000000e+00 9.333637e-01 7.508102e+00 0.000000e+00 7.508102e+00 -6.270315e+00 0.000000e+00 0.000000e+00 0.000000e+00 0.000000e+00 1.380512e+00 4.943342e+00 0.000000e+00 4.943342e+00 -6.608923e+00 0.000000e+00 0.000000e+00 0.000000e+00 0.000000e+00 1.077914e+00 2.461480e+00 0.000000e+00 2.461480e+00 -6.009000e+00 0.000000e+00 0.000000e+00 0.000000e+00 0.000000e+00 1.573183e-01 6.764091e-01 0.000000e+00 6.764091e-01 -4.841233e+00 0.000000e+00 0.000000e+00 0.000000e+00 0.000000e+00 -1.078512e+00 3.184418e-01 0.000000e+00 3.184418e-01 -2.916961e+00 0.000000e+00 0.000000e+00 0.000000e+00 0.000000e+00 -1.375379e+00 8.051076e-01 0.000000e+00 8.051076e-01 -1.763919e+00 0.000000e+00 0.000000e+00 0.000000e+00 0.000000e+00 -9.152224e-01 1.365895e+00 0.000000e+00 1.365895e+00 -1.215971e+00 0.000000e+00 0.000000e+00 0.000000e+00 0.000000e+00 -1.331699e-01 1.660948e+00 0.000000e+00 1.660948e+00 -1.134187e+00 0.000000e+00 0.000000e+00 0.000000e+00 0.000000e+00 5.246839e-03 -3.716527e-01 0.000000e+00 -3.716527e-01 -3.095929e-01 0.000000e+00 0.000000e+00 0.000000e+00 0.000000e+00 -1.244416e+01 -2.556305e+00 0.000000e+00 -2.556305e+00 -6.072514e+01 0.000000e+00 0.000000e+00 0.000000e+00 0.000000e+00 -4.389886e+00 -1.889046e+00 0.000000e+00 -1.889046e+00 -5.619249e+01 0.000000e+00 0.000000e+00 0.000000e+00 0.000000e+00 -3.344736e+00 -1.325853e+00 0.000000e+00 -1.325853e+00 -5.665536e+01 0.000000e+00 0.000000e+00 0.000000e+00 0.000000e+00 -1.958858e+00 -5.418546e-01 0.000000e+00 -5.418546e-01 -5.403077e+01 0.000000e+00 0.000000e+00 0.000000e+00 0.000000e+00 -8.944482e-01 -1.094555e+00 0.000000e+00 -1.094555e+00 -5.002913e+01 0.000000e+00 0.000000e+00 0.000000e+00 0.000000e+00 4.218338e-03 -6.731857e-02 0.000000e+00 -6.731857e-02 -4.844019e+01 0.000000e+00 0.000000e+00 0.000000e+00 0.000000e+00 1.119850e+00 -9.274918e-01 0.000000e+00 -9.274918e-01 -4.436668e+01 0.000000e+00 0.000000e+00 0.000000e+00 0.000000e+00 2.750208e+00 -8.575463e-01 0.000000e+00 -8.575463e-01 -3.920054e+01 0.000000e+00 0.000000e+00 0.000000e+00 0.000000e+00 4.406733e+00 -9.102850e-01 0.000000e+00 -9.102850e-01 -3.431212e+01 0.000000e+00 0.000000e+00 0.000000e+00 0.000000e+00 3.886283e+00 7.269229e-03 0.000000e+00 7.269229e-03 -3.552763e+01 0.000000e+00 0.000000e+00 0.000000e+00 0.000000e+00 4.917341e+00 -3.602148e-02 0.000000e+00 -3.602148e-02 -3.311364e+01 0.000000e+00 0.000000e+00 0.000000e+00 0.000000e+00 6.191923e+00 -8.508977e-01 0.000000e+00 -8.508977e-01 -2.962327e+01 0.000000e+00 0.000000e+00 0.000000e+00 0.000000e+00 8.213039e+00 -8.469985e-01 0.000000e+00 -8.469985e-01 -2.551242e+01 0.000000e+00 0.000000e+00 0.000000e+00 0.000000e+00 1.028924e+01 -8.935044e-01 0.000000e+00 -8.935044e-01 -2.122145e+01 0.000000e+00 0.000000e+00 0.000000e+00 0.000000e+00 1.261946e+01 -9.493346e-01 0.000000e+00 -9.493346e-01 -1.728874e+01 0.000000e+00 0.000000e+00 0.000000e+00 0.000000e+00 1.192568e+01 -2.482699e-01 0.000000e+00 -2.482699e-01 -1.827285e+01 0.000000e+00 0.000000e+00 0.000000e+00 0.000000e+00 1.318330e+01 -3.100682e-01 0.000000e+00 -3.100682e-01 -1.633864e+01 0.000000e+00 0.000000e+00 0.000000e+00 0.000000e+00 1.515555e+01 -1.011549e+00 0.000000e+00 -1.011549e+00 -1.350515e+01 0.000000e+00 0.000000e+00 0.000000e+00 0.000000e+00 1.783915e+01 -1.046246e+00 0.000000e+00 -1.046246e+00 -9.565730e+00 0.000000e+00 0.000000e+00 0.000000e+00 0.000000e+00 2.082974e+01 -1.100177e+00 0.000000e+00 -1.100177e+00 -5.924940e+00 0.000000e+00 0.000000e+00 0.000000e+00 0.000000e+00 1.994582e+01 -4.460429e-01 0.000000e+00 -4.460429e-01 -6.853242e+00 0.000000e+00 0.000000e+00 0.000000e+00 0.000000e+00 2.142475e+01 -4.767266e-01 0.000000e+00 -4.767266e-01 -4.996251e+00 0.000000e+00 0.000000e+00 0.000000e+00 0.000000e+00 2.404302e+01 -1.189356e+00 0.000000e+00 -1.189356e+00 -2.139381e+00 0.000000e+00 0.000000e+00 0.000000e+00 0.000000e+00 2.746681e+01 -1.240186e+00 0.000000e+00 -1.240186e+00 2.022235e+00 0.000000e+00 0.000000e+00 0.000000e+00 0.000000e+00 3.131435e+01 -1.369327e+00 0.000000e+00 -1.369327e+00 6.090716e+00 0.000000e+00 0.000000e+00 0.000000e+00 0.000000e+00 3.009356e+01 -6.277956e-01 0.000000e+00 -6.277956e-01 4.991771e+00 0.000000e+00 0.000000e+00 0.000000e+00 0.000000e+00 3.209500e+01 -6.162115e-01 0.000000e+00 -6.162115e-01 7.213026e+00 0.000000e+00 0.000000e+00 0.000000e+00 0.000000e+00 3.541351e+01 -1.545274e+00 0.000000e+00 -1.545274e+00 1.092237e+01 0.000000e+00 0.000000e+00 0.000000e+00 0.000000e+00 3.624920e+01 -7.573070e-01 0.000000e+00 -7.573070e-01 1.201881e+01 0.000000e+00 0.000000e+00 0.000000e+00 0.000000e+00 4.016247e+01 -1.766057e+00 0.000000e+00 -1.766057e+00 1.572611e+01 0.000000e+00 0.000000e+00 0.000000e+00 0.000000e+00 4.547125e+01 -1.887306e+00 0.000000e+00 -1.887306e+00 2.149147e+01 0.000000e+00 0.000000e+00 0.000000e+00 0.000000e+00 5.186165e+01 -2.065017e+00 0.000000e+00 -2.065017e+00 2.786154e+01 0.000000e+00 0.000000e+00 0.000000e+00 0.000000e+00 4.972756e+01 -9.939529e-01 0.000000e+00 -9.939529e-01 2.617932e+01 0.000000e+00 0.000000e+00 0.000000e+00 0.000000e+00 5.238132e+01 -1.111968e+00 0.000000e+00 -1.111968e+00 2.946140e+01 0.000000e+00 0.000000e+00 0.000000e+00 0.000000e+00 5.936126e+01 -2.871993e+00 0.000000e+00 -2.871993e+00 3.564318e+01 0.000000e+00 0.000000e+00 0.000000e+00 0.000000e+00 6.931429e+01 -3.783096e+00 0.000000e+00 -3.783096e+00 4.519587e+01 0.000000e+00 0.000000e+00 0.000000e+00 0.000000e+00 8.360749e+01 -5.334533e+00 0.000000e+00 -5.334533e+00 5.892308e+01 0.000000e+00 0.000000e+00 0.000000e+00 0.000000e+00 1.074474e+02 -1.124176e+01 0.000000e+00 -1.124176e+01 8.050964e+01 0.000000e+00 0.000000e+00 0.000000e+00 0.000000e+00 8.986852e+01 -5.250567e+00 0.000000e+00 -5.250567e+00 7.115017e+01 0.000000e+00 0.000000e+00 0.000000e+00 0.000000e+00 9.687310e+01 -8.350464e+00 0.000000e+00 -8.350464e+00 8.346813e+01 0.000000e+00 0.000000e+00 0.000000e+00 0.000000e+00 1.581851e+02 -3.230672e+01 0.000000e+00 -3.230672e+01 1.318122e+02 0.000000e+00 0.000000e+00 0.000000e+00 0.000000e+00 3.384988e+01 8.052687e-01 0.000000e+00 8.052687e-01 -1.384655e-01 0.000000e+00 0.000000e+00 0.000000e+00 0.000000e+00 2.023418e+01 1.465041e-01 0.000000e+00 1.465041e-01 -1.206061e+00 0.000000e+00 0.000000e+00 0.000000e+00 0.000000e+00 2.034284e+01 1.012379e+00 0.000000e+00 1.012379e+00 -1.425028e-01 0.000000e+00 0.000000e+00 0.000000e+00 0.000000e+00 1.696548e+01 1.509503e+00 0.000000e+00 1.509503e+00 -1.938529e-01 0.000000e+00 0.000000e+00 0.000000e+00 0.000000e+00 1.161056e+01 2.013184e+00 0.000000e+00 2.013184e+00 -2.766803e-01 0.000000e+00 0.000000e+00 0.000000e+00 0.000000e+00 1.030048e+01 4.463496e+00 0.000000e+00 4.463496e+00 4.101786e-01 0.000000e+00 0.000000e+00 0.000000e+00 0.000000e+00 1.339734e+01 3.797723e+00 0.000000e+00 3.797723e+00 2.170475e+00 0.000000e+00 0.000000e+00 0.000000e+00 0.000000e+00 1.214292e+01 5.032217e+00 0.000000e+00 5.032217e+00 2.535025e+00 0.000000e+00 0.000000e+00 0.000000e+00 0.000000e+00 1.035103e+01 2.652222e+00 0.000000e+00 2.652222e+00 4.255611e-01 0.000000e+00 0.000000e+00 0.000000e+00 0.000000e+00 -4.788753e-02 1.887390e+00 0.000000e+00 1.887390e+00 1.040079e+00 0.000000e+00 0.000000e+00 0.000000e+00 0.000000e+00 -6.822254e-01 8.088696e-01 0.000000e+00 8.088696e-01 -5.138392e-01 0.000000e+00 0.000000e+00 0.000000e+00 0.000000e+00 -2.085935e+00 -3.864831e-01 0.000000e+00 -3.864831e-01 -3.495724e-01 0.000000e+00 0.000000e+00 0.000000e+00 0.000000e+00 -4.529591e+00 2.284009e-02 0.000000e+00 2.284009e-02 9.112436e-01 0.000000e+00 0.000000e+00 0.000000e+00 0.000000e+00 -1.365466e+00 -6.760529e-01 0.000000e+00 -6.760529e-01 -5.805208e-02 0.000000e+00 0.000000e+00 0.000000e+00 0.000000e+00 2.311120e-02 -3.867523e-01 0.000000e+00 -3.867523e-01 -1.083971e+00 0.000000e+00 0.000000e+00 0.000000e+00 0.000000e+00 3.043424e-01 -1.096917e-01 0.000000e+00 -1.096917e-01 -1.930890e+00 0.000000e+00 0.000000e+00 0.000000e+00 0.000000e+00 1.652686e-02 -3.001706e-02 0.000000e+00 -3.001706e-02 -1.453152e+00 0.000000e+00 0.000000e+00 0.000000e+00 0.000000e+00 1.817953e-01 5.063701e-01 0.000000e+00 5.063701e-01 -9.978812e-01 0.000000e+00 0.000000e+00 0.000000e+00 0.000000e+00 -1.943990e-01 4.150096e-01 0.000000e+00 4.150096e-01 1.177027e+00 0.000000e+00 0.000000e+00 0.000000e+00 0.000000e+00 -1.877459e-01 -7.547291e-02 0.000000e+00 -7.547291e-02 1.717701e+00 0.000000e+00 0.000000e+00 0.000000e+00 0.000000e+00 -1.188055e+01 2.963420e+00 0.000000e+00 2.963420e+00 1.439636e-03 0.000000e+00 0.000000e+00 0.000000e+00 0.000000e+00 -1.887336e+01 3.038736e+00 0.000000e+00 3.038736e+00 -6.944470e-02 0.000000e+00 0.000000e+00 0.000000e+00 0.000000e+00 3.233976e-01 -2.732886e-01 0.000000e+00 -2.732886e-01 1.107680e-01 0.000000e+00 0.000000e+00 0.000000e+00 0.000000e+00 2.558200e-02 2.012211e-01 0.000000e+00 2.012211e-01 1.601509e-01 0.000000e+00 0.000000e+00 0.000000e+00 0.000000e+00 7.337342e-01 6.467574e-01 0.000000e+00 6.467574e-01 -7.198552e-01 0.000000e+00 0.000000e+00 0.000000e+00 0.000000e+00 -1.495077e+00 9.095644e-01 0.000000e+00 9.095644e-01 1.088485e-01 0.000000e+00 0.000000e+00 0.000000e+00 0.000000e+00 -5.816854e+00 2.145579e+00 0.000000e+00 2.145579e+00 -6.453258e-01 0.000000e+00 0.000000e+00 0.000000e+00 0.000000e+00 -1.698968e+01 3.007266e+00 0.000000e+00 3.007266e+00 -2.355024e-01 0.000000e+00 0.000000e+00 0.000000e+00 0.000000e+00 -3.180137e+01 2.520732e+00 0.000000e+00 2.520732e+00 1.190532e+00 0.000000e+00 0.000000e+00 0.000000e+00 0.000000e+00 -2.227158e+01 -3.671521e+00 0.000000e+00 -3.671521e+00 -6.691011e-01 0.000000e+00 0.000000e+00 0.000000e+00 0.000000e+00 -3.444744e+01 -7.536632e-01 0.000000e+00 -7.536632e-01 2.724334e+00 0.000000e+00 0.000000e+00 0.000000e+00 0.000000e+00 -1.621646e+01 -4.010116e+00 0.000000e+00 -4.010116e+00 -1.098534e+00 0.000000e+00 0.000000e+00 0.000000e+00 0.000000e+00 1.667887e+00 8.107580e-01 0.000000e+00 8.107580e-01 -8.859655e-01 0.000000e+00 0.000000e+00 0.000000e+00 0.000000e+00 5.281388e-01 1.334659e+00 0.000000e+00 1.334659e+00 -9.371088e-01 0.000000e+00 0.000000e+00 0.000000e+00 0.000000e+00 2.376847e+00 -1.600684e-01 0.000000e+00 -1.600684e-01 -5.392431e-01 0.000000e+00 0.000000e+00 0.000000e+00 0.000000e+00 2.326305e+00 -1.078123e+00 0.000000e+00 -1.078123e+00 3.807879e-01 0.000000e+00 0.000000e+00 0.000000e+00 0.000000e+00 1.929651e+00 -1.516680e+00 0.000000e+00 -1.516680e+00 2.012735e+00 0.000000e+00 0.000000e+00 0.000000e+00 0.000000e+00 1.005347e+00 -7.099921e-01 0.000000e+00 -7.099921e-01 4.023286e+00 0.000000e+00 0.000000e+00 0.000000e+00 0.000000e+00 7.481958e-01 1.282464e+00 0.000000e+00 1.282464e+00 5.044886e+00 0.000000e+00 0.000000e+00 0.000000e+00 0.000000e+00 1.394278e+00 3.878963e+00 0.000000e+00 3.878963e+00 6.016827e+00 0.000000e+00 0.000000e+00 0.000000e+00 0.000000e+00 2.856411e+00 6.583854e+00 0.000000e+00 6.583854e+00 5.352618e+00 0.000000e+00 0.000000e+00 0.000000e+00 0.000000e+00 5.468843e+00 9.187268e+00 0.000000e+00 9.187268e+00 4.928336e+00 0.000000e+00 0.000000e+00 0.000000e+00 0.000000e+00 6.821959e+00 1.044368e+01 0.000000e+00 1.044368e+01 2.909584e+00 0.000000e+00 0.000000e+00 0.000000e+00 0.000000e+00 7.065022e+00 1.087657e+01 0.000000e+00 1.087657e+01 1.368759e+00 0.000000e+00 0.000000e+00 0.000000e+00 0.000000e+00 6.234646e+00 1.118947e+01 0.000000e+00 1.118947e+01 2.474827e-01 0.000000e+00 0.000000e+00 0.000000e+00 0.000000e+00 4.718727e+00 1.133782e+01 0.000000e+00 1.133782e+01 -1.289131e-01 0.000000e+00 0.000000e+00 0.000000e+00 0.000000e+00 2.686353e+00 1.149531e+01 0.000000e+00 1.149531e+01 -1.393358e-01 0.000000e+00 0.000000e+00 0.000000e+00 0.000000e+00 3.025389e-01 1.182978e+01 0.000000e+00 1.182978e+01 -9.965363e-02 0.000000e+00 0.000000e+00 0.000000e+00 0.000000e+00 -1.800957e+00 1.234550e+01 0.000000e+00 1.234550e+01 -8.470325e-01 0.000000e+00 0.000000e+00 0.000000e+00 0.000000e+00 -3.088929e+00 1.258151e+01 0.000000e+00 1.258151e+01 -2.631741e+00 0.000000e+00 0.000000e+00 0.000000e+00 0.000000e+00 -3.443350e+00 1.209460e+01 0.000000e+00 1.209460e+01 -4.882094e+00 0.000000e+00 0.000000e+00 0.000000e+00 0.000000e+00 -2.877612e+00 1.061373e+01 0.000000e+00 1.061373e+01 -6.716821e+00 0.000000e+00 0.000000e+00 0.000000e+00 0.000000e+00 -1.912368e+00 8.523808e+00 0.000000e+00 8.523808e+00 -7.810072e+00 0.000000e+00 0.000000e+00 0.000000e+00 0.000000e+00 -8.634248e-01 6.159281e+00 0.000000e+00 6.159281e+00 -8.676283e+00 0.000000e+00 0.000000e+00 0.000000e+00 0.000000e+00 -3.804713e-01 3.453716e+00 0.000000e+00 3.453716e+00 -8.554382e+00 0.000000e+00 0.000000e+00 0.000000e+00 0.000000e+00 -6.144637e-01 1.178828e+00 0.000000e+00 1.178828e+00 -7.159756e+00 0.000000e+00 0.000000e+00 0.000000e+00 0.000000e+00 -1.333464e+00 -1.005780e-01 0.000000e+00 -1.005780e-01 -4.976215e+00 0.000000e+00 0.000000e+00 0.000000e+00 0.000000e+00 -1.618102e+00 2.963747e-02 0.000000e+00 2.963747e-02 -2.784418e+00 0.000000e+00 0.000000e+00 0.000000e+00 0.000000e+00 -1.300763e+00 6.747672e-01 0.000000e+00 6.747672e-01 -1.565494e+00 0.000000e+00 0.000000e+00 0.000000e+00 0.000000e+00 -5.741837e-01 1.219414e+00 0.000000e+00 1.219414e+00 -1.015843e+00 0.000000e+00 0.000000e+00 0.000000e+00 0.000000e+00 5.518256e+00 2.506208e+00 0.000000e+00 2.506208e+00 3.948293e+01 0.000000e+00 0.000000e+00 0.000000e+00 0.000000e+00 -9.603363e-01 -2.363869e-01 0.000000e+00 -2.363869e-01 -5.121673e+01 0.000000e+00 0.000000e+00 0.000000e+00 0.000000e+00 8.395552e-01 3.439594e-02 0.000000e+00 3.439594e-02 -4.569234e+01 0.000000e+00 0.000000e+00 0.000000e+00 0.000000e+00 2.418765e+00 4.135187e-02 0.000000e+00 4.135187e-02 -4.041606e+01 0.000000e+00 0.000000e+00 0.000000e+00 0.000000e+00 6.723324e+00 -1.230204e-01 0.000000e+00 -1.230204e-01 -2.858151e+01 0.000000e+00 0.000000e+00 0.000000e+00 0.000000e+00 5.830707e+00 -6.269758e-02 0.000000e+00 -6.269758e-02 -3.078574e+01 0.000000e+00 0.000000e+00 0.000000e+00 0.000000e+00 7.665742e+00 -1.465613e-01 0.000000e+00 -1.465613e-01 -2.651610e+01 0.000000e+00 0.000000e+00 0.000000e+00 0.000000e+00 9.682144e+00 -1.840037e-01 0.000000e+00 -1.840037e-01 -2.227609e+01 0.000000e+00 0.000000e+00 0.000000e+00 0.000000e+00 1.569426e+01 -3.255245e-01 0.000000e+00 -3.255245e-01 -1.242454e+01 0.000000e+00 0.000000e+00 0.000000e+00 0.000000e+00 1.436966e+01 -2.953751e-01 0.000000e+00 -2.953751e-01 -1.442361e+01 0.000000e+00 0.000000e+00 0.000000e+00 0.000000e+00 1.713030e+01 -4.020218e-01 0.000000e+00 -4.020218e-01 -1.049169e+01 0.000000e+00 0.000000e+00 0.000000e+00 0.000000e+00 2.474954e+01 -5.048758e-01 0.000000e+00 -5.048758e-01 -1.073693e+00 0.000000e+00 0.000000e+00 0.000000e+00 0.000000e+00 2.308995e+01 -5.029726e-01 0.000000e+00 -5.029726e-01 -3.068902e+00 0.000000e+00 0.000000e+00 0.000000e+00 0.000000e+00 2.653163e+01 -5.307227e-01 0.000000e+00 -5.307227e-01 1.002191e+00 0.000000e+00 0.000000e+00 0.000000e+00 0.000000e+00 3.409189e+01 -6.528835e-01 0.000000e+00 -6.528835e-01 9.584942e+00 0.000000e+00 0.000000e+00 0.000000e+00 0.000000e+00 3.858385e+01 -8.761519e-01 0.000000e+00 -8.761519e-01 1.442974e+01 0.000000e+00 0.000000e+00 0.000000e+00 0.000000e+00 4.408084e+01 -8.306433e-01 0.000000e+00 -8.306433e-01 1.983724e+01 0.000000e+00 0.000000e+00 0.000000e+00 0.000000e+00 6.055201e+01 -1.555097e+00 0.000000e+00 -1.555097e+00 3.750137e+01 0.000000e+00 0.000000e+00 0.000000e+00 0.000000e+00 5.637599e+01 -1.344127e+00 0.000000e+00 -1.344127e+00 3.332143e+01 0.000000e+00 0.000000e+00 0.000000e+00 0.000000e+00 6.518499e+01 -1.801249e+00 0.000000e+00 -1.801249e+00 4.217563e+01 0.000000e+00 0.000000e+00 0.000000e+00 0.000000e+00 7.700535e+01 -2.504158e+00 0.000000e+00 -2.504158e+00 5.448679e+01 0.000000e+00 0.000000e+00 0.000000e+00 0.000000e+00 9.830072e+01 -1.751389e+01 0.000000e+00 -1.751389e+01 1.351915e+02 0.000000e+00 0.000000e+00 0.000000e+00 0.000000e+00 1.009412e+02 -1.320588e+01 0.000000e+00 -1.320588e+01 1.018646e+02 0.000000e+00 0.000000e+00 0.000000e+00 0.000000e+00 2.685682e+01 1.445482e+00 0.000000e+00 1.445482e+00 -1.302578e-01 0.000000e+00 0.000000e+00 0.000000e+00 0.000000e+00 1.949935e+01 1.523103e+00 0.000000e+00 1.523103e+00 8.085165e-02 0.000000e+00 0.000000e+00 0.000000e+00 0.000000e+00 1.443767e+01 1.874812e+00 0.000000e+00 1.874812e+00 3.886768e-02 0.000000e+00 0.000000e+00 0.000000e+00 0.000000e+00 1.103708e+01 2.958277e+00 0.000000e+00 2.958277e+00 -2.800317e-01 0.000000e+00 0.000000e+00 0.000000e+00 0.000000e+00 3.722050e+00 1.790075e+00 0.000000e+00 1.790075e+00 -3.308308e-01 0.000000e+00 0.000000e+00 0.000000e+00 0.000000e+00 -2.219381e+00 -8.447746e-02 0.000000e+00 -8.447746e-02 -5.693827e-01 0.000000e+00 0.000000e+00 0.000000e+00 0.000000e+00 -1.324093e+00 -5.837465e-01 0.000000e+00 -5.837465e-01 -1.622141e-01 0.000000e+00 0.000000e+00 0.000000e+00 0.000000e+00 -2.319615e-02 3.529419e-01 0.000000e+00 3.529419e-01 -1.212584e+00 0.000000e+00 0.000000e+00 0.000000e+00 0.000000e+00 -6.239871e-02 5.967149e-01 0.000000e+00 5.967149e-01 -6.261141e-02 0.000000e+00 0.000000e+00 0.000000e+00 0.000000e+00 -2.076148e-02 -2.004218e-03 0.000000e+00 -2.004218e-03 5.725366e-01 0.000000e+00 0.000000e+00 0.000000e+00 0.000000e+00 -4.029555e+00 1.684166e+00 0.000000e+00 1.684166e+00 9.468101e-03 0.000000e+00 0.000000e+00 0.000000e+00 0.000000e+00 -2.121165e+01 2.606540e+00 0.000000e+00 2.606540e+00 -4.457199e-01 0.000000e+00 0.000000e+00 0.000000e+00 0.000000e+00 -2.506619e+01 -6.662217e-02 0.000000e+00 -6.662217e-02 -4.460834e-01 0.000000e+00 0.000000e+00 0.000000e+00 0.000000e+00 6.122467e-01 -4.405715e+00 0.000000e+00 -4.405715e+00 -1.460353e+01 0.000000e+00 0.000000e+00 0.000000e+00 0.000000e+00 1.081979e+01 -2.235274e-01 0.000000e+00 -2.235274e-01 -2.024105e+01 0.000000e+00 0.000000e+00 0.000000e+00 0.000000e+00 8.238210e+01 -3.519775e+00 0.000000e+00 -3.519775e+00 6.170124e+01 0.000000e+00 0.000000e+00 0.000000e+00 0.000000e+00 1.678140e+01 1.654719e+00 0.000000e+00 1.654719e+00 7.341285e-02 0.000000e+00 0.000000e+00 0.000000e+00 0.000000e+00 1.206590e+01 2.116282e+00 0.000000e+00 2.116282e+00 -1.036608e-01 0.000000e+00 0.000000e+00 0.000000e+00 0.000000e+00 -5.964386e-02 -2.132575e-01 0.000000e+00 -2.132575e-01 3.941967e-01 0.000000e+00 0.000000e+00 0.000000e+00 0.000000e+00 3.156774e+00 1.011772e-02 0.000000e+00 1.011772e-02 -3.794926e+01 0.000000e+00 0.000000e+00 0.000000e+00 0.000000e+00 1.714431e+00 6.476693e-02 0.000000e+00 6.476693e-02 -4.298322e+01 0.000000e+00 0.000000e+00 0.000000e+00 0.000000e+00 8.657610e+00 -1.189236e-01 0.000000e+00 -1.189236e-01 -2.439239e+01 0.000000e+00 0.000000e+00 0.000000e+00 0.000000e+00 1.852891e+01 -4.347939e-01 0.000000e+00 -4.347939e-01 -8.664330e+00 0.000000e+00 0.000000e+00 0.000000e+00 0.000000e+00 2.824184e+01 -6.091586e-01 0.000000e+00 -6.091586e-01 2.983232e+00 0.000000e+00 0.000000e+00 0.000000e+00 0.000000e+00 4.697245e+01 -8.305380e-01 0.000000e+00 -8.305380e-01 2.303853e+01 0.000000e+00 0.000000e+00 0.000000e+00 0.000000e+00 4.121353e+01 -9.075022e-01 0.000000e+00 -9.075022e-01 1.695433e+01 0.000000e+00 0.000000e+00 0.000000e+00 0.000000e+00 7.103654e+01 -1.916684e+00 0.000000e+00 -1.916684e+00 4.792462e+01 0.000000e+00 0.000000e+00 0.000000e+00 0.000000e+00 2.287646e+01 1.500646e+00 0.000000e+00 1.500646e+00 1.168779e-01 0.000000e+00 0.000000e+00 0.000000e+00 0.000000e+00 7.810216e+00 2.325805e+00 0.000000e+00 2.325805e+00 -9.192079e-02 0.000000e+00 0.000000e+00 0.000000e+00 0.000000e+00 -7.390319e-03 2.215040e-01 0.000000e+00 2.215040e-01 5.352499e-01 0.000000e+00 0.000000e+00 0.000000e+00 0.000000e+00 -1.054401e-04 5.931262e-01 0.000000e+00 5.931262e-01 -6.259253e-01 0.000000e+00 0.000000e+00 0.000000e+00 0.000000e+00 -7.467528e+00 2.388361e+00 0.000000e+00 2.388361e+00 -2.725644e-02 0.000000e+00 0.000000e+00 0.000000e+00 0.000000e+00 -2.437433e+01 1.684903e+00 0.000000e+00 1.684903e+00 -7.081373e-01 0.000000e+00 0.000000e+00 0.000000e+00 0.000000e+00 9.105254e-01 -1.855261e+00 0.000000e+00 -1.855261e+00 -4.593907e+01 0.000000e+00 0.000000e+00 0.000000e+00 0.000000e+00 2.349897e+00 -1.745891e+00 0.000000e+00 -1.745891e+00 -4.057616e+01 0.000000e+00 0.000000e+00 0.000000e+00 0.000000e+00 8.682083e+00 -1.931242e+00 0.000000e+00 -1.931242e+00 -2.439548e+01 0.000000e+00 0.000000e+00 0.000000e+00 0.000000e+00 6.655925e+00 -1.846800e+00 0.000000e+00 -1.846800e+00 -2.862305e+01 0.000000e+00 0.000000e+00 0.000000e+00 0.000000e+00 1.589418e+00 -1.803994e+00 0.000000e+00 -1.803994e+00 -4.330501e+01 0.000000e+00 0.000000e+00 0.000000e+00 0.000000e+00 2.331955e+00 -7.033850e-01 0.000000e+00 -7.033850e-01 -4.181627e+01 0.000000e+00 0.000000e+00 0.000000e+00 0.000000e+00 7.660164e+00 -1.860172e+00 0.000000e+00 -1.860172e+00 -2.640972e+01 0.000000e+00 0.000000e+00 0.000000e+00 0.000000e+00 7.203706e+00 -1.109856e+00 0.000000e+00 -1.109856e+00 -2.751627e+01 0.000000e+00 0.000000e+00 0.000000e+00 0.000000e+00 7.804936e+00 -1.152913e+00 0.000000e+00 -1.152913e+00 -2.545389e+01 0.000000e+00 0.000000e+00 0.000000e+00 0.000000e+00 5.645309e+00 -1.887203e+00 0.000000e+00 -1.887203e+00 -3.072338e+01 0.000000e+00 0.000000e+00 0.000000e+00 0.000000e+00 6.578855e+00 -1.069763e+00 0.000000e+00 -1.069763e+00 -2.965238e+01 0.000000e+00 0.000000e+00 0.000000e+00 0.000000e+00 1.852508e+01 -2.568634e+00 0.000000e+00 -2.568634e+00 -8.666204e+00 0.000000e+00 0.000000e+00 0.000000e+00 0.000000e+00 1.566776e+01 -2.503817e+00 0.000000e+00 -2.503817e+00 -1.251006e+01 0.000000e+00 0.000000e+00 0.000000e+00 0.000000e+00 8.533880e+01 -1.358944e+01 0.000000e+00 -1.358944e+01 6.476628e+01 0.000000e+00 0.000000e+00 0.000000e+00 0.000000e+00 1.698793e+01 -2.531888e+00 0.000000e+00 -2.531888e+00 -1.049902e+01 0.000000e+00 0.000000e+00 0.000000e+00 0.000000e+00 1.646230e+01 -1.773901e+00 0.000000e+00 -1.773901e+00 -1.149454e+01 0.000000e+00 0.000000e+00 0.000000e+00 0.000000e+00 1.772009e+01 -1.899530e+00 0.000000e+00 -1.899530e+00 -9.570108e+00 0.000000e+00 0.000000e+00 0.000000e+00 0.000000e+00 1.445967e+01 -2.396369e+00 0.000000e+00 -2.396369e+00 -1.444541e+01 0.000000e+00 0.000000e+00 0.000000e+00 0.000000e+00 1.468928e+01 -1.712282e+00 0.000000e+00 -1.712282e+00 -1.351372e+01 0.000000e+00 0.000000e+00 0.000000e+00 0.000000e+00 2.466295e+01 -3.085140e+00 0.000000e+00 -3.085140e+00 -1.012061e+00 0.000000e+00 0.000000e+00 0.000000e+00 0.000000e+00 2.823912e+01 -3.138504e+00 0.000000e+00 -3.138504e+00 3.016722e+00 0.000000e+00 0.000000e+00 0.000000e+00 0.000000e+00 2.641675e+01 -3.119550e+00 0.000000e+00 -3.119550e+00 9.555780e-01 0.000000e+00 0.000000e+00 0.000000e+00 0.000000e+00 2.545622e+01 -2.393933e+00 0.000000e+00 -2.393933e+00 -4.658994e-02 0.000000e+00 0.000000e+00 0.000000e+00 0.000000e+00 2.745471e+01 -2.372576e+00 0.000000e+00 -2.372576e+00 1.981644e+00 0.000000e+00 0.000000e+00 0.000000e+00 0.000000e+00 2.301915e+01 -2.974305e+00 0.000000e+00 -2.974305e+00 -3.106873e+00 0.000000e+00 0.000000e+00 0.000000e+00 0.000000e+00 2.337438e+01 -2.252295e+00 0.000000e+00 -2.252295e+00 -2.131332e+00 0.000000e+00 0.000000e+00 0.000000e+00 0.000000e+00 3.434833e+01 -3.825720e+00 0.000000e+00 -3.825720e+00 9.950231e+00 0.000000e+00 0.000000e+00 0.000000e+00 0.000000e+00 4.620611e+01 -4.830552e+00 0.000000e+00 -4.830552e+00 2.344212e+01 0.000000e+00 0.000000e+00 0.000000e+00 0.000000e+00 3.883392e+01 -4.378550e+00 0.000000e+00 -4.378550e+00 1.491177e+01 0.000000e+00 0.000000e+00 0.000000e+00 0.000000e+00 4.360476e+01 -4.858097e+00 0.000000e+00 -4.858097e+00 2.040143e+01 0.000000e+00 0.000000e+00 0.000000e+00 0.000000e+00 4.514465e+01 -3.743413e+00 0.000000e+00 -3.743413e+00 2.170061e+01 0.000000e+00 0.000000e+00 0.000000e+00 0.000000e+00 7.013607e+01 -9.716442e+00 0.000000e+00 -9.716442e+00 4.936287e+01 0.000000e+00 0.000000e+00 0.000000e+00 0.000000e+00 6.087555e+01 -7.837291e+00 0.000000e+00 -7.837291e+00 3.880595e+01 0.000000e+00 0.000000e+00 0.000000e+00 0.000000e+00 4.110385e+01 -4.676652e+00 0.000000e+00 -4.676652e+00 1.753655e+01 0.000000e+00 0.000000e+00 0.000000e+00 0.000000e+00 3.893388e+01 -3.575414e+00 0.000000e+00 -3.575414e+00 1.584014e+01 0.000000e+00 0.000000e+00 0.000000e+00 0.000000e+00 4.143126e+01 -3.678852e+00 0.000000e+00 -3.678852e+00 1.859110e+01 0.000000e+00 0.000000e+00 0.000000e+00 0.000000e+00 6.541260e+01 -8.880651e+00 0.000000e+00 -8.880651e+00 4.394599e+01 0.000000e+00 0.000000e+00 0.000000e+00 0.000000e+00 5.959545e+01 -6.550776e+00 0.000000e+00 -6.550776e+00 4.037381e+01 0.000000e+00 0.000000e+00 0.000000e+00 0.000000e+00 6.432052e+01 -7.219694e+00 0.000000e+00 -7.219694e+00 4.545198e+01 0.000000e+00 0.000000e+00 0.000000e+00 0.000000e+00 5.702558e+01 -6.820551e+00 0.000000e+00 -6.820551e+00 3.420838e+01 0.000000e+00 0.000000e+00 0.000000e+00 0.000000e+00 5.534411e+01 -5.757963e+00 0.000000e+00 -5.757963e+00 3.571002e+01 0.000000e+00 0.000000e+00 0.000000e+00 0.000000e+00 7.740578e+01 -1.093132e+01 0.000000e+00 -1.093132e+01 5.662071e+01 0.000000e+00 0.000000e+00 0.000000e+00 0.000000e+00 7.061703e+01 -7.721571e+00 0.000000e+00 -7.721571e+00 5.150624e+01 0.000000e+00 0.000000e+00 0.000000e+00 0.000000e+00 7.172705e+01 -9.984717e+00 0.000000e+00 -9.984717e+00 5.884886e+01 0.000000e+00 0.000000e+00 0.000000e+00 0.000000e+00 2.247735e+01 4.476602e+00 0.000000e+00 4.476602e+00 4.603540e-01 0.000000e+00 0.000000e+00 0.000000e+00 0.000000e+00 1.031375e+02 -2.648575e+01 0.000000e+00 -2.648575e+01 1.433951e+02 0.000000e+00 0.000000e+00 0.000000e+00 0.000000e+00 1.689096e+01 3.966268e+00 0.000000e+00 3.966268e+00 -1.647474e-01 0.000000e+00 0.000000e+00 0.000000e+00 0.000000e+00 2.694718e+01 5.796215e+00 0.000000e+00 5.796215e+00 1.814342e+00 0.000000e+00 0.000000e+00 0.000000e+00 0.000000e+00 2.590322e+01 4.876462e+00 0.000000e+00 4.876462e+00 1.838697e-01 0.000000e+00 0.000000e+00 0.000000e+00 0.000000e+00 3.339605e+01 9.142609e+00 0.000000e+00 9.142609e+00 4.774876e+00 0.000000e+00 0.000000e+00 0.000000e+00 0.000000e+00 3.070573e+01 6.591781e+00 0.000000e+00 6.591781e+00 6.162813e-01 0.000000e+00 0.000000e+00 0.000000e+00 0.000000e+00 1.075338e+02 -2.846243e+01 0.000000e+00 -2.846243e+01 1.155159e+02 0.000000e+00 0.000000e+00 0.000000e+00 0.000000e+00 7.113142e+01 -1.550003e+01 0.000000e+00 -1.550003e+01 1.262741e+02 0.000000e+00 0.000000e+00 0.000000e+00 0.000000e+00 1.950835e+01 4.113180e+00 0.000000e+00 4.113180e+00 1.108591e-01 0.000000e+00 0.000000e+00 0.000000e+00 0.000000e+00 1.840949e+01 3.942652e+00 0.000000e+00 3.942652e+00 -1.162146e-01 0.000000e+00 0.000000e+00 0.000000e+00 0.000000e+00 4.174103e+01 -3.025908e+00 0.000000e+00 -3.025908e+00 -1.510589e+01 0.000000e+00 0.000000e+00 0.000000e+00 0.000000e+00 6.810523e+00 5.584442e+00 0.000000e+00 5.584442e+00 6.775807e-01 0.000000e+00 0.000000e+00 0.000000e+00 0.000000e+00 1.261936e+01 4.114877e+00 0.000000e+00 4.114877e+00 -4.184083e-01 0.000000e+00 0.000000e+00 0.000000e+00 0.000000e+00 1.011352e+01 5.875850e+00 0.000000e+00 5.875850e+00 1.570565e+00 0.000000e+00 0.000000e+00 0.000000e+00 0.000000e+00 9.377138e+00 5.603188e+00 0.000000e+00 5.603188e+00 1.290951e+00 0.000000e+00 0.000000e+00 0.000000e+00 0.000000e+00 -3.893657e-01 -3.210975e-01 0.000000e+00 -3.210975e-01 2.518110e-01 0.000000e+00 0.000000e+00 0.000000e+00 0.000000e+00 1.360371e+01 4.044356e+00 0.000000e+00 4.044356e+00 -2.950779e-01 0.000000e+00 0.000000e+00 0.000000e+00 0.000000e+00 3.343468e+00 4.871709e+00 0.000000e+00 4.871709e+00 1.043137e+00 0.000000e+00 0.000000e+00 0.000000e+00 0.000000e+00 -6.171405e-01 6.149191e-01 0.000000e+00 6.149191e-01 2.491304e-01 0.000000e+00 0.000000e+00 0.000000e+00 0.000000e+00 7.884172e-01 6.293121e-01 0.000000e+00 6.293121e-01 -1.010557e+00 0.000000e+00 0.000000e+00 0.000000e+00 0.000000e+00 -1.561746e+00 -6.806812e-01 0.000000e+00 -6.806812e-01 1.202098e+00 0.000000e+00 0.000000e+00 0.000000e+00 0.000000e+00 -9.142653e-01 -1.212574e+00 0.000000e+00 -1.212574e+00 2.071069e-01 0.000000e+00 0.000000e+00 0.000000e+00 0.000000e+00 -5.289855e-01 -6.988283e-01 0.000000e+00 -6.988283e-01 -2.905291e-01 0.000000e+00 0.000000e+00 0.000000e+00 0.000000e+00 -1.130773e+00 -2.320082e+00 0.000000e+00 -2.320082e+00 -5.190956e+01 0.000000e+00 0.000000e+00 0.000000e+00 0.000000e+00 5.809071e-01 -6.568087e-01 0.000000e+00 -6.568087e-01 -8.801232e-01 0.000000e+00 0.000000e+00 0.000000e+00 0.000000e+00 1.050675e+00 -4.465165e-02 0.000000e+00 -4.465165e-02 -1.143054e+00 0.000000e+00 0.000000e+00 0.000000e+00 0.000000e+00 3.220515e-01 -5.267899e-01 0.000000e+00 -5.267899e-01 -1.006251e+00 0.000000e+00 0.000000e+00 0.000000e+00 0.000000e+00 3.575536e-01 4.039318e-01 0.000000e+00 4.039318e-01 -1.259165e+00 0.000000e+00 0.000000e+00 0.000000e+00 0.000000e+00 -8.805586e+00 5.721851e+00 0.000000e+00 5.721851e+00 -1.509191e+00 0.000000e+00 0.000000e+00 0.000000e+00 0.000000e+00 -5.270789e-01 -5.467588e-03 0.000000e+00 -5.467588e-03 4.307614e-01 0.000000e+00 0.000000e+00 0.000000e+00 0.000000e+00 -2.366588e-01 2.821798e-01 0.000000e+00 2.821798e-01 -2.923266e-01 0.000000e+00 0.000000e+00 0.000000e+00 0.000000e+00 -3.082118e-01 3.754602e-02 0.000000e+00 3.754602e-02 -6.196419e-01 0.000000e+00 0.000000e+00 0.000000e+00 0.000000e+00 2.101345e-01 1.030109e+00 0.000000e+00 1.030109e+00 -5.209098e-01 0.000000e+00 0.000000e+00 0.000000e+00 0.000000e+00 -4.816830e+00 4.231204e+00 0.000000e+00 4.231204e+00 -1.747848e+00 0.000000e+00 0.000000e+00 0.000000e+00 0.000000e+00 -1.279666e+01 6.591574e+00 0.000000e+00 6.591574e+00 -4.423447e-01 0.000000e+00 0.000000e+00 0.000000e+00 0.000000e+00 -9.526750e-02 -3.547010e-01 0.000000e+00 -3.547010e-01 1.334543e-01 0.000000e+00 0.000000e+00 0.000000e+00 0.000000e+00 -2.059158e-01 -1.840799e-01 0.000000e+00 -1.840799e-01 -7.883528e-01 0.000000e+00 0.000000e+00 0.000000e+00 0.000000e+00 3.878695e-02 -1.361467e-01 0.000000e+00 -1.361467e-01 -9.344113e-01 0.000000e+00 0.000000e+00 0.000000e+00 0.000000e+00 -2.092357e+01 5.772378e+00 0.000000e+00 5.772378e+00 2.117359e+00 0.000000e+00 0.000000e+00 0.000000e+00 0.000000e+00 -2.080490e+01 -5.398974e+00 0.000000e+00 -5.398974e+00 5.357371e+00 0.000000e+00 0.000000e+00 0.000000e+00 0.000000e+00 -2.010990e+00 2.509104e+00 0.000000e+00 2.509104e+00 -1.926995e+00 0.000000e+00 0.000000e+00 0.000000e+00 0.000000e+00 -2.354937e+00 3.333201e+00 0.000000e+00 3.333201e+00 -3.429085e-01 0.000000e+00 0.000000e+00 0.000000e+00 0.000000e+00 -1.704887e+01 6.825410e+00 0.000000e+00 6.825410e+00 9.323734e-01 0.000000e+00 0.000000e+00 0.000000e+00 0.000000e+00 -1.096994e+01 6.980748e+00 0.000000e+00 6.980748e+00 -2.049213e-01 0.000000e+00 0.000000e+00 0.000000e+00 0.000000e+00 -1.390067e+01 6.589176e+00 0.000000e+00 6.589176e+00 1.063050e-01 0.000000e+00 0.000000e+00 0.000000e+00 0.000000e+00 -1.503707e+01 -9.478573e+00 0.000000e+00 -9.478573e+00 2.572547e+00 0.000000e+00 0.000000e+00 0.000000e+00 0.000000e+00 -1.333127e+00 -1.035711e+01 0.000000e+00 -1.035711e+01 -1.500644e+01 0.000000e+00 0.000000e+00 0.000000e+00 0.000000e+00 -6.456722e+00 -9.482504e+00 0.000000e+00 -9.482504e+00 -1.166008e+00 0.000000e+00 0.000000e+00 0.000000e+00 0.000000e+00 -1.422642e+00 -4.744673e+00 0.000000e+00 -4.744673e+00 -9.186495e+00 0.000000e+00 0.000000e+00 0.000000e+00 0.000000e+00 3.076063e-02 -1.985994e+00 0.000000e+00 -1.985994e+00 -4.890286e+01 0.000000e+00 0.000000e+00 0.000000e+00 0.000000e+00 3.347598e-01 -1.109016e+00 0.000000e+00 -1.109016e+00 -5.001404e+01 0.000000e+00 0.000000e+00 0.000000e+00 0.000000e+00 8.151258e-01 -7.581214e-01 0.000000e+00 -7.581214e-01 -4.714093e+01 0.000000e+00 0.000000e+00 0.000000e+00 0.000000e+00 3.654078e+01 -4.083598e+00 0.000000e+00 -4.083598e+00 1.247729e+01 0.000000e+00 0.000000e+00 0.000000e+00 0.000000e+00 3.471069e+01 -3.033016e+00 0.000000e+00 -3.033016e+00 1.092945e+01 0.000000e+00 0.000000e+00 0.000000e+00 0.000000e+00 3.679539e+01 -3.315521e+00 0.000000e+00 -3.315521e+00 1.337974e+01 0.000000e+00 0.000000e+00 0.000000e+00 0.000000e+00 8.540506e+01 1.268650e+01 0.000000e+00 1.268650e+01 2.057887e+02 0.000000e+00 0.000000e+00 0.000000e+00 0.000000e+00 -5.126326e-01 9.559285e-01 0.000000e+00 9.559285e-01 -1.805357e+00 0.000000e+00 0.000000e+00 0.000000e+00 0.000000e+00 -1.255952e-01 2.593779e-01 0.000000e+00 2.593779e-01 -1.183018e-01 0.000000e+00 0.000000e+00 0.000000e+00 0.000000e+00 -9.449994e-01 1.747439e+00 0.000000e+00 1.747439e+00 -3.593511e-01 0.000000e+00 0.000000e+00 0.000000e+00 0.000000e+00 -1.916443e+00 -3.447921e+00 0.000000e+00 -3.447921e+00 -2.780025e+01 0.000000e+00 0.000000e+00 0.000000e+00 0.000000e+00 7.369098e-01 1.000471e+00 0.000000e+00 1.000471e+00 -1.225930e+00 0.000000e+00 0.000000e+00 0.000000e+00 0.000000e+00 1.087002e+01 -2.038100e+00 0.000000e+00 -2.038100e+00 -2.032761e+01 0.000000e+00 0.000000e+00 0.000000e+00 0.000000e+00 1.748200e+00 -7.011434e-01 0.000000e+00 -7.011434e-01 -4.336066e-01 0.000000e+00 0.000000e+00 0.000000e+00 0.000000e+00 1.066921e+00 -9.366533e-01 0.000000e+00 -9.366533e-01 5.209769e-01 0.000000e+00 0.000000e+00 0.000000e+00 0.000000e+00 1.109958e-01 -1.474454e-01 0.000000e+00 -1.474454e-01 1.292691e+00 0.000000e+00 0.000000e+00 0.000000e+00 0.000000e+00 -1.462157e-01 1.065764e+00 0.000000e+00 1.065764e+00 1.365873e+00 0.000000e+00 0.000000e+00 0.000000e+00 0.000000e+00 1.281633e+00 5.489556e+00 0.000000e+00 5.489556e+00 1.498499e+00 0.000000e+00 0.000000e+00 0.000000e+00 0.000000e+00 3.203029e+00 7.595226e+00 0.000000e+00 7.595226e+00 1.367497e+00 0.000000e+00 0.000000e+00 0.000000e+00 0.000000e+00 5.417089e+00 9.574808e+00 0.000000e+00 9.574808e+00 9.346653e-01 0.000000e+00 0.000000e+00 0.000000e+00 0.000000e+00 7.467553e+00 1.088769e+01 0.000000e+00 1.088769e+01 -3.541072e-02 0.000000e+00 0.000000e+00 0.000000e+00 0.000000e+00 3.005083e+00 1.080852e+01 0.000000e+00 1.080852e+01 -4.561720e-02 0.000000e+00 0.000000e+00 0.000000e+00 0.000000e+00 -2.741253e+00 1.167937e+01 0.000000e+00 1.167937e+01 -4.401332e-02 0.000000e+00 0.000000e+00 0.000000e+00 0.000000e+00 -3.662970e+00 1.200447e+01 0.000000e+00 1.200447e+01 -9.273129e-01 0.000000e+00 0.000000e+00 0.000000e+00 0.000000e+00 -3.030354e+00 1.153111e+01 0.000000e+00 1.153111e+01 -2.258677e+00 0.000000e+00 0.000000e+00 0.000000e+00 0.000000e+00 -1.759484e+00 1.000486e+01 0.000000e+00 1.000486e+01 -3.369876e+00 0.000000e+00 0.000000e+00 0.000000e+00 0.000000e+00 3.086887e-01 5.678521e+00 0.000000e+00 5.678521e+00 -4.692007e+00 0.000000e+00 0.000000e+00 0.000000e+00 0.000000e+00 6.031959e-01 3.313093e+00 0.000000e+00 3.313093e+00 -4.524553e+00 0.000000e+00 0.000000e+00 0.000000e+00 0.000000e+00 1.815353e-01 1.440894e+00 0.000000e+00 1.440894e+00 -3.721917e+00 0.000000e+00 0.000000e+00 0.000000e+00 0.000000e+00 -9.835989e-01 6.267134e-01 0.000000e+00 6.267134e-01 -1.616883e+00 0.000000e+00 0.000000e+00 0.000000e+00 0.000000e+00 -8.824702e-01 1.074387e+00 0.000000e+00 1.074387e+00 -9.959557e-01 0.000000e+00 0.000000e+00 0.000000e+00 0.000000e+00 7.643596e+01 2.874830e+01 0.000000e+00 2.874830e+01 -1.367384e+01 0.000000e+00 0.000000e+00 0.000000e+00 0.000000e+00 4.925742e+01 1.974635e+01 0.000000e+00 1.974635e+01 1.313689e+01 0.000000e+00 0.000000e+00 0.000000e+00 0.000000e+00 3.631301e+01 1.185330e+01 0.000000e+00 1.185330e+01 6.707262e-01 0.000000e+00 0.000000e+00 0.000000e+00 0.000000e+00 -4.408439e-02 -9.567905e-01 0.000000e+00 -9.567905e-01 -5.036343e-01 0.000000e+00 0.000000e+00 0.000000e+00 0.000000e+00 2.050501e+00 -8.549014e+00 0.000000e+00 -8.549014e+00 -1.980456e+01 0.000000e+00 0.000000e+00 0.000000e+00 0.000000e+00 5.673230e+01 3.793360e+01 0.000000e+00 3.793360e+01 4.146252e+01 0.000000e+00 0.000000e+00 0.000000e+00 0.000000e+00 -4.549994e+00 -4.488412e+00 0.000000e+00 -4.488412e+00 -5.914541e+01 0.000000e+00 0.000000e+00 0.000000e+00 0.000000e+00 6.961095e+00 5.740723e+00 0.000000e+00 5.740723e+00 1.040005e+00 0.000000e+00 0.000000e+00 0.000000e+00 0.000000e+00 1.577637e+00 -7.295456e-01 0.000000e+00 -7.295456e-01 -4.437116e+01 0.000000e+00 0.000000e+00 0.000000e+00 0.000000e+00 4.077824e+00 -1.848442e+00 0.000000e+00 -1.848442e+00 -3.548263e+01 0.000000e+00 0.000000e+00 0.000000e+00 0.000000e+00 1.880123e+01 -1.947134e+00 0.000000e+00 -1.947134e+00 -7.751863e+00 0.000000e+00 0.000000e+00 0.000000e+00 0.000000e+00 2.002861e+01 -2.695079e+00 0.000000e+00 -2.695079e+00 -6.759453e+00 0.000000e+00 0.000000e+00 0.000000e+00 0.000000e+00 9.740639e+00 -1.998520e+00 0.000000e+00 -1.998520e+00 -2.215544e+01 0.000000e+00 0.000000e+00 0.000000e+00 0.000000e+00 1.821116e-01 -1.050274e+00 0.000000e+00 -1.050274e+00 -3.923997e-01 0.000000e+00 0.000000e+00 0.000000e+00 0.000000e+00 2.861520e+01 -2.510810e+00 0.000000e+00 -2.510810e+00 3.966641e+00 0.000000e+00 0.000000e+00 0.000000e+00 0.000000e+00 3.016707e+01 -3.313111e+00 0.000000e+00 -3.313111e+00 5.189684e+00 0.000000e+00 0.000000e+00 0.000000e+00 0.000000e+00 9.159875e+00 -1.152636e+00 0.000000e+00 -1.152636e+00 -2.332679e+01 0.000000e+00 0.000000e+00 0.000000e+00 0.000000e+00 4.834443e+01 -3.863015e+00 0.000000e+00 -3.863015e+00 2.471084e+01 0.000000e+00 0.000000e+00 0.000000e+00 0.000000e+00 4.975694e+01 -4.969708e+00 0.000000e+00 -4.969708e+00 2.656691e+01 0.000000e+00 0.000000e+00 0.000000e+00 0.000000e+00 5.767924e+01 2.840670e+01 0.000000e+00 2.840670e+01 1.360175e+02 0.000000e+00 0.000000e+00 0.000000e+00 0.000000e+00 2.170031e+01 4.202636e+00 0.000000e+00 4.202636e+00 3.722373e-02 0.000000e+00 0.000000e+00 0.000000e+00 0.000000e+00 6.448233e+01 1.479681e+00 0.000000e+00 1.479681e+00 1.738702e+02 0.000000e+00 0.000000e+00 0.000000e+00 0.000000e+00 1.611269e+01 3.911862e+00 0.000000e+00 3.911862e+00 -2.872834e-01 0.000000e+00 0.000000e+00 0.000000e+00 0.000000e+00 1.462353e+01 4.018972e+00 0.000000e+00 4.018972e+00 -4.224155e-01 0.000000e+00 0.000000e+00 0.000000e+00 0.000000e+00 4.861704e+01 2.653711e+01 0.000000e+00 2.653711e+01 6.820522e+00 0.000000e+00 0.000000e+00 0.000000e+00 0.000000e+00 7.477880e+01 -1.235037e+01 0.000000e+00 -1.235037e+01 6.778783e+01 0.000000e+00 0.000000e+00 0.000000e+00 0.000000e+00 9.288998e+01 -1.778569e+01 0.000000e+00 -1.778569e+01 7.641180e+01 0.000000e+00 0.000000e+00 0.000000e+00 0.000000e+00 1.441301e+01 3.952480e+00 0.000000e+00 3.952480e+00 -5.266731e-01 0.000000e+00 0.000000e+00 0.000000e+00 0.000000e+00 1.185672e+01 4.827990e+00 0.000000e+00 4.827990e+00 2.345591e+00 0.000000e+00 0.000000e+00 0.000000e+00 0.000000e+00 -1.623367e+01 5.306113e+00 0.000000e+00 5.306113e+00 2.762230e-01 0.000000e+00 0.000000e+00 0.000000e+00 0.000000e+00 -2.338413e+01 3.387755e+00 0.000000e+00 3.387755e+00 3.783199e+00 0.000000e+00 0.000000e+00 0.000000e+00 0.000000e+00 1.405497e+01 4.325415e+00 0.000000e+00 4.325415e+00 7.431206e-01 0.000000e+00 0.000000e+00 0.000000e+00 0.000000e+00 1.197417e+01 4.635854e+00 0.000000e+00 4.635854e+00 4.690695e-01 0.000000e+00 0.000000e+00 0.000000e+00 0.000000e+00 3.235508e+00 4.916177e+00 0.000000e+00 4.916177e+00 1.279820e+00 0.000000e+00 0.000000e+00 0.000000e+00 0.000000e+00 -4.436060e+00 4.935907e+00 0.000000e+00 4.935907e+00 -1.453810e-01 0.000000e+00 0.000000e+00 0.000000e+00 0.000000e+00 -1.518164e+00 6.731867e-01 0.000000e+00 6.731867e-01 2.126820e+00 0.000000e+00 0.000000e+00 0.000000e+00 0.000000e+00 -7.630478e-01 -2.362612e-02 0.000000e+00 -2.362612e-02 5.693532e-02 0.000000e+00 0.000000e+00 0.000000e+00 0.000000e+00 -2.554674e-01 -1.055572e+00 0.000000e+00 -1.055572e+00 -3.632694e-02 0.000000e+00 0.000000e+00 0.000000e+00 0.000000e+00 -4.326960e-01 -7.426909e+00 0.000000e+00 -7.426909e+00 -3.038537e+01 0.000000e+00 0.000000e+00 0.000000e+00 0.000000e+00 -1.247476e+00 -1.038322e+01 0.000000e+00 -1.038322e+01 -2.183315e+01 0.000000e+00 0.000000e+00 0.000000e+00 0.000000e+00 -7.099466e+00 6.615915e+00 0.000000e+00 6.615915e+00 1.083451e-01 0.000000e+00 0.000000e+00 0.000000e+00 0.000000e+00 3.204098e+00 -1.758858e+00 0.000000e+00 -1.758858e+00 -3.798866e+01 0.000000e+00 0.000000e+00 0.000000e+00 0.000000e+00 -1.708449e+01 -6.179350e+00 0.000000e+00 -6.179350e+00 3.658583e+00 0.000000e+00 0.000000e+00 0.000000e+00 0.000000e+00 5.414718e+01 3.480698e+01 0.000000e+00 3.480698e+01 4.284685e+01 0.000000e+00 0.000000e+00 0.000000e+00 0.000000e+00 2.881299e+00 -7.789159e-01 0.000000e+00 -7.789159e-01 -3.920511e+01 0.000000e+00 0.000000e+00 0.000000e+00 0.000000e+00 -5.679243e-01 -1.087637e+01 0.000000e+00 -1.087637e+01 -1.353725e+01 0.000000e+00 0.000000e+00 0.000000e+00 0.000000e+00 3.288785e+00 -8.341493e-01 0.000000e+00 -8.341493e-01 -3.675510e+01 0.000000e+00 0.000000e+00 0.000000e+00 0.000000e+00 -1.050497e+01 -9.932732e+00 0.000000e+00 -9.932732e+00 -1.378375e+00 0.000000e+00 0.000000e+00 0.000000e+00 0.000000e+00 -2.229684e+00 -8.402352e+00 0.000000e+00 -8.402352e+00 -3.893710e+00 0.000000e+00 0.000000e+00 0.000000e+00 0.000000e+00 1.884329e+00 -5.221523e+00 0.000000e+00 -5.221523e+00 -3.059505e+01 0.000000e+00 0.000000e+00 0.000000e+00 0.000000e+00 1.755365e-01 1.458723e+00 0.000000e+00 1.458723e+00 -1.034919e+00 0.000000e+00 0.000000e+00 0.000000e+00 0.000000e+00 1.121307e+01 -1.325446e+00 0.000000e+00 -1.325446e+00 -1.931550e+01 0.000000e+00 0.000000e+00 0.000000e+00 0.000000e+00 1.202786e+01 -2.116080e+00 0.000000e+00 -2.116080e+00 -1.818520e+01 0.000000e+00 0.000000e+00 0.000000e+00 0.000000e+00 -7.275911e-01 9.184617e-01 0.000000e+00 9.184617e-01 -6.666855e-01 0.000000e+00 0.000000e+00 0.000000e+00 0.000000e+00 -4.570834e-01 1.439607e+00 0.000000e+00 1.439607e+00 -8.498481e-01 0.000000e+00 0.000000e+00 0.000000e+00 0.000000e+00 -1.239889e+00 3.811099e-01 0.000000e+00 3.811099e-01 -1.288618e+00 0.000000e+00 0.000000e+00 0.000000e+00 0.000000e+00 -8.338373e-01 4.757643e-01 0.000000e+00 4.757643e-01 -4.369208e+00 0.000000e+00 0.000000e+00 0.000000e+00 0.000000e+00 -6.325264e-01 4.946285e-01 0.000000e+00 4.946285e-01 -2.615209e+00 0.000000e+00 0.000000e+00 0.000000e+00 0.000000e+00 -6.981845e-01 2.119166e+00 0.000000e+00 2.119166e+00 -5.995956e+00 0.000000e+00 0.000000e+00 0.000000e+00 0.000000e+00 -1.085000e+00 4.371272e+00 0.000000e+00 4.371272e+00 -6.700660e+00 0.000000e+00 0.000000e+00 0.000000e+00 0.000000e+00 -3.641983e+00 8.906874e+00 0.000000e+00 8.906874e+00 -5.593864e+00 0.000000e+00 0.000000e+00 0.000000e+00 0.000000e+00 -5.824628e-01 7.873392e+00 0.000000e+00 7.873392e+00 -4.084591e+00 0.000000e+00 0.000000e+00 0.000000e+00 0.000000e+00 -4.500045e+00 1.053643e+01 0.000000e+00 1.053643e+01 -4.290047e+00 0.000000e+00 0.000000e+00 0.000000e+00 0.000000e+00 -3.719186e+00 1.001480e+01 0.000000e+00 1.001480e+01 -1.614613e+00 0.000000e+00 0.000000e+00 0.000000e+00 0.000000e+00 -4.293452e+00 1.160623e+01 0.000000e+00 1.160623e+01 -2.592821e+00 0.000000e+00 0.000000e+00 0.000000e+00 0.000000e+00 -3.035083e+00 1.212711e+01 0.000000e+00 1.212711e+01 -7.064500e-01 0.000000e+00 0.000000e+00 0.000000e+00 0.000000e+00 1.535369e+00 1.183082e+01 0.000000e+00 1.183082e+01 5.571250e-01 0.000000e+00 0.000000e+00 0.000000e+00 0.000000e+00 -2.364143e-01 1.110718e+01 0.000000e+00 1.110718e+01 1.280705e-01 0.000000e+00 0.000000e+00 0.000000e+00 0.000000e+00 5.960415e+00 1.097279e+01 0.000000e+00 1.097279e+01 1.404534e-01 0.000000e+00 0.000000e+00 0.000000e+00 0.000000e+00 5.777786e+00 1.083570e+01 0.000000e+00 1.083570e+01 -1.835782e-01 0.000000e+00 0.000000e+00 0.000000e+00 0.000000e+00 7.986860e+00 9.622303e+00 0.000000e+00 9.622303e+00 1.679560e+00 0.000000e+00 0.000000e+00 0.000000e+00 0.000000e+00 7.149747e+00 1.051895e+01 0.000000e+00 1.051895e+01 3.576662e-01 0.000000e+00 0.000000e+00 0.000000e+00 0.000000e+00 6.799426e+00 8.573389e+00 0.000000e+00 8.573389e+00 2.710602e+00 0.000000e+00 0.000000e+00 0.000000e+00 0.000000e+00 4.071373e+00 6.834510e+00 0.000000e+00 6.834510e+00 3.446084e+00 0.000000e+00 0.000000e+00 0.000000e+00 0.000000e+00 4.579470e-01 2.231602e+00 0.000000e+00 2.231602e+00 3.791293e+00 0.000000e+00 0.000000e+00 0.000000e+00 0.000000e+00 -5.378990e-01 1.283411e+00 0.000000e+00 1.283411e+00 9.595917e-03 0.000000e+00 0.000000e+00 0.000000e+00 0.000000e+00 9.352061e-02 3.088575e+00 0.000000e+00 3.088575e+00 1.915495e+00 0.000000e+00 0.000000e+00 0.000000e+00 0.000000e+00 -2.467922e-02 -6.593492e-02 0.000000e+00 -6.593492e-02 2.867786e+00 0.000000e+00 0.000000e+00 0.000000e+00 0.000000e+00 1.365803e+00 -1.338409e+00 0.000000e+00 -1.338409e+00 5.672535e-01 0.000000e+00 0.000000e+00 0.000000e+00 0.000000e+00 -6.725191e+00 -9.755803e+00 0.000000e+00 -9.755803e+00 -5.913261e+00 0.000000e+00 0.000000e+00 0.000000e+00 0.000000e+00 1.546899e+00 3.098664e-01 0.000000e+00 3.098664e-01 -9.012892e-01 0.000000e+00 0.000000e+00 0.000000e+00 0.000000e+00 1.026241e+01 -1.375203e+00 0.000000e+00 -1.375203e+00 -2.126298e+01 0.000000e+00 0.000000e+00 0.000000e+00 0.000000e+00 2.169858e+00 4.620522e+00 0.000000e+00 4.620522e+00 3.934128e+00 0.000000e+00 0.000000e+00 0.000000e+00 0.000000e+00 7.444449e+00 1.030416e+01 0.000000e+00 1.030416e+01 6.457038e-01 0.000000e+00 0.000000e+00 0.000000e+00 0.000000e+00 3.936225e+00 1.140723e+01 0.000000e+00 1.140723e+01 2.427998e-01 0.000000e+00 0.000000e+00 0.000000e+00 0.000000e+00 -9.738285e-01 1.211875e+01 0.000000e+00 1.211875e+01 3.700748e-01 0.000000e+00 0.000000e+00 0.000000e+00 0.000000e+00 -2.279950e+00 6.746702e+00 0.000000e+00 6.746702e+00 -6.378833e+00 0.000000e+00 0.000000e+00 0.000000e+00 0.000000e+00 -1.142336e+00 -5.055634e-02 0.000000e+00 -5.055634e-02 -2.309942e+00 0.000000e+00 0.000000e+00 0.000000e+00 0.000000e+00 1.433159e+00 2.043320e-01 0.000000e+00 2.043320e-01 -1.106741e+00 0.000000e+00 0.000000e+00 0.000000e+00 0.000000e+00 -2.641657e+00 -2.968440e+00 0.000000e+00 -2.968440e+00 -5.518991e+01 0.000000e+00 0.000000e+00 0.000000e+00 0.000000e+00 4.198706e-01 -2.357788e+00 0.000000e+00 -2.357788e+00 -5.616476e+01 0.000000e+00 0.000000e+00 0.000000e+00 0.000000e+00 -3.829649e-02 -1.526317e+00 0.000000e+00 -1.526317e+00 -5.298280e+01 0.000000e+00 0.000000e+00 0.000000e+00 0.000000e+00 4.755904e+00 -1.903398e+00 0.000000e+00 -1.903398e+00 -3.302183e+01 0.000000e+00 0.000000e+00 0.000000e+00 0.000000e+00 4.366844e+00 -9.085236e-01 0.000000e+00 -9.085236e-01 -3.428885e+01 0.000000e+00 0.000000e+00 0.000000e+00 0.000000e+00 5.427815e+00 -9.900848e-01 0.000000e+00 -9.900848e-01 -3.190069e+01 0.000000e+00 0.000000e+00 0.000000e+00 0.000000e+00 1.324114e+01 -2.246087e+00 0.000000e+00 -2.246087e+00 -1.628351e+01 0.000000e+00 0.000000e+00 0.000000e+00 0.000000e+00 1.237244e+01 -1.534298e+00 0.000000e+00 -1.534298e+00 -1.727553e+01 0.000000e+00 0.000000e+00 0.000000e+00 0.000000e+00 1.316780e+01 -1.632612e+00 0.000000e+00 -1.632612e+00 -1.540823e+01 0.000000e+00 0.000000e+00 0.000000e+00 0.000000e+00 2.154912e+01 -2.856113e+00 0.000000e+00 -2.856113e+00 -4.936682e+00 0.000000e+00 0.000000e+00 0.000000e+00 0.000000e+00 2.018533e+01 -2.116362e+00 0.000000e+00 -2.116362e+00 -5.931998e+00 0.000000e+00 0.000000e+00 0.000000e+00 0.000000e+00 2.180248e+01 -2.209448e+00 0.000000e+00 -2.209448e+00 -4.081026e+00 0.000000e+00 0.000000e+00 0.000000e+00 0.000000e+00 3.224635e+01 -3.551994e+00 0.000000e+00 -3.551994e+00 7.385090e+00 0.000000e+00 0.000000e+00 0.000000e+00 0.000000e+00 3.011933e+01 -2.655439e+00 0.000000e+00 -2.655439e+00 6.087043e+00 0.000000e+00 0.000000e+00 0.000000e+00 0.000000e+00 3.231288e+01 -2.801998e+00 0.000000e+00 -2.801998e+00 8.482754e+00 0.000000e+00 0.000000e+00 0.000000e+00 0.000000e+00 5.379565e+01 -5.728988e+00 0.000000e+00 -5.728988e+00 3.000300e+01 0.000000e+00 0.000000e+00 0.000000e+00 0.000000e+00 4.866267e+01 -4.357572e+00 0.000000e+00 -4.357572e+00 2.775458e+01 0.000000e+00 0.000000e+00 0.000000e+00 0.000000e+00 5.169811e+01 -5.018110e+00 0.000000e+00 -5.018110e+00 3.151878e+01 0.000000e+00 0.000000e+00 0.000000e+00 0.000000e+00 1.016166e+02 -2.310263e+01 0.000000e+00 -2.310263e+01 9.283430e+01 0.000000e+00 0.000000e+00 0.000000e+00 0.000000e+00 7.724689e+01 -1.525342e+01 0.000000e+00 -1.525342e+01 8.058279e+01 0.000000e+00 0.000000e+00 0.000000e+00 0.000000e+00 7.596358e+01 -1.766670e+01 0.000000e+00 -1.766670e+01 9.873759e+01 0.000000e+00 0.000000e+00 0.000000e+00 0.000000e+00 4.811206e-01 2.998523e+00 0.000000e+00 2.998523e+00 2.177505e+00 0.000000e+00 0.000000e+00 0.000000e+00 0.000000e+00 -2.912288e-01 9.100447e-01 0.000000e+00 9.100447e-01 4.241121e-03 0.000000e+00 0.000000e+00 0.000000e+00 0.000000e+00 -2.317520e+01 -1.059941e+00 0.000000e+00 -1.059941e+00 5.034743e+00 0.000000e+00 0.000000e+00 0.000000e+00 0.000000e+00 3.860094e-01 -5.958336e+00 0.000000e+00 -5.958336e+00 -2.919725e+01 0.000000e+00 0.000000e+00 0.000000e+00 0.000000e+00 -5.479080e+00 -7.263922e-01 0.000000e+00 -7.263922e-01 -3.851468e+01 0.000000e+00 0.000000e+00 0.000000e+00 0.000000e+00 -6.800927e-01 -7.926164e+00 0.000000e+00 -7.926164e+00 -3.130951e+01 0.000000e+00 0.000000e+00 0.000000e+00 0.000000e+00 5.484139e+01 2.271890e+01 0.000000e+00 2.271890e+01 1.165001e+02 0.000000e+00 0.000000e+00 0.000000e+00 0.000000e+00 -1.792242e+01 3.185853e+00 0.000000e+00 3.185853e+00 9.817841e-01 0.000000e+00 0.000000e+00 0.000000e+00 0.000000e+00 -6.666860e-02 1.266004e+00 0.000000e+00 1.266004e+00 -6.345531e-01 0.000000e+00 0.000000e+00 0.000000e+00 0.000000e+00 -2.704169e+00 -9.915560e+00 0.000000e+00 -9.915560e+00 -9.733469e+00 0.000000e+00 0.000000e+00 0.000000e+00 0.000000e+00 1.608147e+00 -8.210001e+00 0.000000e+00 -8.210001e+00 -3.179746e+01 0.000000e+00 0.000000e+00 0.000000e+00 0.000000e+00 1.497789e+00 -7.545801e-01 0.000000e+00 -7.545801e-01 -5.286245e-01 0.000000e+00 0.000000e+00 0.000000e+00 0.000000e+00 9.974144e-01 -1.091224e+01 0.000000e+00 -1.091224e+01 -2.300105e+01 0.000000e+00 0.000000e+00 0.000000e+00 0.000000e+00 7.289372e-01 -1.011474e+01 0.000000e+00 -1.011474e+01 -2.611881e+01 0.000000e+00 0.000000e+00 0.000000e+00 0.000000e+00 2.362133e+00 -9.213314e+00 0.000000e+00 -9.213314e+00 -3.299432e+01 0.000000e+00 0.000000e+00 0.000000e+00 0.000000e+00 -1.697003e+00 -5.836068e+00 0.000000e+00 -5.836068e+00 -3.447600e+01 0.000000e+00 0.000000e+00 0.000000e+00 0.000000e+00 5.314866e+00 7.700575e+00 0.000000e+00 7.700575e+00 9.624864e-01 0.000000e+00 0.000000e+00 0.000000e+00 0.000000e+00 1.530393e+00 -2.615918e+00 0.000000e+00 -2.615918e+00 -4.476769e+01 0.000000e+00 0.000000e+00 0.000000e+00 0.000000e+00 1.497093e+01 -4.075238e+00 0.000000e+00 -4.075238e+00 -1.344217e+01 0.000000e+00 0.000000e+00 0.000000e+00 0.000000e+00 4.093134e-01 -1.191340e+00 0.000000e+00 -1.191340e+00 -2.495783e-01 0.000000e+00 0.000000e+00 0.000000e+00 0.000000e+00 5.636386e+01 -1.124695e+01 0.000000e+00 -1.124695e+01 3.711429e+01 0.000000e+00 0.000000e+00 0.000000e+00 0.000000e+00 2.350345e+01 -5.056149e+00 0.000000e+00 -5.056149e+00 -1.868786e+00 0.000000e+00 0.000000e+00 0.000000e+00 0.000000e+00 -1.590385e+01 2.999603e+00 0.000000e+00 2.999603e+00 7.812447e+00 0.000000e+00 0.000000e+00 0.000000e+00 0.000000e+00 4.337407e+01 -7.990264e+00 0.000000e+00 -7.990264e+00 2.330963e+01 0.000000e+00 0.000000e+00 0.000000e+00 0.000000e+00 2.187222e+01 7.625799e+00 0.000000e+00 7.625799e+00 1.540961e+00 0.000000e+00 0.000000e+00 0.000000e+00 0.000000e+00 9.034266e+00 -3.359338e+00 0.000000e+00 -3.359338e+00 -2.302066e+01 0.000000e+00 0.000000e+00 0.000000e+00 0.000000e+00 2.582220e+01 9.531391e+00 0.000000e+00 9.531391e+00 3.461743e+00 0.000000e+00 0.000000e+00 0.000000e+00 0.000000e+00 2.148904e+01 7.978260e+00 0.000000e+00 7.978260e+00 1.031102e+00 0.000000e+00 0.000000e+00 0.000000e+00 0.000000e+00 9.669405e+00 6.041418e+00 0.000000e+00 6.041418e+00 1.019986e+00 0.000000e+00 0.000000e+00 0.000000e+00 0.000000e+00 1.670564e+01 5.830699e+00 0.000000e+00 5.830699e+00 2.452167e-02 0.000000e+00 0.000000e+00 0.000000e+00 0.000000e+00 4.466271e+01 1.032399e+01 0.000000e+00 1.032399e+01 1.135410e+02 0.000000e+00 0.000000e+00 0.000000e+00 0.000000e+00 1.508749e+01 5.205738e+00 0.000000e+00 5.205738e+00 -2.223149e-02 0.000000e+00 0.000000e+00 0.000000e+00 0.000000e+00 1.450682e+01 5.547325e+00 0.000000e+00 5.547325e+00 -6.412786e-01 0.000000e+00 0.000000e+00 0.000000e+00 0.000000e+00 1.300373e+01 5.016181e+00 0.000000e+00 5.016181e+00 -6.185877e-01 0.000000e+00 0.000000e+00 0.000000e+00 0.000000e+00 3.183583e+01 1.323537e+01 0.000000e+00 1.323537e+01 7.646662e+00 0.000000e+00 0.000000e+00 0.000000e+00 0.000000e+00 2.497590e+01 1.009736e+01 0.000000e+00 1.009736e+01 2.660998e+00 0.000000e+00 0.000000e+00 0.000000e+00 0.000000e+00 6.840711e+01 -1.619170e+01 0.000000e+00 -1.619170e+01 1.156632e+02 0.000000e+00 0.000000e+00 0.000000e+00 0.000000e+00 4.778520e+01 -8.043892e-01 0.000000e+00 -8.043892e-01 1.329650e+02 0.000000e+00 0.000000e+00 0.000000e+00 0.000000e+00 1.893265e+01 6.555632e+00 0.000000e+00 6.555632e+00 6.548954e-01 0.000000e+00 0.000000e+00 0.000000e+00 0.000000e+00 1.625909e+01 6.019473e+00 0.000000e+00 6.019473e+00 -2.782756e-01 0.000000e+00 0.000000e+00 0.000000e+00 0.000000e+00 8.404355e+01 4.267625e+01 0.000000e+00 4.267625e+01 5.919302e+01 0.000000e+00 0.000000e+00 0.000000e+00 0.000000e+00 4.632918e+01 4.071242e+01 0.000000e+00 4.071242e+01 7.269274e+01 0.000000e+00 0.000000e+00 0.000000e+00 0.000000e+00 -1.489998e+01 -5.860061e+00 0.000000e+00 -5.860061e+00 1.090377e+01 0.000000e+00 0.000000e+00 0.000000e+00 0.000000e+00 -5.930062e+00 6.778694e+00 0.000000e+00 6.778694e+00 -2.701863e+00 0.000000e+00 0.000000e+00 0.000000e+00 0.000000e+00 -1.529737e+01 6.421568e+00 0.000000e+00 6.421568e+00 4.778000e+00 0.000000e+00 0.000000e+00 0.000000e+00 0.000000e+00 1.749759e+00 -1.360869e+01 0.000000e+00 -1.360869e+01 -1.497562e+01 0.000000e+00 0.000000e+00 0.000000e+00 0.000000e+00 4.575339e+01 2.555134e+01 0.000000e+00 2.555134e+01 1.256344e+02 0.000000e+00 0.000000e+00 0.000000e+00 0.000000e+00 3.904275e+00 -2.792444e+00 0.000000e+00 -2.792444e+00 -3.664056e+01 0.000000e+00 0.000000e+00 0.000000e+00 0.000000e+00 -8.703510e+00 8.210614e+00 0.000000e+00 8.210614e+00 -1.822148e+00 0.000000e+00 0.000000e+00 0.000000e+00 0.000000e+00 1.283825e+00 -6.439262e-01 0.000000e+00 -6.439262e-01 -7.253692e-01 0.000000e+00 0.000000e+00 0.000000e+00 0.000000e+00 5.699062e+00 -2.985505e+00 0.000000e+00 -2.985505e+00 -2.965351e+01 0.000000e+00 0.000000e+00 0.000000e+00 0.000000e+00 -9.132859e+00 -1.301740e+01 0.000000e+00 -1.301740e+01 1.822059e+00 0.000000e+00 0.000000e+00 0.000000e+00 0.000000e+00 -3.989896e-01 1.439578e-02 0.000000e+00 1.439578e-02 -5.871432e-01 0.000000e+00 0.000000e+00 0.000000e+00 0.000000e+00 -1.446380e+01 -8.490163e+00 0.000000e+00 -8.490163e+00 5.873158e-01 0.000000e+00 0.000000e+00 0.000000e+00 0.000000e+00 8.741884e+00 7.912562e+00 0.000000e+00 7.912562e+00 1.939310e+00 0.000000e+00 0.000000e+00 0.000000e+00 0.000000e+00 7.764870e+00 7.384819e+00 0.000000e+00 7.384819e+00 1.064342e+00 0.000000e+00 0.000000e+00 0.000000e+00 0.000000e+00 7.171737e+00 9.127935e+00 0.000000e+00 9.127935e+00 6.042170e-01 0.000000e+00 0.000000e+00 0.000000e+00 0.000000e+00 8.188005e-01 1.085322e+00 0.000000e+00 1.085322e+00 -8.652306e-01 0.000000e+00 0.000000e+00 0.000000e+00 0.000000e+00 4.005471e+01 2.134569e+01 0.000000e+00 2.134569e+01 1.678605e+01 0.000000e+00 0.000000e+00 0.000000e+00 0.000000e+00 2.755069e+01 1.411239e+01 0.000000e+00 1.411239e+01 6.138039e+00 0.000000e+00 0.000000e+00 0.000000e+00 0.000000e+00 1.384711e+01 -1.698124e+01 0.000000e+00 -1.698124e+01 2.791487e+01 0.000000e+00 0.000000e+00 0.000000e+00 0.000000e+00 -1.081342e+00 5.931392e+00 0.000000e+00 5.931392e+00 -2.780683e+00 0.000000e+00 0.000000e+00 0.000000e+00 0.000000e+00 -2.297222e+00 1.136125e+01 0.000000e+00 1.136125e+01 6.830315e-01 0.000000e+00 0.000000e+00 0.000000e+00 0.000000e+00 5.149364e+00 1.080777e+01 0.000000e+00 1.080777e+01 4.218528e-01 0.000000e+00 0.000000e+00 0.000000e+00 0.000000e+00 8.387618e-01 -1.439100e+00 0.000000e+00 -1.439100e+00 1.397697e+00 0.000000e+00 0.000000e+00 0.000000e+00 0.000000e+00 -5.849936e-01 -1.404370e+01 0.000000e+00 -1.404370e+01 -1.235931e+01 0.000000e+00 0.000000e+00 0.000000e+00 0.000000e+00 1.381302e-01 -1.170665e+01 0.000000e+00 -1.170665e+01 -2.371611e+01 0.000000e+00 0.000000e+00 0.000000e+00 0.000000e+00 -3.724357e+00 -1.218951e+01 0.000000e+00 -1.218951e+01 -3.190742e+00 0.000000e+00 0.000000e+00 0.000000e+00 0.000000e+00 -6.406005e+00 -1.378315e+01 0.000000e+00 -1.378315e+01 -2.461426e+00 0.000000e+00 0.000000e+00 0.000000e+00 0.000000e+00 -3.443908e+00 -1.305328e+01 0.000000e+00 -1.305328e+01 -7.559071e+00 0.000000e+00 0.000000e+00 0.000000e+00 0.000000e+00 8.808391e+00 1.003217e+01 0.000000e+00 1.003217e+01 2.860592e-01 0.000000e+00 0.000000e+00 0.000000e+00 0.000000e+00 8.038562e+00 1.078199e+01 0.000000e+00 1.078199e+01 2.306283e-01 0.000000e+00 0.000000e+00 0.000000e+00 0.000000e+00 1.226020e+00 1.106365e+01 0.000000e+00 1.106365e+01 6.042164e-01 0.000000e+00 0.000000e+00 0.000000e+00 0.000000e+00 2.951819e+00 1.188635e+01 0.000000e+00 1.188635e+01 1.113360e+00 0.000000e+00 0.000000e+00 0.000000e+00 0.000000e+00 -1.559986e-03 1.213195e+01 0.000000e+00 1.213195e+01 1.317566e+00 0.000000e+00 0.000000e+00 0.000000e+00 0.000000e+00 -4.645395e+00 1.166763e+01 0.000000e+00 1.166763e+01 3.309696e-01 0.000000e+00 0.000000e+00 0.000000e+00 0.000000e+00 -4.912996e+00 1.130873e+01 0.000000e+00 1.130873e+01 -6.056510e-01 0.000000e+00 0.000000e+00 0.000000e+00 0.000000e+00 -4.911175e+00 1.130258e+01 0.000000e+00 1.130258e+01 -6.100176e-01 0.000000e+00 0.000000e+00 0.000000e+00 0.000000e+00 -6.253305e+00 1.004040e+01 0.000000e+00 1.004040e+01 -2.375266e+00 0.000000e+00 0.000000e+00 0.000000e+00 0.000000e+00 -2.204715e+00 8.043015e+00 0.000000e+00 8.043015e+00 -2.141601e+00 0.000000e+00 0.000000e+00 0.000000e+00 0.000000e+00 -3.265229e-01 3.869307e+00 0.000000e+00 3.869307e+00 -3.322472e+00 0.000000e+00 0.000000e+00 0.000000e+00 0.000000e+00 2.440945e-02 2.004140e+00 0.000000e+00 2.004140e+00 -2.816301e+00 0.000000e+00 0.000000e+00 0.000000e+00 0.000000e+00 1.183490e+01 -1.665161e+01 0.000000e+00 -1.665161e+01 2.093040e+01 0.000000e+00 0.000000e+00 0.000000e+00 0.000000e+00 2.126504e-01 -8.379890e+00 0.000000e+00 -8.379890e+00 -3.107777e+01 0.000000e+00 0.000000e+00 0.000000e+00 0.000000e+00 -4.551820e-01 1.077870e+00 0.000000e+00 1.077870e+00 -4.546364e-01 0.000000e+00 0.000000e+00 0.000000e+00 0.000000e+00 2.637167e+00 -1.188107e+01 0.000000e+00 -1.188107e+01 -2.592135e+01 0.000000e+00 0.000000e+00 0.000000e+00 0.000000e+00 -1.275430e+01 -1.041964e+01 0.000000e+00 -1.041964e+01 7.478890e+00 0.000000e+00 0.000000e+00 0.000000e+00 0.000000e+00 -1.224427e+01 -8.932047e+00 0.000000e+00 -8.932047e+00 5.205222e+00 0.000000e+00 0.000000e+00 0.000000e+00 0.000000e+00 -9.085918e+00 -1.316856e+01 0.000000e+00 -1.316856e+01 2.083484e+00 0.000000e+00 0.000000e+00 0.000000e+00 0.000000e+00 2.127975e+00 -1.404032e+00 0.000000e+00 -1.404032e+00 -4.332640e+01 0.000000e+00 0.000000e+00 0.000000e+00 0.000000e+00 1.967977e+00 -2.562818e+00 0.000000e+00 -2.562818e+00 -4.192252e+01 0.000000e+00 0.000000e+00 0.000000e+00 0.000000e+00 3.273223e+01 -6.242703e+00 0.000000e+00 -6.242703e+00 8.933077e+00 0.000000e+00 0.000000e+00 0.000000e+00 0.000000e+00 1.406054e+01 -3.798272e+00 0.000000e+00 -3.798272e+00 -1.533922e+01 0.000000e+00 0.000000e+00 0.000000e+00 0.000000e+00 1.340274e+01 -3.190006e+00 0.000000e+00 -3.190006e+00 -1.457091e+01 0.000000e+00 0.000000e+00 0.000000e+00 0.000000e+00 8.476367e+00 -3.138468e+00 0.000000e+00 -3.138468e+00 -2.519766e+01 0.000000e+00 0.000000e+00 0.000000e+00 0.000000e+00 7.880796e+00 -2.429239e+00 0.000000e+00 -2.429239e+00 -2.422577e+01 0.000000e+00 0.000000e+00 0.000000e+00 0.000000e+00 1.915385e+01 -4.219786e+00 0.000000e+00 -4.219786e+00 -7.584460e+00 0.000000e+00 0.000000e+00 0.000000e+00 0.000000e+00 4.177431e+01 -7.935371e+00 0.000000e+00 -7.935371e+00 2.005980e+01 0.000000e+00 0.000000e+00 0.000000e+00 0.000000e+00 4.158397e+01 -6.663978e+00 0.000000e+00 -6.663978e+00 2.087844e+01 0.000000e+00 0.000000e+00 0.000000e+00 0.000000e+00 5.333739e+01 -9.613448e+00 0.000000e+00 -9.613448e+00 3.201388e+01 0.000000e+00 0.000000e+00 0.000000e+00 0.000000e+00 4.930777e+01 -9.120558e+00 0.000000e+00 -9.120558e+00 3.389599e+01 0.000000e+00 0.000000e+00 0.000000e+00 0.000000e+00 -1.141864e+01 6.501382e+00 0.000000e+00 6.501382e+00 3.068053e+00 0.000000e+00 0.000000e+00 0.000000e+00 0.000000e+00 7.841953e+01 -2.327269e+01 0.000000e+00 -2.327269e+01 1.007303e+02 0.000000e+00 0.000000e+00 0.000000e+00 0.000000e+00 5.446702e+01 -1.400969e+01 0.000000e+00 -1.400969e+01 1.112425e+02 0.000000e+00 0.000000e+00 0.000000e+00 0.000000e+00 1.284074e+01 5.249559e+00 0.000000e+00 5.249559e+00 1.859311e+00 0.000000e+00 0.000000e+00 0.000000e+00 0.000000e+00 6.340820e+01 -1.439847e+01 0.000000e+00 -1.439847e+01 4.933873e+01 0.000000e+00 0.000000e+00 0.000000e+00 0.000000e+00 2.652497e+01 -5.112207e+00 0.000000e+00 -5.112207e+00 2.053018e+00 0.000000e+00 0.000000e+00 0.000000e+00 0.000000e+00 3.950902e+01 -7.327876e+00 0.000000e+00 -7.327876e+00 1.709681e+01 0.000000e+00 0.000000e+00 0.000000e+00 0.000000e+00 3.815058e+01 -6.459441e+00 0.000000e+00 -6.459441e+00 1.774300e+01 0.000000e+00 0.000000e+00 0.000000e+00 0.000000e+00 1.076939e+01 6.728445e+00 0.000000e+00 6.728445e+00 2.023965e+00 0.000000e+00 0.000000e+00 0.000000e+00 0.000000e+00 1.737086e+01 -4.057181e+00 0.000000e+00 -4.057181e+00 -9.646251e+00 0.000000e+00 0.000000e+00 0.000000e+00 0.000000e+00 1.750412e+01 -3.404124e+00 0.000000e+00 -3.404124e+00 -8.626832e+00 0.000000e+00 0.000000e+00 0.000000e+00 0.000000e+00 7.449145e+01 -1.490207e+01 0.000000e+00 -1.490207e+01 5.852434e+01 0.000000e+00 0.000000e+00 0.000000e+00 0.000000e+00 1.870827e+01 6.795218e+00 0.000000e+00 6.795218e+00 2.588675e-01 0.000000e+00 0.000000e+00 0.000000e+00 0.000000e+00 -1.838218e+01 2.329607e-01 0.000000e+00 2.329607e-01 3.390725e+00 0.000000e+00 0.000000e+00 0.000000e+00 0.000000e+00 4.970430e-01 3.092860e+00 0.000000e+00 3.092860e+00 1.160051e+00 0.000000e+00 0.000000e+00 0.000000e+00 0.000000e+00 2.806258e+00 -1.460334e+00 0.000000e+00 -1.460334e+00 -4.061879e+01 0.000000e+00 0.000000e+00 0.000000e+00 0.000000e+00 2.821136e+00 -2.583634e+00 0.000000e+00 -2.583634e+00 -3.922888e+01 0.000000e+00 0.000000e+00 0.000000e+00 0.000000e+00 3.929948e+01 3.003615e+01 0.000000e+00 3.003615e+01 3.940852e+01 0.000000e+00 0.000000e+00 0.000000e+00 0.000000e+00 5.258620e+01 -1.024833e+01 0.000000e+00 -1.024833e+01 3.900130e+01 0.000000e+00 0.000000e+00 0.000000e+00 0.000000e+00 5.967096e+01 -1.289725e+01 0.000000e+00 -1.289725e+01 4.299894e+01 0.000000e+00 0.000000e+00 0.000000e+00 0.000000e+00 -9.781115e+00 8.737027e+00 0.000000e+00 8.737027e+00 1.698349e+00 0.000000e+00 0.000000e+00 0.000000e+00 0.000000e+00 -1.899518e+00 -1.304045e+01 0.000000e+00 -1.304045e+01 -1.461348e+01 0.000000e+00 0.000000e+00 0.000000e+00 0.000000e+00 -5.474085e-01 4.562929e-01 0.000000e+00 4.562929e-01 -2.526760e-01 0.000000e+00 0.000000e+00 0.000000e+00 0.000000e+00 3.447167e+00 -1.852476e+00 0.000000e+00 -1.852476e+00 -3.539502e+01 0.000000e+00 0.000000e+00 0.000000e+00 0.000000e+00 4.424161e+00 -3.025578e+00 0.000000e+00 -3.025578e+00 -3.413852e+01 0.000000e+00 0.000000e+00 0.000000e+00 0.000000e+00 3.708290e+01 -6.799447e+00 0.000000e+00 -6.799447e+00 1.418934e+01 0.000000e+00 0.000000e+00 0.000000e+00 0.000000e+00 3.669929e+01 -6.007751e+00 0.000000e+00 -6.007751e+00 1.503198e+01 0.000000e+00 0.000000e+00 0.000000e+00 0.000000e+00 -6.244653e-01 3.352736e-01 0.000000e+00 3.352736e-01 -2.274134e+00 0.000000e+00 0.000000e+00 0.000000e+00 0.000000e+00 7.934885e+00 9.958246e+00 0.000000e+00 9.958246e+00 5.368241e-01 0.000000e+00 0.000000e+00 0.000000e+00 0.000000e+00 4.568458e+01 -7.414801e+00 0.000000e+00 -7.414801e+00 2.599283e+01 0.000000e+00 0.000000e+00 0.000000e+00 0.000000e+00 4.670871e+01 -7.300106e+00 0.000000e+00 -7.300106e+00 2.447935e+01 0.000000e+00 0.000000e+00 0.000000e+00 0.000000e+00 5.120016e+01 -7.565519e+00 0.000000e+00 -7.565519e+00 2.765427e+01 0.000000e+00 0.000000e+00 0.000000e+00 0.000000e+00 -7.208534e-01 -4.619057e-02 0.000000e+00 -4.619057e-02 -7.753121e-01 0.000000e+00 0.000000e+00 0.000000e+00 0.000000e+00 9.787031e+00 8.570442e+00 0.000000e+00 8.570442e+00 1.399860e+00 0.000000e+00 0.000000e+00 0.000000e+00 0.000000e+00 8.742941e+00 7.914019e+00 0.000000e+00 7.914019e+00 4.300833e-01 0.000000e+00 0.000000e+00 0.000000e+00 0.000000e+00 8.293205e+00 9.361598e+00 0.000000e+00 9.361598e+00 3.146752e-01 0.000000e+00 0.000000e+00 0.000000e+00 0.000000e+00 3.636180e+01 3.142889e+01 0.000000e+00 3.142889e+01 3.851165e+01 0.000000e+00 0.000000e+00 0.000000e+00 0.000000e+00 -1.383987e+01 8.476853e+00 0.000000e+00 8.476853e+00 2.340864e+00 0.000000e+00 0.000000e+00 0.000000e+00 0.000000e+00 2.199938e+01 -4.815084e+00 0.000000e+00 -4.815084e+00 -3.903340e+00 0.000000e+00 0.000000e+00 0.000000e+00 0.000000e+00 2.165726e+01 -4.144301e+00 0.000000e+00 -4.144301e+00 -3.125836e+00 0.000000e+00 0.000000e+00 0.000000e+00 0.000000e+00 3.483123e+01 -6.512263e+00 0.000000e+00 -6.512263e+00 1.138466e+01 0.000000e+00 0.000000e+00 0.000000e+00 0.000000e+00 3.274855e+01 -5.416939e+00 0.000000e+00 -5.416939e+00 9.863599e+00 0.000000e+00 0.000000e+00 0.000000e+00 0.000000e+00 3.510603e+01 -5.577751e+00 0.000000e+00 -5.577751e+00 1.247060e+01 0.000000e+00 0.000000e+00 0.000000e+00 0.000000e+00 -2.688209e+00 1.202285e+01 0.000000e+00 1.202285e+01 7.738162e-01 0.000000e+00 0.000000e+00 0.000000e+00 0.000000e+00 -4.998540e+00 1.118828e+01 0.000000e+00 1.118828e+01 1.278117e+00 0.000000e+00 0.000000e+00 0.000000e+00 0.000000e+00 7.149970e+00 -2.159309e+00 0.000000e+00 -2.159309e+00 -2.861997e+01 0.000000e+00 0.000000e+00 0.000000e+00 0.000000e+00 7.070595e+00 -2.894708e+00 0.000000e+00 -2.894708e+00 -2.750967e+01 0.000000e+00 0.000000e+00 0.000000e+00 0.000000e+00 1.331794e+00 -2.564999e+00 0.000000e+00 -2.564999e+00 -4.794262e+01 0.000000e+00 0.000000e+00 0.000000e+00 0.000000e+00 1.135037e+01 -3.330399e+00 0.000000e+00 -3.330399e+00 -1.911182e+01 0.000000e+00 0.000000e+00 0.000000e+00 0.000000e+00 5.072394e+00 -3.103560e+00 0.000000e+00 -3.103560e+00 -3.166458e+01 0.000000e+00 0.000000e+00 0.000000e+00 0.000000e+00 6.390513e+00 -2.238654e+00 0.000000e+00 -2.238654e+00 -3.064419e+01 0.000000e+00 0.000000e+00 0.000000e+00 0.000000e+00 8.306224e-01 -3.638545e+00 0.000000e+00 -3.638545e+00 -6.192319e+01 0.000000e+00 0.000000e+00 0.000000e+00 0.000000e+00 -3.869119e+00 6.980833e+00 0.000000e+00 6.980833e+00 -4.426731e+00 0.000000e+00 0.000000e+00 0.000000e+00 0.000000e+00 -5.658895e+00 8.855181e+00 0.000000e+00 8.855181e+00 -3.543782e+00 0.000000e+00 0.000000e+00 0.000000e+00 0.000000e+00 5.632775e+00 1.115225e+01 0.000000e+00 1.115225e+01 6.143826e-01 0.000000e+00 0.000000e+00 0.000000e+00 0.000000e+00 -6.539683e-01 6.710800e-01 0.000000e+00 6.710800e-01 -2.081519e+00 0.000000e+00 0.000000e+00 0.000000e+00 0.000000e+00 -1.352985e-01 1.187839e+00 0.000000e+00 1.187839e+00 -6.810056e-01 0.000000e+00 0.000000e+00 0.000000e+00 0.000000e+00 -1.537102e+01 -1.850104e+00 0.000000e+00 -1.850104e+00 1.003173e+01 0.000000e+00 0.000000e+00 0.000000e+00 0.000000e+00 -1.291554e+01 2.541264e+00 0.000000e+00 2.541264e+00 5.419083e+00 0.000000e+00 0.000000e+00 0.000000e+00 0.000000e+00 -1.346958e+01 -3.191086e+00 0.000000e+00 -3.191086e+00 6.168934e+00 0.000000e+00 0.000000e+00 0.000000e+00 0.000000e+00 2.716095e+00 -1.631942e+00 0.000000e+00 -1.631942e+00 -3.781481e+01 0.000000e+00 0.000000e+00 0.000000e+00 0.000000e+00 2.773196e+01 -4.287712e+00 0.000000e+00 -4.287712e+00 3.050176e+00 0.000000e+00 0.000000e+00 0.000000e+00 0.000000e+00 2.906243e+01 -5.254619e+00 0.000000e+00 -5.254619e+00 4.427025e+00 0.000000e+00 0.000000e+00 0.000000e+00 0.000000e+00 6.290823e+01 -1.567892e+01 0.000000e+00 -1.567892e+01 6.462178e+01 0.000000e+00 0.000000e+00 0.000000e+00 0.000000e+00 7.741644e+01 -1.920666e+01 0.000000e+00 -1.920666e+01 7.050532e+01 0.000000e+00 0.000000e+00 0.000000e+00 0.000000e+00 3.533015e+01 2.759437e+01 0.000000e+00 2.759437e+01 2.796420e+01 0.000000e+00 0.000000e+00 0.000000e+00 0.000000e+00 2.660922e+01 1.892945e+01 0.000000e+00 1.892945e+01 2.021785e+01 0.000000e+00 0.000000e+00 0.000000e+00 0.000000e+00 1.776727e+00 -1.270147e+00 0.000000e+00 -1.270147e+00 -4.598518e+01 0.000000e+00 0.000000e+00 0.000000e+00 0.000000e+00 2.254859e+00 -2.201880e+00 0.000000e+00 -2.201880e+00 -5.942454e+01 0.000000e+00 0.000000e+00 0.000000e+00 0.000000e+00 -7.902006e-01 -3.938471e+00 0.000000e+00 -3.938471e+00 -5.787270e+01 0.000000e+00 0.000000e+00 0.000000e+00 0.000000e+00 -7.231995e-01 7.477060e-01 0.000000e+00 7.477060e-01 -6.898546e-01 0.000000e+00 0.000000e+00 0.000000e+00 0.000000e+00 -3.371909e+00 4.848184e+00 0.000000e+00 4.848184e+00 -3.102725e+00 0.000000e+00 0.000000e+00 0.000000e+00 0.000000e+00 9.999858e+00 -3.305810e+00 0.000000e+00 -3.305810e+00 -2.121973e+01 0.000000e+00 0.000000e+00 0.000000e+00 0.000000e+00 -6.228626e+00 9.856780e+00 0.000000e+00 9.856780e+00 -1.884036e-01 0.000000e+00 0.000000e+00 0.000000e+00 0.000000e+00 -3.188077e+00 -1.344800e+01 0.000000e+00 -1.344800e+01 -7.793574e+00 0.000000e+00 0.000000e+00 0.000000e+00 0.000000e+00 5.082627e-01 -2.743635e+00 0.000000e+00 -2.743635e+00 -5.107661e+01 0.000000e+00 0.000000e+00 0.000000e+00 0.000000e+00 1.130087e+00 -1.415287e+00 0.000000e+00 -1.415287e+00 -4.871301e+01 0.000000e+00 0.000000e+00 0.000000e+00 0.000000e+00 -9.503889e-01 2.738218e+00 0.000000e+00 2.738218e+00 -4.673276e+00 0.000000e+00 0.000000e+00 0.000000e+00 0.000000e+00 -4.283462e-01 5.101173e-01 0.000000e+00 5.101173e-01 -2.071147e+00 0.000000e+00 0.000000e+00 0.000000e+00 0.000000e+00 3.606029e+00 -8.420735e+00 0.000000e+00 -8.420735e+00 -3.726550e+01 0.000000e+00 0.000000e+00 0.000000e+00 0.000000e+00 -6.216713e-01 -3.241551e+00 0.000000e+00 -3.241551e+00 -5.378840e+01 0.000000e+00 0.000000e+00 0.000000e+00 0.000000e+00 1.685465e+00 -2.134342e+00 0.000000e+00 -2.134342e+00 -5.579179e+01 0.000000e+00 0.000000e+00 0.000000e+00 0.000000e+00 1.487046e+00 -1.932258e+00 0.000000e+00 -1.932258e+00 -5.192509e+01 0.000000e+00 0.000000e+00 0.000000e+00 0.000000e+00 1.042701e+01 -2.709717e+00 0.000000e+00 -2.709717e+00 -2.222087e+01 0.000000e+00 0.000000e+00 0.000000e+00 0.000000e+00 2.407252e+01 -4.271445e+00 0.000000e+00 -4.271445e+00 -9.375660e-01 0.000000e+00 0.000000e+00 0.000000e+00 0.000000e+00 2.488896e+01 -5.155246e+00 0.000000e+00 -5.155246e+00 2.551815e-01 0.000000e+00 0.000000e+00 0.000000e+00 0.000000e+00 1.534365e+01 -3.267629e+00 0.000000e+00 -3.267629e+00 -1.247517e+01 0.000000e+00 0.000000e+00 0.000000e+00 0.000000e+00 1.587071e+01 -4.128225e+00 0.000000e+00 -4.128225e+00 -1.135080e+01 0.000000e+00 0.000000e+00 0.000000e+00 0.000000e+00 1.029278e+01 -2.517946e+00 0.000000e+00 -2.517946e+00 -2.021402e+01 0.000000e+00 0.000000e+00 0.000000e+00 0.000000e+00 -2.482338e+00 5.804985e+00 0.000000e+00 5.804985e+00 -1.157260e+00 0.000000e+00 0.000000e+00 0.000000e+00 0.000000e+00 -7.699441e+00 9.472036e+00 0.000000e+00 9.472036e+00 -7.592384e-01 0.000000e+00 0.000000e+00 0.000000e+00 0.000000e+00 -7.186929e+00 1.111989e+01 0.000000e+00 1.111989e+01 7.088871e-01 0.000000e+00 0.000000e+00 0.000000e+00 0.000000e+00 -1.100236e+01 9.593783e+00 0.000000e+00 9.593783e+00 1.007273e+00 0.000000e+00 0.000000e+00 0.000000e+00 0.000000e+00 2.211184e+00 -5.909695e+00 0.000000e+00 -5.909695e+00 -3.833991e+01 0.000000e+00 0.000000e+00 0.000000e+00 0.000000e+00 -9.932039e-01 1.468216e-01 0.000000e+00 1.468216e-01 -5.624261e-01 0.000000e+00 0.000000e+00 0.000000e+00 0.000000e+00 8.592064e-01 -1.144062e+01 0.000000e+00 -1.144062e+01 -2.306999e+01 0.000000e+00 0.000000e+00 0.000000e+00 0.000000e+00 4.274756e+00 -1.123198e+01 0.000000e+00 -1.123198e+01 -2.890818e+01 0.000000e+00 0.000000e+00 0.000000e+00 0.000000e+00 1.960292e+00 -5.132245e+00 0.000000e+00 -5.132245e+00 -4.285180e+01 0.000000e+00 0.000000e+00 0.000000e+00 0.000000e+00 -7.195229e-01 4.142261e-01 0.000000e+00 4.142261e-01 -1.425317e+00 0.000000e+00 0.000000e+00 0.000000e+00 0.000000e+00 2.334200e+00 -7.445380e+00 0.000000e+00 -7.445380e+00 -4.475076e+01 0.000000e+00 0.000000e+00 0.000000e+00 0.000000e+00 2.293086e+00 -4.181342e+00 0.000000e+00 -4.181342e+00 -4.742287e+01 0.000000e+00 0.000000e+00 0.000000e+00 0.000000e+00 -1.595992e+00 -5.488282e+00 0.000000e+00 -5.488282e+00 -4.186130e+01 0.000000e+00 0.000000e+00 0.000000e+00 0.000000e+00 -9.878466e+00 2.712609e+00 0.000000e+00 2.712609e+00 -5.475495e+01 0.000000e+00 0.000000e+00 0.000000e+00 0.000000e+00 8.446034e-01 -2.880121e+00 0.000000e+00 -2.880121e+00 -4.772646e+01 0.000000e+00 0.000000e+00 0.000000e+00 0.000000e+00 7.048419e-01 -3.605574e+00 0.000000e+00 -3.605574e+00 -4.349626e+01 0.000000e+00 0.000000e+00 0.000000e+00 0.000000e+00 2.041018e+00 -3.394388e+00 0.000000e+00 -3.394388e+00 -4.833009e+01 0.000000e+00 0.000000e+00 0.000000e+00 0.000000e+00 3.055184e+00 -5.110409e+00 0.000000e+00 -5.110409e+00 -4.264457e+01 0.000000e+00 0.000000e+00 0.000000e+00 0.000000e+00 -3.197492e-01 -2.155370e+00 0.000000e+00 -2.155370e+00 -4.593671e+01 0.000000e+00 0.000000e+00 0.000000e+00 0.000000e+00 -2.430867e+00 -4.307147e-01 0.000000e+00 -4.307147e-01 -5.006275e+01 0.000000e+00 0.000000e+00 0.000000e+00 0.000000e+00 1.128972e+00 -2.935159e+00 0.000000e+00 -2.935159e+00 -4.772528e+01 0.000000e+00 0.000000e+00 0.000000e+00 0.000000e+00 9.143106e-01 9.357560e-01 0.000000e+00 9.357560e-01 -5.894969e+01 0.000000e+00 0.000000e+00 0.000000e+00 0.000000e+00 3.471030e+00 -7.411858e+00 0.000000e+00 -7.411858e+00 -3.981494e+01 0.000000e+00 0.000000e+00 0.000000e+00 0.000000e+00 1.005355e+00 -7.166648e+00 0.000000e+00 -7.166648e+00 -3.513669e+01 0.000000e+00 0.000000e+00 0.000000e+00 0.000000e+00 1.705876e-01 -5.412642e+00 0.000000e+00 -5.412642e+00 -3.823098e+01 0.000000e+00 0.000000e+00 0.000000e+00 0.000000e+00 2.752463e+00 -1.355681e+00 0.000000e+00 -1.355681e+00 -5.150849e+01 0.000000e+00 0.000000e+00 0.000000e+00 0.000000e+00 2.301523e+00 -2.174216e+00 0.000000e+00 -2.174216e+00 -5.157448e+01 0.000000e+00 0.000000e+00 0.000000e+00 0.000000e+00 1.266803e+01 -3.492768e+00 0.000000e+00 -3.492768e+00 -1.716561e+01 0.000000e+00 0.000000e+00 0.000000e+00 0.000000e+00 1.189313e+01 -2.639316e+00 0.000000e+00 -2.639316e+00 -1.826217e+01 0.000000e+00 0.000000e+00 0.000000e+00 0.000000e+00 1.199611e+01 -3.046010e+00 0.000000e+00 -3.046010e+00 -1.634708e+01 0.000000e+00 0.000000e+00 0.000000e+00 0.000000e+00 2.068966e+01 -4.532728e+00 0.000000e+00 -4.532728e+00 -5.774489e+00 0.000000e+00 0.000000e+00 0.000000e+00 0.000000e+00 1.888143e+01 -3.754653e+00 0.000000e+00 -3.754653e+00 -6.837500e+00 0.000000e+00 0.000000e+00 0.000000e+00 0.000000e+00 2.011139e+01 -3.973219e+00 0.000000e+00 -3.973219e+00 -5.012045e+00 0.000000e+00 0.000000e+00 0.000000e+00 0.000000e+00 1.037644e+00 -1.119364e+00 0.000000e+00 -1.119364e+00 -1.220700e-01 0.000000e+00 0.000000e+00 0.000000e+00 0.000000e+00 -9.867408e+00 6.736893e+00 0.000000e+00 6.736893e+00 8.811425e+00 0.000000e+00 0.000000e+00 0.000000e+00 0.000000e+00 1.112833e+01 -4.483170e+00 0.000000e+00 -4.483170e+00 -2.003924e+01 0.000000e+00 0.000000e+00 0.000000e+00 0.000000e+00 7.052794e-01 -1.309064e+01 0.000000e+00 -1.309064e+01 -1.819153e+01 0.000000e+00 0.000000e+00 0.000000e+00 0.000000e+00 3.106258e+01 -5.762980e+00 0.000000e+00 -5.762980e+00 6.547329e+00 0.000000e+00 0.000000e+00 0.000000e+00 0.000000e+00 2.769320e+01 -4.834040e+00 0.000000e+00 -4.834040e+00 5.083141e+00 0.000000e+00 0.000000e+00 0.000000e+00 0.000000e+00 2.968197e+01 -5.115900e+00 0.000000e+00 -5.115900e+00 7.275878e+00 0.000000e+00 0.000000e+00 0.000000e+00 0.000000e+00 6.166655e+01 -1.207258e+01 0.000000e+00 -1.207258e+01 5.080999e+01 0.000000e+00 0.000000e+00 0.000000e+00 0.000000e+00 7.977110e+01 -2.226774e+01 0.000000e+00 -2.226774e+01 8.387846e+01 0.000000e+00 0.000000e+00 0.000000e+00 0.000000e+00 6.212152e+01 -1.748688e+01 0.000000e+00 -1.748688e+01 7.614893e+01 0.000000e+00 0.000000e+00 0.000000e+00 0.000000e+00 6.064412e+01 -1.781680e+01 0.000000e+00 -1.781680e+01 9.214289e+01 0.000000e+00 0.000000e+00 0.000000e+00 0.000000e+00 1.095050e+01 6.276570e+00 0.000000e+00 6.276570e+00 9.387367e-02 0.000000e+00 0.000000e+00 0.000000e+00 0.000000e+00 1.221235e+01 7.267862e+00 0.000000e+00 7.267862e+00 1.322727e+00 0.000000e+00 0.000000e+00 0.000000e+00 0.000000e+00 2.874849e+00 -1.568241e+01 0.000000e+00 -1.568241e+01 -1.688198e+01 0.000000e+00 0.000000e+00 0.000000e+00 0.000000e+00 -2.255487e-02 -1.048247e+00 0.000000e+00 -1.048247e+00 7.734989e-01 0.000000e+00 0.000000e+00 0.000000e+00 0.000000e+00 2.583328e+01 -4.444110e+00 0.000000e+00 -4.444110e+00 1.164480e+00 0.000000e+00 0.000000e+00 0.000000e+00 0.000000e+00 2.230514e+00 -2.059484e+00 0.000000e+00 -2.059484e+00 -5.778326e+01 0.000000e+00 0.000000e+00 0.000000e+00 0.000000e+00 1.955258e+01 9.743918e+00 0.000000e+00 9.743918e+00 2.582267e+00 0.000000e+00 0.000000e+00 0.000000e+00 0.000000e+00 -4.146491e+00 7.836313e+00 0.000000e+00 7.836313e+00 -4.913030e-01 0.000000e+00 0.000000e+00 0.000000e+00 0.000000e+00 3.676011e+01 5.097784e+00 0.000000e+00 5.097784e+00 9.985976e+01 0.000000e+00 0.000000e+00 0.000000e+00 0.000000e+00 -8.748567e+00 9.470297e+00 0.000000e+00 9.470297e+00 6.014999e-01 0.000000e+00 0.000000e+00 0.000000e+00 0.000000e+00 -9.240489e+00 9.063150e+00 0.000000e+00 9.063150e+00 4.290319e+00 0.000000e+00 0.000000e+00 0.000000e+00 0.000000e+00 5.557209e+01 -1.134634e+01 0.000000e+00 -1.134634e+01 4.460646e+01 0.000000e+00 0.000000e+00 0.000000e+00 0.000000e+00 6.926773e-01 -1.675347e+01 0.000000e+00 -1.675347e+01 -9.899018e+00 0.000000e+00 0.000000e+00 0.000000e+00 0.000000e+00 5.837196e+01 -1.862212e+01 0.000000e+00 -1.862212e+01 5.538516e+01 0.000000e+00 0.000000e+00 0.000000e+00 0.000000e+00 3.552557e+01 2.824521e+01 0.000000e+00 2.824521e+01 8.828063e+01 0.000000e+00 0.000000e+00 0.000000e+00 0.000000e+00 9.017177e+00 1.001358e+01 0.000000e+00 1.001358e+01 3.056521e-02 0.000000e+00 0.000000e+00 0.000000e+00 0.000000e+00 1.873312e+00 -3.220608e+00 0.000000e+00 -3.220608e+00 -4.262323e+01 0.000000e+00 0.000000e+00 0.000000e+00 0.000000e+00 6.626117e+01 5.649763e+01 0.000000e+00 5.649763e+01 8.907470e+01 0.000000e+00 0.000000e+00 0.000000e+00 0.000000e+00 3.648263e+00 -5.294597e+00 0.000000e+00 -5.294597e+00 -4.244686e+01 0.000000e+00 0.000000e+00 0.000000e+00 0.000000e+00 2.323599e+00 -2.207892e-01 0.000000e+00 -2.207892e-01 -4.917902e+01 0.000000e+00 0.000000e+00 0.000000e+00 0.000000e+00 3.690696e+00 -2.120245e+00 0.000000e+00 -2.120245e+00 -6.016206e+01 0.000000e+00 0.000000e+00 0.000000e+00 0.000000e+00 3.043634e+01 1.887423e+01 0.000000e+00 1.887423e+01 1.570020e+01 0.000000e+00 0.000000e+00 0.000000e+00 0.000000e+00 3.107857e+01 2.607059e+01 0.000000e+00 2.607059e+01 6.445541e+01 0.000000e+00 0.000000e+00 0.000000e+00 0.000000e+00 -1.413860e+00 2.699164e+00 0.000000e+00 2.699164e+00 -3.007671e+00 0.000000e+00 0.000000e+00 0.000000e+00 0.000000e+00 2.947230e+00 -3.770687e+00 0.000000e+00 -3.770687e+00 -4.457851e+01 0.000000e+00 0.000000e+00 0.000000e+00 0.000000e+00 -8.584511e-01 1.190904e+00 0.000000e+00 1.190904e+00 -3.918106e+00 0.000000e+00 0.000000e+00 0.000000e+00 0.000000e+00 7.762300e-01 -3.817520e+00 0.000000e+00 -3.817520e+00 -4.056476e+01 0.000000e+00 0.000000e+00 0.000000e+00 0.000000e+00 8.384978e+00 -3.921768e+00 0.000000e+00 -3.921768e+00 -2.106664e+01 0.000000e+00 0.000000e+00 0.000000e+00 0.000000e+00 -5.618540e+00 -1.513415e+01 0.000000e+00 -1.513415e+01 -1.157413e+00 0.000000e+00 0.000000e+00 0.000000e+00 0.000000e+00 -2.889320e+00 -1.603015e+01 0.000000e+00 -1.603015e+01 -5.149183e+00 0.000000e+00 0.000000e+00 0.000000e+00 0.000000e+00 2.711609e+00 -2.625991e+00 0.000000e+00 -2.625991e+00 -5.746008e+01 0.000000e+00 0.000000e+00 0.000000e+00 0.000000e+00 -1.303991e+00 3.892217e+00 0.000000e+00 3.892217e+00 -1.513963e+00 0.000000e+00 0.000000e+00 0.000000e+00 0.000000e+00 1.140035e+00 -3.103697e+00 0.000000e+00 -3.103697e+00 -4.218576e+01 0.000000e+00 0.000000e+00 0.000000e+00 0.000000e+00 3.566866e+01 2.332431e+01 0.000000e+00 2.332431e+01 7.705092e+01 0.000000e+00 0.000000e+00 0.000000e+00 0.000000e+00 3.763384e+01 1.350565e+01 0.000000e+00 1.350565e+01 1.132500e+02 0.000000e+00 0.000000e+00 0.000000e+00 0.000000e+00 -2.240088e+00 4.774245e+00 0.000000e+00 4.774245e+00 -4.844675e+00 0.000000e+00 0.000000e+00 0.000000e+00 0.000000e+00 7.339169e+00 1.066620e+01 0.000000e+00 1.066620e+01 9.210856e-01 0.000000e+00 0.000000e+00 0.000000e+00 0.000000e+00 4.051577e+00 -5.826316e+00 0.000000e+00 -5.826316e+00 -3.865536e+01 0.000000e+00 0.000000e+00 0.000000e+00 0.000000e+00 2.208877e+01 1.177027e+01 0.000000e+00 1.177027e+01 4.919994e+00 0.000000e+00 0.000000e+00 0.000000e+00 0.000000e+00 1.628999e+01 9.968215e+00 0.000000e+00 9.968215e+00 2.082295e+00 0.000000e+00 0.000000e+00 0.000000e+00 0.000000e+00 -4.218133e-01 -5.767011e+00 0.000000e+00 -5.767011e+00 -4.930601e+01 0.000000e+00 0.000000e+00 0.000000e+00 0.000000e+00 -5.152001e+00 1.128673e+01 0.000000e+00 1.128673e+01 8.906992e-01 0.000000e+00 0.000000e+00 0.000000e+00 0.000000e+00 1.964592e+01 -5.985779e+00 0.000000e+00 -5.985779e+00 -6.846651e+00 0.000000e+00 0.000000e+00 0.000000e+00 0.000000e+00 2.070505e+00 -1.648179e+00 0.000000e+00 -1.648179e+00 -4.513737e+01 0.000000e+00 0.000000e+00 0.000000e+00 0.000000e+00 6.978730e+00 -2.211175e+00 0.000000e+00 -2.211175e+00 -2.628968e+01 0.000000e+00 0.000000e+00 0.000000e+00 0.000000e+00 2.407185e+01 2.269258e+01 0.000000e+00 2.269258e+01 4.421430e+01 0.000000e+00 0.000000e+00 0.000000e+00 0.000000e+00 2.204747e+01 2.069139e+01 0.000000e+00 2.069139e+01 4.211060e+01 0.000000e+00 0.000000e+00 0.000000e+00 0.000000e+00 1.094828e+01 -3.843188e+00 0.000000e+00 -3.843188e+00 -1.897233e+01 0.000000e+00 0.000000e+00 0.000000e+00 0.000000e+00 1.135924e+01 -4.615898e+00 0.000000e+00 -4.615898e+00 -1.773344e+01 0.000000e+00 0.000000e+00 0.000000e+00 0.000000e+00 -6.732909e+00 6.837848e+00 0.000000e+00 6.837848e+00 7.868537e+00 0.000000e+00 0.000000e+00 0.000000e+00 0.000000e+00 5.034152e+01 -1.325458e+01 0.000000e+00 -1.325458e+01 3.433225e+01 0.000000e+00 0.000000e+00 0.000000e+00 0.000000e+00 6.664428e+01 -1.489073e+01 0.000000e+00 -1.489073e+01 5.617585e+01 0.000000e+00 0.000000e+00 0.000000e+00 0.000000e+00 3.273808e+01 2.358293e+01 0.000000e+00 2.358293e+01 8.700789e+01 0.000000e+00 0.000000e+00 0.000000e+00 0.000000e+00 2.777041e+01 1.535920e+01 0.000000e+00 1.535920e+01 7.880367e+01 0.000000e+00 0.000000e+00 0.000000e+00 0.000000e+00 2.529179e+01 2.093693e+01 0.000000e+00 2.093693e+01 5.953317e+01 0.000000e+00 0.000000e+00 0.000000e+00 0.000000e+00 4.004818e+01 -1.076147e+01 0.000000e+00 -1.076147e+01 1.992653e+01 0.000000e+00 0.000000e+00 0.000000e+00 0.000000e+00 3.211423e+01 -8.991742e+00 0.000000e+00 -8.991742e+00 1.059237e+01 0.000000e+00 0.000000e+00 0.000000e+00 0.000000e+00 4.958415e+01 -1.165314e+01 0.000000e+00 -1.165314e+01 9.738991e+01 0.000000e+00 0.000000e+00 0.000000e+00 0.000000e+00 3.958985e+01 -3.633660e+00 0.000000e+00 -3.633660e+00 1.100405e+02 0.000000e+00 0.000000e+00 0.000000e+00 0.000000e+00 1.493675e+01 -5.925542e+00 0.000000e+00 -5.925542e+00 -1.198180e+01 0.000000e+00 0.000000e+00 0.000000e+00 0.000000e+00 4.662476e+01 -8.394458e+00 0.000000e+00 -8.394458e+00 2.960187e+01 0.000000e+00 0.000000e+00 0.000000e+00 0.000000e+00 2.137879e+01 1.422334e+01 0.000000e+00 1.422334e+01 8.223222e+00 0.000000e+00 0.000000e+00 0.000000e+00 0.000000e+00 2.536516e+01 1.444754e+01 0.000000e+00 1.444754e+01 8.836812e+00 0.000000e+00 0.000000e+00 0.000000e+00 0.000000e+00 1.110036e+01 9.571499e+00 0.000000e+00 9.571499e+00 7.262741e-01 0.000000e+00 0.000000e+00 0.000000e+00 0.000000e+00 8.279762e+00 1.115449e+01 0.000000e+00 1.115449e+01 1.213037e+00 0.000000e+00 0.000000e+00 0.000000e+00 0.000000e+00 1.819895e+01 -5.472559e+00 0.000000e+00 -5.472559e+00 -8.983239e+00 0.000000e+00 0.000000e+00 0.000000e+00 0.000000e+00 1.757708e+01 -5.060808e+00 0.000000e+00 -5.060808e+00 -7.952514e+00 0.000000e+00 0.000000e+00 0.000000e+00 0.000000e+00 7.986225e+01 4.611960e+01 0.000000e+00 4.611960e+01 1.358145e+02 0.000000e+00 0.000000e+00 0.000000e+00 0.000000e+00 2.959017e+01 2.243864e+01 0.000000e+00 2.243864e+01 2.564266e+01 0.000000e+00 0.000000e+00 0.000000e+00 0.000000e+00 2.068428e+01 1.693703e+01 0.000000e+00 1.693703e+01 1.837786e+01 0.000000e+00 0.000000e+00 0.000000e+00 0.000000e+00 1.550905e+01 7.070586e+00 0.000000e+00 7.070586e+00 4.552219e-01 0.000000e+00 0.000000e+00 0.000000e+00 0.000000e+00 -3.489286e+00 -1.539367e+01 0.000000e+00 -1.539367e+01 -6.061837e+00 0.000000e+00 0.000000e+00 0.000000e+00 0.000000e+00 5.293364e+01 -1.510693e+01 0.000000e+00 -1.510693e+01 5.788681e+01 0.000000e+00 0.000000e+00 0.000000e+00 0.000000e+00 6.439374e+01 -1.933651e+01 0.000000e+00 -1.933651e+01 6.431883e+01 0.000000e+00 0.000000e+00 0.000000e+00 0.000000e+00 -8.745280e+00 1.032751e+01 0.000000e+00 1.032751e+01 1.916821e+00 0.000000e+00 0.000000e+00 0.000000e+00 0.000000e+00 1.739251e+01 8.236541e+00 0.000000e+00 8.236541e+00 1.052300e+00 0.000000e+00 0.000000e+00 0.000000e+00 0.000000e+00 1.355536e-01 9.865441e-01 0.000000e+00 9.865441e-01 -1.052330e+00 0.000000e+00 0.000000e+00 0.000000e+00 0.000000e+00 -4.829478e+00 1.009767e+01 0.000000e+00 1.009767e+01 4.558630e+00 0.000000e+00 0.000000e+00 0.000000e+00 0.000000e+00 3.782953e+00 -3.103838e+00 0.000000e+00 -3.103838e+00 -3.902057e+01 0.000000e+00 0.000000e+00 0.000000e+00 0.000000e+00 -4.949889e+00 1.140439e+01 0.000000e+00 1.140439e+01 2.535593e+00 0.000000e+00 0.000000e+00 0.000000e+00 0.000000e+00 5.563727e+01 -1.711277e+01 0.000000e+00 -1.711277e+01 4.767557e+01 0.000000e+00 0.000000e+00 0.000000e+00 0.000000e+00 4.892779e+01 -1.495362e+01 0.000000e+00 -1.495362e+01 4.971443e+01 0.000000e+00 0.000000e+00 0.000000e+00 0.000000e+00 -8.654555e-01 -1.527494e+01 0.000000e+00 -1.527494e+01 -1.078428e+01 0.000000e+00 0.000000e+00 0.000000e+00 0.000000e+00 2.146855e+00 -3.080075e+00 0.000000e+00 -3.080075e+00 -3.950490e+01 0.000000e+00 0.000000e+00 0.000000e+00 0.000000e+00 4.884473e+00 -1.944824e+00 0.000000e+00 -1.944824e+00 -3.294448e+01 0.000000e+00 0.000000e+00 0.000000e+00 0.000000e+00 2.491497e+01 -7.226024e+00 0.000000e+00 -7.226024e+00 1.809328e+00 0.000000e+00 0.000000e+00 0.000000e+00 0.000000e+00 1.083291e+01 8.768082e+00 0.000000e+00 8.768082e+00 7.888144e-01 0.000000e+00 0.000000e+00 0.000000e+00 0.000000e+00 3.746447e+01 -9.637905e+00 0.000000e+00 -9.637905e+00 1.644892e+01 0.000000e+00 0.000000e+00 0.000000e+00 0.000000e+00 3.480074e+01 -9.015045e+00 0.000000e+00 -9.015045e+00 1.721909e+01 0.000000e+00 0.000000e+00 0.000000e+00 0.000000e+00 2.487568e+00 -2.127816e+00 0.000000e+00 -2.127816e+00 -4.150549e+01 0.000000e+00 0.000000e+00 0.000000e+00 0.000000e+00 1.432757e+01 -5.587679e+00 0.000000e+00 -5.587679e+00 -1.446476e+01 0.000000e+00 0.000000e+00 0.000000e+00 0.000000e+00 1.350309e+01 -4.920055e+00 0.000000e+00 -4.920055e+00 -1.335818e+01 0.000000e+00 0.000000e+00 0.000000e+00 0.000000e+00 2.204027e+00 -3.139040e+00 0.000000e+00 -3.139040e+00 -3.871419e+01 0.000000e+00 0.000000e+00 0.000000e+00 0.000000e+00 4.662331e+00 -4.128651e+00 0.000000e+00 -4.128651e+00 -3.014584e+01 0.000000e+00 0.000000e+00 0.000000e+00 0.000000e+00 2.233903e+01 -7.075730e+00 0.000000e+00 -7.075730e+00 -2.583329e+00 0.000000e+00 0.000000e+00 0.000000e+00 0.000000e+00 1.748791e+01 -3.486595e+00 0.000000e+00 -3.486595e+00 -1.043411e+01 0.000000e+00 0.000000e+00 0.000000e+00 0.000000e+00 1.351822e+01 -1.636481e+01 0.000000e+00 -1.636481e+01 1.544084e+01 0.000000e+00 0.000000e+00 0.000000e+00 0.000000e+00 1.338162e+01 7.640629e+00 0.000000e+00 7.640629e+00 -2.269301e-01 0.000000e+00 0.000000e+00 0.000000e+00 0.000000e+00 4.826476e+00 -7.584807e+00 0.000000e+00 -7.584807e+00 -3.595220e+01 0.000000e+00 0.000000e+00 0.000000e+00 0.000000e+00 1.054671e+01 -5.146225e+00 0.000000e+00 -5.146225e+00 -2.186564e+01 0.000000e+00 0.000000e+00 0.000000e+00 0.000000e+00 -2.876925e-01 8.299871e-01 0.000000e+00 8.299871e-01 -1.832714e+00 0.000000e+00 0.000000e+00 0.000000e+00 0.000000e+00 5.706334e+00 -3.541584e+00 0.000000e+00 -3.541584e+00 -2.781725e+01 0.000000e+00 0.000000e+00 0.000000e+00 0.000000e+00 6.920187e+00 -3.535212e+00 0.000000e+00 -3.535212e+00 -2.926902e+01 0.000000e+00 0.000000e+00 0.000000e+00 0.000000e+00 8.121243e+00 -3.586564e+00 0.000000e+00 -3.586564e+00 -2.709826e+01 0.000000e+00 0.000000e+00 0.000000e+00 0.000000e+00 1.536311e+01 8.567169e+00 0.000000e+00 8.567169e+00 7.167399e-01 0.000000e+00 0.000000e+00 0.000000e+00 0.000000e+00 -1.047963e+01 -3.454499e+00 0.000000e+00 -3.454499e+00 1.618202e+01 0.000000e+00 0.000000e+00 0.000000e+00 0.000000e+00 2.331099e+01 -7.279042e+00 0.000000e+00 -7.279042e+00 -3.827148e-01 0.000000e+00 0.000000e+00 0.000000e+00 0.000000e+00 2.186844e+01 -6.305713e+00 0.000000e+00 -6.305713e+00 -1.772306e+00 0.000000e+00 0.000000e+00 0.000000e+00 0.000000e+00 2.490676e+01 -6.523942e+00 0.000000e+00 -6.523942e+00 5.413268e-01 0.000000e+00 0.000000e+00 0.000000e+00 0.000000e+00 1.796447e+00 -3.136563e+00 0.000000e+00 -3.136563e+00 -4.700516e+01 0.000000e+00 0.000000e+00 0.000000e+00 0.000000e+00 1.425966e+01 6.067758e+00 0.000000e+00 6.067758e+00 9.069202e-01 0.000000e+00 0.000000e+00 0.000000e+00 0.000000e+00 3.112368e+00 1.109834e+01 0.000000e+00 1.109834e+01 1.170634e+00 0.000000e+00 0.000000e+00 0.000000e+00 0.000000e+00 1.772287e+00 -1.677361e+00 0.000000e+00 -1.677361e+00 -4.785611e+01 0.000000e+00 0.000000e+00 0.000000e+00 0.000000e+00 1.353303e+00 -5.035867e+00 0.000000e+00 -5.035867e+00 -3.549812e+01 0.000000e+00 0.000000e+00 0.000000e+00 0.000000e+00 1.892790e+01 1.169235e+01 0.000000e+00 1.169235e+01 4.416420e+00 0.000000e+00 0.000000e+00 0.000000e+00 0.000000e+00 2.955543e+00 -4.402772e+00 0.000000e+00 -4.402772e+00 -4.099995e+01 0.000000e+00 0.000000e+00 0.000000e+00 0.000000e+00 4.552290e+01 -1.228636e+01 0.000000e+00 -1.228636e+01 3.670183e+01 0.000000e+00 0.000000e+00 0.000000e+00 0.000000e+00 5.345705e+01 -1.512633e+01 0.000000e+00 -1.512633e+01 4.100051e+01 0.000000e+00 0.000000e+00 0.000000e+00 0.000000e+00 -1.061780e+01 2.357599e+00 0.000000e+00 2.357599e+00 1.342950e+01 0.000000e+00 0.000000e+00 0.000000e+00 0.000000e+00 2.442215e+00 -2.582924e+00 0.000000e+00 -2.582924e+00 -3.677161e+01 0.000000e+00 0.000000e+00 0.000000e+00 0.000000e+00 3.568092e+00 -4.917515e+00 0.000000e+00 -4.917515e+00 -3.622977e+01 0.000000e+00 0.000000e+00 0.000000e+00 0.000000e+00 4.424864e+00 -4.062804e+00 0.000000e+00 -4.062804e+00 -3.533900e+01 0.000000e+00 0.000000e+00 0.000000e+00 0.000000e+00 2.568362e+01 -6.356877e+00 0.000000e+00 -6.356877e+00 2.589322e+00 0.000000e+00 0.000000e+00 0.000000e+00 0.000000e+00 2.640953e+01 -7.096011e+00 0.000000e+00 -7.096011e+00 3.950537e+00 0.000000e+00 0.000000e+00 0.000000e+00 0.000000e+00 -7.808674e-01 2.334841e+00 0.000000e+00 2.334841e+00 -2.431771e+00 0.000000e+00 0.000000e+00 0.000000e+00 0.000000e+00 -9.820805e+00 -5.626288e+00 0.000000e+00 -5.626288e+00 9.897737e+00 0.000000e+00 0.000000e+00 0.000000e+00 0.000000e+00 4.766185e+00 1.201085e+01 0.000000e+00 1.201085e+01 2.075226e+00 0.000000e+00 0.000000e+00 0.000000e+00 0.000000e+00 1.585154e+01 -1.918818e+01 0.000000e+00 -1.918818e+01 1.447141e+01 0.000000e+00 0.000000e+00 0.000000e+00 0.000000e+00 4.916328e+00 -9.514636e+00 0.000000e+00 -9.514636e+00 -3.291386e+01 0.000000e+00 0.000000e+00 0.000000e+00 0.000000e+00 1.265535e+00 -9.298079e+00 0.000000e+00 -9.298079e+00 -2.820613e+01 0.000000e+00 0.000000e+00 0.000000e+00 0.000000e+00 3.373202e+00 2.333095e+00 0.000000e+00 2.333095e+00 -6.304086e+01 0.000000e+00 0.000000e+00 0.000000e+00 0.000000e+00 -9.293534e+00 -9.845620e+00 0.000000e+00 -9.845620e+00 1.460631e+01 0.000000e+00 0.000000e+00 0.000000e+00 0.000000e+00 1.815597e+01 -5.774218e+00 0.000000e+00 -5.774218e+00 -5.967445e+00 0.000000e+00 0.000000e+00 0.000000e+00 0.000000e+00 2.100398e+01 -6.519939e+00 0.000000e+00 -6.519939e+00 -4.847474e+00 0.000000e+00 0.000000e+00 0.000000e+00 0.000000e+00 -6.301615e+00 -5.939023e+00 0.000000e+00 -5.939023e+00 2.166049e+01 0.000000e+00 0.000000e+00 0.000000e+00 0.000000e+00 1.221708e+01 6.947681e+00 0.000000e+00 6.947681e+00 -3.998909e-01 0.000000e+00 0.000000e+00 0.000000e+00 0.000000e+00 9.360691e+00 -4.508332e+00 0.000000e+00 -4.508332e+00 -2.450377e+01 0.000000e+00 0.000000e+00 0.000000e+00 0.000000e+00 6.671734e+00 -3.742226e+00 0.000000e+00 -3.742226e+00 -2.548815e+01 0.000000e+00 0.000000e+00 0.000000e+00 0.000000e+00 7.328382e+00 -4.467980e+00 0.000000e+00 -4.467980e+00 -2.301135e+01 0.000000e+00 0.000000e+00 0.000000e+00 0.000000e+00 -5.028440e+00 -1.646354e+01 0.000000e+00 -1.646354e+01 1.233010e+00 0.000000e+00 0.000000e+00 0.000000e+00 0.000000e+00 2.946258e+01 -7.839888e+00 0.000000e+00 -7.839888e+00 8.949529e+00 0.000000e+00 0.000000e+00 0.000000e+00 0.000000e+00 3.105868e+01 -8.398661e+00 0.000000e+00 -8.398661e+00 7.953497e+00 0.000000e+00 0.000000e+00 0.000000e+00 0.000000e+00 4.858340e+01 -1.076919e+01 0.000000e+00 -1.076919e+01 2.875927e+01 0.000000e+00 0.000000e+00 0.000000e+00 0.000000e+00 4.314405e+01 -1.185485e+01 0.000000e+00 -1.185485e+01 3.166664e+01 0.000000e+00 0.000000e+00 0.000000e+00 0.000000e+00 1.015893e+01 8.329058e+00 0.000000e+00 8.329058e+00 -2.085478e-02 0.000000e+00 0.000000e+00 0.000000e+00 0.000000e+00 9.911828e-01 -1.428795e+01 0.000000e+00 -1.428795e+01 -1.555281e+01 0.000000e+00 0.000000e+00 0.000000e+00 0.000000e+00 1.517436e+00 -7.228706e+00 0.000000e+00 -7.228706e+00 -3.234074e+01 0.000000e+00 0.000000e+00 0.000000e+00 0.000000e+00 -9.259035e+00 9.276458e-01 0.000000e+00 9.276458e-01 9.829992e+00 0.000000e+00 0.000000e+00 0.000000e+00 0.000000e+00 8.757771e+00 -5.126936e+00 0.000000e+00 -5.126936e+00 -2.034915e+01 0.000000e+00 0.000000e+00 0.000000e+00 0.000000e+00 2.016255e+00 -1.812938e+01 0.000000e+00 -1.812938e+01 -7.467882e+00 0.000000e+00 0.000000e+00 0.000000e+00 0.000000e+00 4.611888e+00 -4.438184e+00 0.000000e+00 -4.438184e+00 -3.250515e+01 0.000000e+00 0.000000e+00 0.000000e+00 0.000000e+00 3.710546e+00 -3.198080e+00 0.000000e+00 -3.198080e+00 -3.374543e+01 0.000000e+00 0.000000e+00 0.000000e+00 0.000000e+00 6.146048e+00 -3.599242e+00 0.000000e+00 -3.599242e+00 -3.153954e+01 0.000000e+00 0.000000e+00 0.000000e+00 0.000000e+00 1.783665e+01 1.267149e+01 0.000000e+00 1.267149e+01 5.531132e+00 0.000000e+00 0.000000e+00 0.000000e+00 0.000000e+00 2.038092e+01 1.685586e+01 0.000000e+00 1.685586e+01 1.658771e+01 0.000000e+00 0.000000e+00 0.000000e+00 0.000000e+00 5.042230e+00 -1.404097e+01 0.000000e+00 -1.404097e+01 -2.090842e+01 0.000000e+00 0.000000e+00 0.000000e+00 0.000000e+00 1.958004e+01 -6.055540e+00 0.000000e+00 -6.055540e+00 -4.027625e+00 0.000000e+00 0.000000e+00 0.000000e+00 0.000000e+00 1.549620e+01 -5.368778e+00 0.000000e+00 -5.368778e+00 -9.792256e+00 0.000000e+00 0.000000e+00 0.000000e+00 0.000000e+00 3.408722e+01 -9.143172e+00 0.000000e+00 -9.143172e+00 1.330653e+01 0.000000e+00 0.000000e+00 0.000000e+00 0.000000e+00 3.220852e+01 -8.001010e+00 0.000000e+00 -8.001010e+00 1.165451e+01 0.000000e+00 0.000000e+00 0.000000e+00 0.000000e+00 3.491299e+01 -8.245530e+00 0.000000e+00 -8.245530e+00 1.424846e+01 0.000000e+00 0.000000e+00 0.000000e+00 0.000000e+00 -8.439861e+00 -1.085736e+01 0.000000e+00 -1.085736e+01 9.028313e+00 0.000000e+00 0.000000e+00 0.000000e+00 0.000000e+00 1.453255e+01 9.284299e+00 0.000000e+00 9.284299e+00 1.082996e+00 0.000000e+00 0.000000e+00 0.000000e+00 0.000000e+00 1.886588e+01 1.489572e+01 0.000000e+00 1.489572e+01 1.066026e+01 0.000000e+00 0.000000e+00 0.000000e+00 0.000000e+00 1.511125e+01 1.375438e+01 0.000000e+00 1.375438e+01 1.014043e+01 0.000000e+00 0.000000e+00 0.000000e+00 0.000000e+00 1.247084e+01 1.193085e+01 0.000000e+00 1.193085e+01 5.733620e+00 0.000000e+00 0.000000e+00 0.000000e+00 0.000000e+00 5.809817e+00 -7.187751e+00 0.000000e+00 -7.187751e+00 -3.307597e+01 0.000000e+00 0.000000e+00 0.000000e+00 0.000000e+00 -2.093217e+00 1.219428e+01 0.000000e+00 1.219428e+01 2.173764e+00 0.000000e+00 0.000000e+00 0.000000e+00 0.000000e+00 1.364809e+01 8.151594e+00 0.000000e+00 8.151594e+00 9.129511e-01 0.000000e+00 0.000000e+00 0.000000e+00 0.000000e+00 2.975019e+01 -1.116347e+01 0.000000e+00 -1.116347e+01 9.833232e+00 0.000000e+00 0.000000e+00 0.000000e+00 0.000000e+00 2.654605e+01 -7.294469e+00 0.000000e+00 -7.294469e+00 6.145827e+00 0.000000e+00 0.000000e+00 0.000000e+00 0.000000e+00 6.129687e+00 -9.893580e+00 0.000000e+00 -9.893580e+00 -2.903891e+01 0.000000e+00 0.000000e+00 0.000000e+00 0.000000e+00 1.814632e+00 -1.221941e+01 0.000000e+00 -1.221941e+01 -2.022401e+01 0.000000e+00 0.000000e+00 0.000000e+00 0.000000e+00 -1.187952e+00 1.116962e+01 0.000000e+00 1.116962e+01 1.320304e+00 0.000000e+00 0.000000e+00 0.000000e+00 0.000000e+00 1.051386e+01 9.198112e+00 0.000000e+00 9.198112e+00 -4.079416e-03 0.000000e+00 0.000000e+00 0.000000e+00 0.000000e+00 1.352357e+01 -4.475072e+00 0.000000e+00 -4.475072e+00 -1.707251e+01 0.000000e+00 0.000000e+00 0.000000e+00 0.000000e+00 1.722838e+01 -1.883088e+01 0.000000e+00 -1.883088e+01 3.119204e+01 0.000000e+00 0.000000e+00 0.000000e+00 0.000000e+00 1.180956e+01 -4.754909e+00 0.000000e+00 -4.754909e+00 -1.557637e+01 0.000000e+00 0.000000e+00 0.000000e+00 0.000000e+00 4.808248e+00 1.120744e+01 0.000000e+00 1.120744e+01 2.034256e+00 0.000000e+00 0.000000e+00 0.000000e+00 0.000000e+00 4.122851e+01 -1.153863e+01 0.000000e+00 -1.153863e+01 2.348334e+01 0.000000e+00 0.000000e+00 0.000000e+00 0.000000e+00 -4.718976e+00 7.286707e+00 0.000000e+00 7.286707e+00 1.536619e+01 0.000000e+00 0.000000e+00 0.000000e+00 0.000000e+00 1.887118e+00 -1.987845e+00 0.000000e+00 -1.987845e+00 -5.172109e+01 0.000000e+00 0.000000e+00 0.000000e+00 0.000000e+00 4.265668e+01 -1.063130e+01 0.000000e+00 -1.063130e+01 2.697642e+01 0.000000e+00 0.000000e+00 0.000000e+00 0.000000e+00 1.250414e+00 1.230338e+01 0.000000e+00 1.230338e+01 2.282205e+00 0.000000e+00 0.000000e+00 0.000000e+00 0.000000e+00 -3.874388e+00 9.886595e+00 0.000000e+00 9.886595e+00 7.783915e+00 0.000000e+00 0.000000e+00 0.000000e+00 0.000000e+00 3.721314e-01 1.101091e+01 0.000000e+00 1.101091e+01 8.612541e+00 0.000000e+00 0.000000e+00 0.000000e+00 0.000000e+00 4.341829e+01 -1.051675e+01 0.000000e+00 -1.051675e+01 2.443067e+01 0.000000e+00 0.000000e+00 0.000000e+00 0.000000e+00 1.308734e+00 -3.001555e+00 0.000000e+00 -3.001555e+00 -5.261710e+01 0.000000e+00 0.000000e+00 0.000000e+00 0.000000e+00 6.137979e-01 1.104386e+01 0.000000e+00 1.104386e+01 2.115654e+00 0.000000e+00 0.000000e+00 0.000000e+00 0.000000e+00 4.496094e+01 -1.461985e+01 0.000000e+00 -1.461985e+01 3.115164e+01 0.000000e+00 0.000000e+00 0.000000e+00 0.000000e+00 3.670219e+01 -9.703414e+00 0.000000e+00 -9.703414e+00 2.057215e+01 0.000000e+00 0.000000e+00 0.000000e+00 0.000000e+00 1.811522e+01 -1.715402e+01 0.000000e+00 -1.715402e+01 2.113218e+01 0.000000e+00 0.000000e+00 0.000000e+00 0.000000e+00 1.430120e+01 -1.440915e+01 0.000000e+00 -1.440915e+01 4.251544e+01 0.000000e+00 0.000000e+00 0.000000e+00 0.000000e+00 -5.903770e+00 1.578124e+00 0.000000e+00 1.578124e+00 2.118753e+01 0.000000e+00 0.000000e+00 0.000000e+00 0.000000e+00 -3.409449e+00 6.115943e+00 0.000000e+00 6.115943e+00 1.289435e+01 0.000000e+00 0.000000e+00 0.000000e+00 0.000000e+00 -6.246794e+00 -9.417958e-01 0.000000e+00 -9.417958e-01 1.545556e+01 0.000000e+00 0.000000e+00 0.000000e+00 0.000000e+00 6.351089e+00 -1.232422e+01 0.000000e+00 -1.232422e+01 -2.473603e+01 0.000000e+00 0.000000e+00 0.000000e+00 0.000000e+00 -3.471955e+00 -5.099715e+00 0.000000e+00 -5.099715e+00 -6.338034e+01 0.000000e+00 0.000000e+00 0.000000e+00 0.000000e+00 -6.175613e+00 -7.937090e+00 0.000000e+00 -7.937090e+00 1.519628e+01 0.000000e+00 0.000000e+00 0.000000e+00 0.000000e+00 2.876967e+01 -1.006363e+01 0.000000e+00 -1.006363e+01 1.081836e+01 0.000000e+00 0.000000e+00 0.000000e+00 0.000000e+00 3.112775e+01 -1.145550e+01 0.000000e+00 -1.145550e+01 1.323574e+01 0.000000e+00 0.000000e+00 0.000000e+00 0.000000e+00 9.376506e+00 -5.793094e+00 0.000000e+00 -5.793094e+00 -2.420823e+01 0.000000e+00 0.000000e+00 0.000000e+00 0.000000e+00 2.148390e+01 2.199236e+01 0.000000e+00 2.199236e+01 3.996221e+01 0.000000e+00 0.000000e+00 0.000000e+00 0.000000e+00 1.672369e+01 1.665393e+01 0.000000e+00 1.665393e+01 3.113876e+01 0.000000e+00 0.000000e+00 0.000000e+00 0.000000e+00 3.192977e+00 1.259521e+01 0.000000e+00 1.259521e+01 4.491511e+00 0.000000e+00 0.000000e+00 0.000000e+00 0.000000e+00 3.050055e+01 1.161398e+00 0.000000e+00 1.161398e+00 8.363619e+01 0.000000e+00 0.000000e+00 0.000000e+00 0.000000e+00 2.798799e+00 -8.990083e+00 0.000000e+00 -8.990083e+00 -2.583644e+01 0.000000e+00 0.000000e+00 0.000000e+00 0.000000e+00 3.859871e+01 -1.333777e+01 0.000000e+00 -1.333777e+01 2.167875e+01 0.000000e+00 0.000000e+00 0.000000e+00 0.000000e+00 1.680657e+01 -5.242312e+00 0.000000e+00 -5.242312e+00 -1.103390e+01 0.000000e+00 0.000000e+00 0.000000e+00 0.000000e+00 5.936005e+01 -1.848501e+01 0.000000e+00 -1.848501e+01 8.653957e+01 0.000000e+00 0.000000e+00 0.000000e+00 0.000000e+00 4.578159e+01 -1.432461e+01 0.000000e+00 -1.432461e+01 9.824950e+01 0.000000e+00 0.000000e+00 0.000000e+00 0.000000e+00 2.085033e+01 -8.745804e+00 0.000000e+00 -8.745804e+00 -3.827546e+00 0.000000e+00 0.000000e+00 0.000000e+00 0.000000e+00 6.273028e+01 -2.041357e+01 0.000000e+00 -2.041357e+01 7.557942e+01 0.000000e+00 0.000000e+00 0.000000e+00 0.000000e+00 4.814921e+01 -1.604331e+01 0.000000e+00 -1.604331e+01 8.217210e+01 0.000000e+00 0.000000e+00 0.000000e+00 0.000000e+00 9.347392e+00 1.059063e+01 0.000000e+00 1.059063e+01 1.500086e+00 0.000000e+00 0.000000e+00 0.000000e+00 0.000000e+00 7.129268e+00 1.252819e+01 0.000000e+00 1.252819e+01 3.595301e+00 0.000000e+00 0.000000e+00 0.000000e+00 0.000000e+00 2.916666e+01 6.237077e+00 0.000000e+00 6.237077e+00 9.352392e+01 0.000000e+00 0.000000e+00 0.000000e+00 0.000000e+00 6.765947e+00 -1.473028e+01 0.000000e+00 -1.473028e+01 -1.741214e+01 0.000000e+00 0.000000e+00 0.000000e+00 0.000000e+00 2.503333e+01 1.369071e+01 0.000000e+00 1.369071e+01 7.742257e+01 0.000000e+00 0.000000e+00 0.000000e+00 0.000000e+00 -1.160457e+00 -1.798153e+01 0.000000e+00 -1.798153e+01 -1.952998e+00 0.000000e+00 0.000000e+00 0.000000e+00 0.000000e+00 5.181253e+01 -1.726343e+01 0.000000e+00 -1.726343e+01 7.070679e+01 0.000000e+00 0.000000e+00 0.000000e+00 0.000000e+00 8.906559e-01 -1.650700e+01 0.000000e+00 -1.650700e+01 -6.501875e+00 0.000000e+00 0.000000e+00 0.000000e+00 0.000000e+00 1.132091e+01 -6.110142e+00 0.000000e+00 -6.110142e+00 -1.905798e+01 0.000000e+00 0.000000e+00 0.000000e+00 0.000000e+00 4.816534e+01 -1.962234e+01 0.000000e+00 -1.962234e+01 5.252981e+01 0.000000e+00 0.000000e+00 0.000000e+00 0.000000e+00 -1.665632e+00 -1.682585e+01 0.000000e+00 -1.682585e+01 -2.162880e+00 0.000000e+00 0.000000e+00 0.000000e+00 0.000000e+00 4.773101e+00 -1.709528e+01 0.000000e+00 -1.709528e+01 -1.230931e+01 0.000000e+00 0.000000e+00 0.000000e+00 0.000000e+00 2.262032e+01 -9.126132e+00 0.000000e+00 -9.126132e+00 1.821848e+00 0.000000e+00 0.000000e+00 0.000000e+00 0.000000e+00 2.021831e+01 1.688094e+01 0.000000e+00 1.688094e+01 1.654271e+01 0.000000e+00 0.000000e+00 0.000000e+00 0.000000e+00 1.662223e+01 1.067452e+01 0.000000e+00 1.067452e+01 2.690786e+00 0.000000e+00 0.000000e+00 0.000000e+00 0.000000e+00 7.799731e-01 1.190175e+01 0.000000e+00 1.190175e+01 4.199501e+00 0.000000e+00 0.000000e+00 0.000000e+00 0.000000e+00 1.247200e+01 1.101724e+01 0.000000e+00 1.101724e+01 2.917906e+00 0.000000e+00 0.000000e+00 0.000000e+00 0.000000e+00 1.426788e+01 -7.707698e+00 0.000000e+00 -7.707698e+00 -1.314346e+01 0.000000e+00 0.000000e+00 0.000000e+00 0.000000e+00 2.836711e+01 -1.031522e+01 0.000000e+00 -1.031522e+01 6.588154e+00 0.000000e+00 0.000000e+00 0.000000e+00 0.000000e+00 2.631031e+01 -9.753582e+00 0.000000e+00 -9.753582e+00 7.673260e+00 0.000000e+00 0.000000e+00 0.000000e+00 0.000000e+00 -5.184324e+00 -1.213541e+01 0.000000e+00 -1.213541e+01 1.899738e+01 0.000000e+00 0.000000e+00 0.000000e+00 0.000000e+00 4.522560e+01 -1.694130e+01 0.000000e+00 -1.694130e+01 3.980170e+01 0.000000e+00 0.000000e+00 0.000000e+00 0.000000e+00 2.533366e+00 -6.595865e+00 0.000000e+00 -6.595865e+00 -3.026050e+01 0.000000e+00 0.000000e+00 0.000000e+00 0.000000e+00 4.713155e+01 -1.432559e+01 0.000000e+00 -1.432559e+01 4.347072e+01 0.000000e+00 0.000000e+00 0.000000e+00 0.000000e+00 -8.560809e+00 -1.380862e+01 0.000000e+00 -1.380862e+01 5.251389e+00 0.000000e+00 0.000000e+00 0.000000e+00 0.000000e+00 -4.829743e+00 -1.594155e+01 0.000000e+00 -1.594155e+01 1.705484e+00 0.000000e+00 0.000000e+00 0.000000e+00 0.000000e+00 2.187765e+01 -9.485363e+00 0.000000e+00 -9.485363e+00 -8.930134e-01 0.000000e+00 0.000000e+00 0.000000e+00 0.000000e+00 2.269500e+01 -8.594970e+00 0.000000e+00 -8.594970e+00 1.149238e-01 0.000000e+00 0.000000e+00 0.000000e+00 0.000000e+00 3.822498e+01 -1.357173e+01 0.000000e+00 -1.357173e+01 2.882363e+01 0.000000e+00 0.000000e+00 0.000000e+00 0.000000e+00 5.145915e+00 -4.535279e+00 0.000000e+00 -4.535279e+00 -2.776064e+01 0.000000e+00 0.000000e+00 0.000000e+00 0.000000e+00 7.980055e+00 -4.638528e+00 0.000000e+00 -4.638528e+00 -2.692290e+01 0.000000e+00 0.000000e+00 0.000000e+00 0.000000e+00 -2.836232e+00 -1.778115e+01 0.000000e+00 -1.778115e+01 5.761629e+00 0.000000e+00 0.000000e+00 0.000000e+00 0.000000e+00 3.847120e+01 -1.415961e+01 0.000000e+00 -1.415961e+01 3.536461e+01 0.000000e+00 0.000000e+00 0.000000e+00 0.000000e+00 7.312767e+00 -6.351528e+00 0.000000e+00 -6.351528e+00 -2.211240e+01 0.000000e+00 0.000000e+00 0.000000e+00 0.000000e+00 1.025999e+01 -7.193649e+00 0.000000e+00 -7.193649e+00 -2.104095e+01 0.000000e+00 0.000000e+00 0.000000e+00 0.000000e+00 3.008573e+00 -1.447788e+01 0.000000e+00 -1.447788e+01 -1.260222e+01 0.000000e+00 0.000000e+00 0.000000e+00 0.000000e+00 6.821129e+00 -5.513441e+00 0.000000e+00 -5.513441e+00 -2.873308e+01 0.000000e+00 0.000000e+00 0.000000e+00 0.000000e+00 1.469011e+01 -7.728910e+00 0.000000e+00 -7.728910e+00 -1.006641e+01 0.000000e+00 0.000000e+00 0.000000e+00 0.000000e+00 1.918520e+01 -8.320760e+00 0.000000e+00 -8.320760e+00 -2.580077e+00 0.000000e+00 0.000000e+00 0.000000e+00 0.000000e+00 1.842132e+01 1.279015e+01 0.000000e+00 1.279015e+01 5.547866e+01 0.000000e+00 0.000000e+00 0.000000e+00 0.000000e+00 2.068577e+01 1.676379e+01 0.000000e+00 1.676379e+01 5.975237e+01 0.000000e+00 0.000000e+00 0.000000e+00 0.000000e+00 4.062043e+01 -1.555464e+01 0.000000e+00 -1.555464e+01 5.537455e+01 0.000000e+00 0.000000e+00 0.000000e+00 0.000000e+00 4.943320e+01 -2.019416e+01 0.000000e+00 -2.019416e+01 6.380840e+01 0.000000e+00 0.000000e+00 0.000000e+00 0.000000e+00 1.135081e+01 -1.653423e+01 0.000000e+00 -1.653423e+01 9.518028e+00 0.000000e+00 0.000000e+00 0.000000e+00 0.000000e+00 2.601500e+01 -9.410928e+00 0.000000e+00 -9.410928e+00 2.860776e+00 0.000000e+00 0.000000e+00 0.000000e+00 0.000000e+00 1.460953e+01 -6.782173e+00 0.000000e+00 -6.782173e+00 -1.183075e+01 0.000000e+00 0.000000e+00 0.000000e+00 0.000000e+00 -6.603316e+00 -1.524392e+01 0.000000e+00 -1.524392e+01 9.993505e+00 0.000000e+00 0.000000e+00 0.000000e+00 0.000000e+00 3.598505e+00 -5.020938e+00 0.000000e+00 -5.020938e+00 -2.982048e+01 0.000000e+00 0.000000e+00 0.000000e+00 0.000000e+00 1.970169e+01 -7.344380e+00 0.000000e+00 -7.344380e+00 -6.619419e+00 0.000000e+00 0.000000e+00 0.000000e+00 0.000000e+00 1.688500e+01 -7.522646e+00 0.000000e+00 -7.522646e+00 -7.484729e+00 0.000000e+00 0.000000e+00 0.000000e+00 0.000000e+00 1.711145e+01 -7.913938e+00 0.000000e+00 -7.913938e+00 -5.199753e+00 0.000000e+00 0.000000e+00 0.000000e+00 0.000000e+00 1.737933e+01 -7.090867e+00 0.000000e+00 -7.090867e+00 -8.996184e+00 0.000000e+00 0.000000e+00 0.000000e+00 0.000000e+00 -3.954208e+00 -1.352939e+01 0.000000e+00 -1.352939e+01 1.232260e+01 0.000000e+00 0.000000e+00 0.000000e+00 0.000000e+00 6.860958e+00 -1.197939e+01 0.000000e+00 -1.197939e+01 -2.126408e+01 0.000000e+00 0.000000e+00 0.000000e+00 0.000000e+00 2.170455e+01 8.574333e+00 0.000000e+00 8.574333e+00 6.935287e+01 0.000000e+00 0.000000e+00 0.000000e+00 0.000000e+00 2.007736e+01 -1.123053e+01 0.000000e+00 -1.123053e+01 -2.183766e+00 0.000000e+00 0.000000e+00 0.000000e+00 0.000000e+00 4.237148e+00 -1.868388e+01 0.000000e+00 -1.868388e+01 -3.686455e+00 0.000000e+00 0.000000e+00 0.000000e+00 0.000000e+00 1.434467e+00 1.097383e+01 0.000000e+00 1.097383e+01 4.028537e+00 0.000000e+00 0.000000e+00 0.000000e+00 0.000000e+00 5.573715e+00 -1.427309e+01 0.000000e+00 -1.427309e+01 -1.429540e+01 0.000000e+00 0.000000e+00 0.000000e+00 0.000000e+00 6.586185e+00 -1.093314e+01 0.000000e+00 -1.093314e+01 -2.023620e+01 0.000000e+00 0.000000e+00 0.000000e+00 0.000000e+00 3.881881e+01 -1.400851e+01 0.000000e+00 -1.400851e+01 2.628459e+01 0.000000e+00 0.000000e+00 0.000000e+00 0.000000e+00 1.042030e+01 -5.503017e+00 0.000000e+00 -5.503017e+00 -1.761764e+01 0.000000e+00 0.000000e+00 0.000000e+00 0.000000e+00 1.080357e+01 -7.445383e+00 0.000000e+00 -7.445383e+00 4.364986e+01 0.000000e+00 0.000000e+00 0.000000e+00 0.000000e+00 4.463880e-01 -1.891770e+01 0.000000e+00 -1.891770e+01 1.175704e+00 0.000000e+00 0.000000e+00 0.000000e+00 0.000000e+00 -2.742169e+00 -1.661832e+01 0.000000e+00 -1.661832e+01 5.629234e+00 0.000000e+00 0.000000e+00 0.000000e+00 0.000000e+00 2.283846e-01 -1.771645e+01 0.000000e+00 -1.771645e+01 2.290409e+00 0.000000e+00 0.000000e+00 0.000000e+00 0.000000e+00 2.612968e+00 -5.161367e+00 0.000000e+00 -5.161367e+00 -3.226625e+01 0.000000e+00 0.000000e+00 0.000000e+00 0.000000e+00 3.702154e+01 -1.119670e+01 0.000000e+00 -1.119670e+01 1.725954e+01 0.000000e+00 0.000000e+00 0.000000e+00 0.000000e+00 3.279273e+01 -1.116880e+01 0.000000e+00 -1.116880e+01 1.599114e+01 0.000000e+00 0.000000e+00 0.000000e+00 0.000000e+00 3.249623e+01 -1.217140e+01 0.000000e+00 -1.217140e+01 1.947130e+01 0.000000e+00 0.000000e+00 0.000000e+00 0.000000e+00 1.448625e+01 1.596908e+01 0.000000e+00 1.596908e+01 2.599784e+01 0.000000e+00 0.000000e+00 0.000000e+00 0.000000e+00 1.182550e+01 9.538026e+00 0.000000e+00 9.538026e+00 8.556647e-01 0.000000e+00 0.000000e+00 0.000000e+00 0.000000e+00 -1.628311e+00 1.228503e+01 0.000000e+00 1.228503e+01 4.086862e+00 0.000000e+00 0.000000e+00 0.000000e+00 0.000000e+00 4.753520e+01 -1.589883e+01 0.000000e+00 -1.589883e+01 4.082545e+01 0.000000e+00 0.000000e+00 0.000000e+00 0.000000e+00 6.788322e+00 -9.084194e+00 0.000000e+00 -9.084194e+00 -2.664169e+01 0.000000e+00 0.000000e+00 0.000000e+00 0.000000e+00 3.309392e+01 -1.353002e+01 0.000000e+00 -1.353002e+01 2.451878e+01 0.000000e+00 0.000000e+00 0.000000e+00 0.000000e+00 2.434731e+01 -1.076175e+00 0.000000e+00 -1.076175e+00 8.005668e+01 0.000000e+00 0.000000e+00 0.000000e+00 0.000000e+00 3.364334e+01 -1.672221e+01 0.000000e+00 -1.672221e+01 3.175460e+01 0.000000e+00 0.000000e+00 0.000000e+00 0.000000e+00 1.162825e+01 1.158843e+01 0.000000e+00 1.158843e+01 2.490689e+00 0.000000e+00 0.000000e+00 0.000000e+00 0.000000e+00 3.459906e+01 -1.588423e+01 0.000000e+00 -1.588423e+01 2.399779e+01 0.000000e+00 0.000000e+00 0.000000e+00 0.000000e+00 -2.569958e+00 -8.377826e+00 0.000000e+00 -8.377826e+00 2.738577e+01 0.000000e+00 0.000000e+00 0.000000e+00 0.000000e+00 6.362866e+00 -5.613756e+00 0.000000e+00 -5.613756e+00 -2.504450e+01 0.000000e+00 0.000000e+00 0.000000e+00 0.000000e+00 3.981229e+01 -1.654975e+01 0.000000e+00 -1.654975e+01 4.782396e+01 0.000000e+00 0.000000e+00 0.000000e+00 0.000000e+00 2.970493e+01 -7.101645e+00 0.000000e+00 -7.101645e+00 4.932060e+00 0.000000e+00 0.000000e+00 0.000000e+00 0.000000e+00 6.582934e+00 -6.432385e+00 0.000000e+00 -6.432385e+00 -3.064664e+01 0.000000e+00 0.000000e+00 0.000000e+00 0.000000e+00 3.870131e+01 -1.653335e+01 0.000000e+00 -1.653335e+01 3.320775e+01 0.000000e+00 0.000000e+00 0.000000e+00 0.000000e+00 1.223318e+00 1.070944e+01 0.000000e+00 1.070944e+01 1.126058e+01 0.000000e+00 0.000000e+00 0.000000e+00 0.000000e+00 3.478676e+01 -9.499938e+00 0.000000e+00 -9.499938e+00 8.996108e+01 0.000000e+00 0.000000e+00 0.000000e+00 0.000000e+00 2.619243e+01 -4.456037e+00 0.000000e+00 -4.456037e+00 6.879528e+01 0.000000e+00 0.000000e+00 0.000000e+00 0.000000e+00 3.925614e+01 -1.868510e+01 0.000000e+00 -1.868510e+01 4.446955e+01 0.000000e+00 0.000000e+00 0.000000e+00 0.000000e+00 6.575254e+00 -1.713999e+01 0.000000e+00 -1.713999e+01 -7.626152e+00 0.000000e+00 0.000000e+00 0.000000e+00 0.000000e+00 1.270476e+01 -1.022435e+01 0.000000e+00 -1.022435e+01 -1.045574e+01 0.000000e+00 0.000000e+00 0.000000e+00 0.000000e+00 6.154549e+00 -4.879535e+00 0.000000e+00 -4.879535e+00 -2.722164e+01 0.000000e+00 0.000000e+00 0.000000e+00 0.000000e+00 6.536683e+00 -7.528366e+00 0.000000e+00 -7.528366e+00 -2.522464e+01 0.000000e+00 0.000000e+00 0.000000e+00 0.000000e+00 2.850644e+01 -1.392050e+01 0.000000e+00 -1.392050e+01 1.307823e+01 0.000000e+00 0.000000e+00 0.000000e+00 0.000000e+00 6.971243e+00 -1.371270e+01 0.000000e+00 -1.371270e+01 -1.371643e+01 0.000000e+00 0.000000e+00 0.000000e+00 0.000000e+00 1.129442e+01 -6.703045e+00 0.000000e+00 -6.703045e+00 -1.446199e+01 0.000000e+00 0.000000e+00 0.000000e+00 0.000000e+00 1.749143e+01 1.766154e+00 0.000000e+00 1.766154e+00 5.967245e+01 0.000000e+00 0.000000e+00 0.000000e+00 0.000000e+00 3.045052e+01 -1.476093e+01 0.000000e+00 -1.476093e+01 2.738566e+01 0.000000e+00 0.000000e+00 0.000000e+00 0.000000e+00 -5.948441e+00 -1.466473e+01 0.000000e+00 -1.466473e+01 6.727959e+00 0.000000e+00 0.000000e+00 0.000000e+00 0.000000e+00 3.172842e+01 -1.672367e+01 0.000000e+00 -1.672367e+01 4.127642e+01 0.000000e+00 0.000000e+00 0.000000e+00 0.000000e+00 3.072352e+01 -1.809290e+01 0.000000e+00 -1.809290e+01 3.729969e+01 0.000000e+00 0.000000e+00 0.000000e+00 0.000000e+00 1.826449e+01 -1.057728e+01 0.000000e+00 -1.057728e+01 -5.802133e-01 0.000000e+00 0.000000e+00 0.000000e+00 0.000000e+00 2.131879e+01 -1.207264e+01 0.000000e+00 -1.207264e+01 1.568086e+00 0.000000e+00 0.000000e+00 0.000000e+00 0.000000e+00 4.326550e+00 -5.889533e+00 0.000000e+00 -5.889533e+00 -2.829479e+01 0.000000e+00 0.000000e+00 0.000000e+00 0.000000e+00 1.464320e+01 -9.337077e+00 0.000000e+00 -9.337077e+00 -7.250453e+00 0.000000e+00 0.000000e+00 0.000000e+00 0.000000e+00 1.894263e+01 -9.488945e+00 0.000000e+00 -9.488945e+00 -5.963243e+00 0.000000e+00 0.000000e+00 0.000000e+00 0.000000e+00 1.391919e+01 1.306495e+01 0.000000e+00 1.306495e+01 4.044316e+01 0.000000e+00 0.000000e+00 0.000000e+00 0.000000e+00 1.777791e+01 -1.896917e+01 0.000000e+00 -1.896917e+01 2.098746e+01 0.000000e+00 0.000000e+00 0.000000e+00 0.000000e+00 -1.116448e+00 -1.442888e+01 0.000000e+00 -1.442888e+01 2.177369e+01 0.000000e+00 0.000000e+00 0.000000e+00 0.000000e+00 4.220094e+00 1.286204e+01 0.000000e+00 1.286204e+01 6.469720e+00 0.000000e+00 0.000000e+00 0.000000e+00 0.000000e+00 6.714347e+00 1.126675e+01 0.000000e+00 1.126675e+01 3.360206e+00 0.000000e+00 0.000000e+00 0.000000e+00 0.000000e+00 5.038305e+01 -1.709592e+01 0.000000e+00 -1.709592e+01 6.408125e+01 0.000000e+00 0.000000e+00 0.000000e+00 0.000000e+00 1.256996e+01 1.112346e+01 0.000000e+00 1.112346e+01 2.881441e+00 0.000000e+00 0.000000e+00 0.000000e+00 0.000000e+00 1.595082e+01 -9.975869e+00 0.000000e+00 -9.975869e+00 -4.022026e+00 0.000000e+00 0.000000e+00 0.000000e+00 0.000000e+00 4.510974e+00 -8.019751e+00 0.000000e+00 -8.019751e+00 -2.460327e+01 0.000000e+00 0.000000e+00 0.000000e+00 0.000000e+00 1.727428e+01 4.470987e+00 0.000000e+00 4.470987e+00 6.660319e+01 0.000000e+00 0.000000e+00 0.000000e+00 0.000000e+00 2.374191e+01 -8.886861e+00 0.000000e+00 -8.886861e+00 4.476714e+00 0.000000e+00 0.000000e+00 0.000000e+00 0.000000e+00 -4.121020e+00 1.050567e+01 0.000000e+00 1.050567e+01 2.322123e+00 0.000000e+00 0.000000e+00 0.000000e+00 0.000000e+00 3.377668e+01 -1.343058e+01 0.000000e+00 -1.343058e+01 1.799623e+01 0.000000e+00 0.000000e+00 0.000000e+00 0.000000e+00 3.250252e+01 -1.052477e+01 0.000000e+00 -1.052477e+01 1.397030e+01 0.000000e+00 0.000000e+00 0.000000e+00 0.000000e+00 -2.000546e+00 -1.080890e+01 0.000000e+00 -1.080890e+01 1.882039e+01 0.000000e+00 0.000000e+00 0.000000e+00 0.000000e+00 1.059231e+01 -1.033586e+01 0.000000e+00 -1.033586e+01 -1.467569e+01 0.000000e+00 0.000000e+00 0.000000e+00 0.000000e+00 7.080739e+00 1.305170e+01 0.000000e+00 1.305170e+01 7.204964e+00 0.000000e+00 0.000000e+00 0.000000e+00 0.000000e+00 9.638981e+00 1.308850e+01 0.000000e+00 1.308850e+01 6.444071e+00 0.000000e+00 0.000000e+00 0.000000e+00 0.000000e+00 -3.371686e+00 -1.611625e+01 0.000000e+00 -1.611625e+01 1.390289e+01 0.000000e+00 0.000000e+00 0.000000e+00 0.000000e+00 7.203663e+00 1.181070e+01 0.000000e+00 1.181070e+01 6.177945e+00 0.000000e+00 0.000000e+00 0.000000e+00 0.000000e+00 2.325729e-01 7.705772e+00 0.000000e+00 7.705772e+00 2.432788e+01 0.000000e+00 0.000000e+00 0.000000e+00 0.000000e+00 1.617281e+01 -9.648137e+00 0.000000e+00 -9.648137e+00 -9.250054e+00 0.000000e+00 0.000000e+00 0.000000e+00 0.000000e+00 1.263422e+01 1.453933e+01 0.000000e+00 1.453933e+01 1.090802e+01 0.000000e+00 0.000000e+00 0.000000e+00 0.000000e+00 1.038938e+01 1.337471e+01 0.000000e+00 1.337471e+01 1.697303e+01 0.000000e+00 0.000000e+00 0.000000e+00 0.000000e+00 -9.229868e-01 -1.769886e+01 0.000000e+00 -1.769886e+01 7.428550e+00 0.000000e+00 0.000000e+00 0.000000e+00 0.000000e+00 2.874437e+01 -1.471985e+01 0.000000e+00 -1.471985e+01 2.181146e+01 0.000000e+00 0.000000e+00 0.000000e+00 0.000000e+00 1.332461e+01 1.561801e+01 0.000000e+00 1.561801e+01 1.813890e+01 0.000000e+00 0.000000e+00 0.000000e+00 0.000000e+00 4.076049e+00 -3.413903e+00 0.000000e+00 -3.413903e+00 -5.127618e+01 0.000000e+00 0.000000e+00 0.000000e+00 0.000000e+00 8.333993e+00 -7.318432e+00 0.000000e+00 -7.318432e+00 -2.463972e+01 0.000000e+00 0.000000e+00 0.000000e+00 0.000000e+00 5.132710e+00 -4.605866e+00 0.000000e+00 -4.605866e+00 -3.565410e+01 0.000000e+00 0.000000e+00 0.000000e+00 0.000000e+00 2.491504e+00 9.371808e+00 0.000000e+00 9.371808e+00 1.515542e+01 0.000000e+00 0.000000e+00 0.000000e+00 0.000000e+00 2.685095e+01 -1.322657e+01 0.000000e+00 -1.322657e+01 9.333967e+00 0.000000e+00 0.000000e+00 0.000000e+00 0.000000e+00 2.457222e+01 -1.217722e+01 0.000000e+00 -1.217722e+01 1.025700e+01 0.000000e+00 0.000000e+00 0.000000e+00 0.000000e+00 -2.321607e+00 -2.978423e-01 0.000000e+00 -2.978423e-01 2.857270e+01 0.000000e+00 0.000000e+00 0.000000e+00 0.000000e+00 -1.377056e+00 4.399615e+00 0.000000e+00 4.399615e+00 1.946000e+01 0.000000e+00 0.000000e+00 0.000000e+00 0.000000e+00 -3.436193e+00 -3.813048e+00 0.000000e+00 -3.813048e+00 2.094749e+01 0.000000e+00 0.000000e+00 0.000000e+00 0.000000e+00 2.026211e+00 -2.052480e+00 0.000000e+00 -2.052480e+00 -5.352199e+01 0.000000e+00 0.000000e+00 0.000000e+00 0.000000e+00 1.321401e+01 -9.210201e+00 0.000000e+00 -9.210201e+00 -1.309464e+01 0.000000e+00 0.000000e+00 0.000000e+00 0.000000e+00 8.437977e+00 -1.528706e+01 0.000000e+00 -1.528706e+01 -8.065889e+00 0.000000e+00 0.000000e+00 0.000000e+00 0.000000e+00 4.672836e+01 -1.808672e+01 0.000000e+00 -1.808672e+01 7.825368e+01 0.000000e+00 0.000000e+00 0.000000e+00 0.000000e+00 2.033435e+01 -6.581548e+00 0.000000e+00 -6.581548e+00 6.794407e+01 0.000000e+00 0.000000e+00 0.000000e+00 0.000000e+00 2.974733e+01 -1.816878e+01 0.000000e+00 -1.816878e+01 2.741938e+01 0.000000e+00 0.000000e+00 0.000000e+00 0.000000e+00 2.490296e+01 -1.574894e+01 0.000000e+00 -1.574894e+01 3.359017e+01 0.000000e+00 0.000000e+00 0.000000e+00 0.000000e+00 2.073240e+01 -1.100386e+01 0.000000e+00 -1.100386e+01 2.722108e+00 0.000000e+00 0.000000e+00 0.000000e+00 0.000000e+00 1.915573e+01 -1.386693e+01 0.000000e+00 -1.386693e+01 2.583606e-01 0.000000e+00 0.000000e+00 0.000000e+00 0.000000e+00 3.782961e+01 -9.224105e+00 0.000000e+00 -9.224105e+00 8.252212e+01 0.000000e+00 0.000000e+00 0.000000e+00 0.000000e+00 1.092810e+00 -1.496014e+01 0.000000e+00 -1.496014e+01 1.480658e+01 0.000000e+00 0.000000e+00 0.000000e+00 0.000000e+00 2.905937e+01 -1.530908e+01 0.000000e+00 -1.530908e+01 1.880579e+01 0.000000e+00 0.000000e+00 0.000000e+00 0.000000e+00 7.699395e+00 -1.216562e+01 0.000000e+00 -1.216562e+01 -1.470313e+01 0.000000e+00 0.000000e+00 0.000000e+00 0.000000e+00 4.010024e+01 -1.618371e+01 0.000000e+00 -1.618371e+01 7.519341e+01 0.000000e+00 0.000000e+00 0.000000e+00 0.000000e+00 1.127289e+01 -8.144529e+00 0.000000e+00 -8.144529e+00 -1.743057e+01 0.000000e+00 0.000000e+00 0.000000e+00 0.000000e+00 8.713265e+00 -6.881342e+00 0.000000e+00 -6.881342e+00 -1.917734e+01 0.000000e+00 0.000000e+00 0.000000e+00 0.000000e+00 1.293747e+01 -7.291814e+00 0.000000e+00 -7.291814e+00 -1.625541e+01 0.000000e+00 0.000000e+00 0.000000e+00 0.000000e+00 3.421274e+00 -1.942287e+01 0.000000e+00 -1.942287e+01 5.000475e+00 0.000000e+00 0.000000e+00 0.000000e+00 0.000000e+00 3.008912e+01 -1.370129e+01 0.000000e+00 -1.370129e+01 1.690527e+01 0.000000e+00 0.000000e+00 0.000000e+00 0.000000e+00 2.891287e+01 -1.260237e+01 0.000000e+00 -1.260237e+01 1.382563e+01 0.000000e+00 0.000000e+00 0.000000e+00 0.000000e+00 1.771373e+01 -1.219546e+01 0.000000e+00 -1.219546e+01 -4.707524e+00 0.000000e+00 0.000000e+00 0.000000e+00 0.000000e+00 1.291337e+01 -1.126713e+01 0.000000e+00 -1.126713e+01 -6.429465e+00 0.000000e+00 0.000000e+00 0.000000e+00 0.000000e+00 1.539920e+01 1.656691e+01 0.000000e+00 1.656691e+01 2.665962e+01 0.000000e+00 0.000000e+00 0.000000e+00 0.000000e+00 3.879165e+01 -1.948418e+01 0.000000e+00 -1.948418e+01 6.098225e+01 0.000000e+00 0.000000e+00 0.000000e+00 0.000000e+00 2.589800e+01 -1.611535e+01 0.000000e+00 -1.611535e+01 1.775840e+01 0.000000e+00 0.000000e+00 0.000000e+00 0.000000e+00 3.116917e+01 -1.530762e+01 0.000000e+00 -1.530762e+01 5.309991e+01 0.000000e+00 0.000000e+00 0.000000e+00 0.000000e+00 2.935817e+01 -1.673702e+01 0.000000e+00 -1.673702e+01 4.804643e+01 0.000000e+00 0.000000e+00 0.000000e+00 0.000000e+00 3.470026e+01 -1.274243e+01 0.000000e+00 -1.274243e+01 6.208992e+01 0.000000e+00 0.000000e+00 0.000000e+00 0.000000e+00 1.823896e+00 -1.127079e+01 0.000000e+00 -1.127079e+01 3.193837e+01 0.000000e+00 0.000000e+00 0.000000e+00 0.000000e+00 1.298664e+01 6.159249e+00 0.000000e+00 6.159249e+00 5.250108e+01 0.000000e+00 0.000000e+00 0.000000e+00 0.000000e+00 4.237493e+00 -1.817029e+01 0.000000e+00 -1.817029e+01 -1.988674e-01 0.000000e+00 0.000000e+00 0.000000e+00 0.000000e+00 6.734946e+00 -1.609049e+01 0.000000e+00 -1.609049e+01 -7.069865e+00 0.000000e+00 0.000000e+00 0.000000e+00 0.000000e+00 8.376999e+00 -1.752103e+01 0.000000e+00 -1.752103e+01 -8.411099e-01 0.000000e+00 0.000000e+00 0.000000e+00 0.000000e+00 9.721575e+00 -1.444390e+01 0.000000e+00 -1.444390e+01 -7.511978e+00 0.000000e+00 0.000000e+00 0.000000e+00 0.000000e+00 7.233968e+00 1.228078e+01 0.000000e+00 1.228078e+01 2.635383e+01 0.000000e+00 0.000000e+00 0.000000e+00 0.000000e+00 4.914776e+00 9.660949e+00 0.000000e+00 9.660949e+00 2.399411e+01 0.000000e+00 0.000000e+00 0.000000e+00 0.000000e+00 9.235164e+00 1.196258e+01 0.000000e+00 1.196258e+01 3.567986e+01 0.000000e+00 0.000000e+00 0.000000e+00 0.000000e+00 2.922155e+00 5.665819e+00 0.000000e+00 5.665819e+00 3.329492e+01 0.000000e+00 0.000000e+00 0.000000e+00 0.000000e+00 2.374375e+01 -1.134101e+01 0.000000e+00 -1.134101e+01 6.207677e+00 0.000000e+00 0.000000e+00 0.000000e+00 0.000000e+00 2.422543e+01 -1.648328e+01 0.000000e+00 -1.648328e+01 2.474675e+01 0.000000e+00 0.000000e+00 0.000000e+00 0.000000e+00 1.667056e+01 -1.492485e+01 0.000000e+00 -1.492485e+01 3.131737e+01 0.000000e+00 0.000000e+00 0.000000e+00 0.000000e+00 2.405980e+01 -1.578921e+01 0.000000e+00 -1.578921e+01 4.641993e+01 0.000000e+00 0.000000e+00 0.000000e+00 0.000000e+00 1.487932e+01 -1.214401e+01 0.000000e+00 -1.214401e+01 -2.263666e+00 0.000000e+00 0.000000e+00 0.000000e+00 0.000000e+00 9.367322e+00 -9.771615e+00 0.000000e+00 -9.771615e+00 -1.961119e+01 0.000000e+00 0.000000e+00 0.000000e+00 0.000000e+00 2.469753e+01 -1.267287e+01 0.000000e+00 -1.267287e+01 5.242983e+00 0.000000e+00 0.000000e+00 0.000000e+00 0.000000e+00 2.956208e+01 -1.302050e+01 0.000000e+00 -1.302050e+01 7.387616e+01 0.000000e+00 0.000000e+00 0.000000e+00 0.000000e+00 1.210645e+00 -7.624449e+00 0.000000e+00 -7.624449e+00 2.635190e+01 0.000000e+00 0.000000e+00 0.000000e+00 0.000000e+00 1.025674e+01 -1.184914e+01 0.000000e+00 -1.184914e+01 -1.386583e+01 0.000000e+00 0.000000e+00 0.000000e+00 0.000000e+00 2.088043e+01 -1.506283e+01 0.000000e+00 -1.506283e+01 5.087295e+00 0.000000e+00 0.000000e+00 0.000000e+00 0.000000e+00 1.350666e+01 -6.668960e+00 0.000000e+00 -6.668960e+00 -1.605955e+01 0.000000e+00 0.000000e+00 0.000000e+00 0.000000e+00 1.670544e+01 -1.302059e+01 0.000000e+00 -1.302059e+01 1.805931e+00 0.000000e+00 0.000000e+00 0.000000e+00 0.000000e+00 3.623066e+00 -1.776966e+00 0.000000e+00 -1.776966e+00 -6.483217e+01 0.000000e+00 0.000000e+00 0.000000e+00 0.000000e+00 -2.459032e-01 -1.673550e+01 0.000000e+00 -1.673550e+01 9.811330e+00 0.000000e+00 0.000000e+00 0.000000e+00 0.000000e+00 6.480268e+00 -7.795417e+00 0.000000e+00 -7.795417e+00 -2.138531e+01 0.000000e+00 0.000000e+00 0.000000e+00 0.000000e+00 4.391280e+00 -1.479578e+01 0.000000e+00 -1.479578e+01 2.167751e+01 0.000000e+00 0.000000e+00 0.000000e+00 0.000000e+00 3.102342e+00 -1.536476e+01 0.000000e+00 -1.536476e+01 2.225776e+01 0.000000e+00 0.000000e+00 0.000000e+00 0.000000e+00 2.275465e+01 -1.420900e+01 0.000000e+00 -1.420900e+01 1.388955e+01 0.000000e+00 0.000000e+00 0.000000e+00 0.000000e+00 2.308796e+01 -1.325508e+01 0.000000e+00 -1.325508e+01 5.982935e+01 0.000000e+00 0.000000e+00 0.000000e+00 0.000000e+00 7.355779e+00 1.200959e+01 0.000000e+00 1.200959e+01 1.035336e+01 0.000000e+00 0.000000e+00 0.000000e+00 0.000000e+00 1.342836e+00 -3.610414e+00 0.000000e+00 -3.610414e+00 3.702012e+01 0.000000e+00 0.000000e+00 0.000000e+00 0.000000e+00 3.247077e+00 -1.776776e+01 0.000000e+00 -1.776776e+01 6.182286e+00 0.000000e+00 0.000000e+00 0.000000e+00 0.000000e+00 6.334050e+00 -1.866350e+01 0.000000e+00 -1.866350e+01 6.207350e-01 0.000000e+00 0.000000e+00 0.000000e+00 0.000000e+00 1.517637e+01 -4.542591e+00 0.000000e+00 -4.542591e+00 5.235054e+01 0.000000e+00 0.000000e+00 0.000000e+00 0.000000e+00 1.307487e+01 -3.030901e+00 0.000000e+00 -3.030901e+00 5.797662e+01 0.000000e+00 0.000000e+00 0.000000e+00 0.000000e+00 7.362799e+00 -1.894993e+01 0.000000e+00 -1.894993e+01 6.048882e+00 0.000000e+00 0.000000e+00 0.000000e+00 0.000000e+00 1.021965e+01 -1.725355e+01 0.000000e+00 -1.725355e+01 -2.997263e-01 0.000000e+00 0.000000e+00 0.000000e+00 0.000000e+00 8.074830e+00 -1.041026e+01 0.000000e+00 -1.041026e+01 -2.045322e+01 0.000000e+00 0.000000e+00 0.000000e+00 0.000000e+00 2.384027e+01 -1.737933e+01 0.000000e+00 -1.737933e+01 2.143265e+01 0.000000e+00 0.000000e+00 0.000000e+00 0.000000e+00 5.518372e+00 -7.784593e+00 0.000000e+00 -7.784593e+00 4.072166e+01 0.000000e+00 0.000000e+00 0.000000e+00 0.000000e+00 1.998370e+01 -1.348461e+01 0.000000e+00 -1.348461e+01 6.123094e+00 0.000000e+00 0.000000e+00 0.000000e+00 0.000000e+00 1.004445e+01 -9.322641e+00 0.000000e+00 -9.322641e+00 -1.946419e+01 0.000000e+00 0.000000e+00 0.000000e+00 0.000000e+00 1.461232e+01 -1.285546e+01 0.000000e+00 -1.285546e+01 -8.353199e+00 0.000000e+00 0.000000e+00 0.000000e+00 0.000000e+00 2.417694e+01 -1.852732e+01 0.000000e+00 -1.852732e+01 3.253840e+01 0.000000e+00 0.000000e+00 0.000000e+00 0.000000e+00 1.901323e+01 -1.741784e+01 0.000000e+00 -1.741784e+01 9.337980e+00 0.000000e+00 0.000000e+00 0.000000e+00 0.000000e+00 1.122596e+01 -1.263670e+01 0.000000e+00 -1.263670e+01 -5.098045e+00 0.000000e+00 0.000000e+00 0.000000e+00 0.000000e+00 1.171144e+01 -1.610174e+01 0.000000e+00 -1.610174e+01 -2.611904e+00 0.000000e+00 0.000000e+00 0.000000e+00 0.000000e+00 1.627699e+01 -1.477154e+01 0.000000e+00 -1.477154e+01 -1.997763e+00 0.000000e+00 0.000000e+00 0.000000e+00 0.000000e+00 2.193486e+01 -1.790524e+01 0.000000e+00 -1.790524e+01 1.542217e+01 0.000000e+00 0.000000e+00 0.000000e+00 0.000000e+00 1.917700e+01 -1.548580e+01 0.000000e+00 -1.548580e+01 1.857045e+01 0.000000e+00 0.000000e+00 0.000000e+00 0.000000e+00 1.923101e+01 -1.232130e+01 0.000000e+00 -1.232130e+01 4.737894e+01 0.000000e+00 0.000000e+00 0.000000e+00 0.000000e+00 1.554394e+01 -1.007605e+01 0.000000e+00 -1.007605e+01 5.582612e+01 0.000000e+00 0.000000e+00 0.000000e+00 0.000000e+00 1.055844e+01 4.262325e+00 0.000000e+00 4.262325e+00 4.501457e+01 0.000000e+00 0.000000e+00 0.000000e+00 0.000000e+00 1.374835e+00 2.374463e+00 0.000000e+00 2.374463e+00 2.742709e+01 0.000000e+00 0.000000e+00 0.000000e+00 0.000000e+00 2.255652e+01 -1.677432e+01 0.000000e+00 -1.677432e+01 4.141988e+01 0.000000e+00 0.000000e+00 0.000000e+00 0.000000e+00 1.869160e+01 -1.508487e+01 0.000000e+00 -1.508487e+01 3.887759e+01 0.000000e+00 0.000000e+00 0.000000e+00 0.000000e+00 1.623013e+01 -1.312490e+01 0.000000e+00 -1.312490e+01 4.794217e+01 0.000000e+00 0.000000e+00 0.000000e+00 0.000000e+00 2.498237e+00 -1.877641e+01 0.000000e+00 -1.877641e+01 1.464143e+01 0.000000e+00 0.000000e+00 0.000000e+00 0.000000e+00 1.777523e+01 -1.623593e+01 0.000000e+00 -1.623593e+01 2.932594e+00 0.000000e+00 0.000000e+00 0.000000e+00 0.000000e+00 1.328558e+01 -1.448329e+01 0.000000e+00 -1.448329e+01 3.858443e-01 0.000000e+00 0.000000e+00 0.000000e+00 0.000000e+00 1.448720e+01 -1.507653e+01 0.000000e+00 -1.507653e+01 5.353028e+00 0.000000e+00 0.000000e+00 0.000000e+00 0.000000e+00 1.301421e+01 1.192801e+01 0.000000e+00 1.192801e+01 4.894612e+01 0.000000e+00 0.000000e+00 0.000000e+00 0.000000e+00 8.688860e+00 2.180327e+00 0.000000e+00 2.180327e+00 5.000730e+01 0.000000e+00 0.000000e+00 0.000000e+00 0.000000e+00 3.130092e+00 -1.676185e+01 0.000000e+00 -1.676185e+01 1.236317e+01 0.000000e+00 0.000000e+00 0.000000e+00 0.000000e+00 6.350791e+00 -1.975520e+01 0.000000e+00 -1.975520e+01 9.598741e+00 0.000000e+00 0.000000e+00 0.000000e+00 0.000000e+00 1.475817e+01 -1.843953e+01 0.000000e+00 -1.843953e+01 5.977923e+00 0.000000e+00 0.000000e+00 0.000000e+00 0.000000e+00 5.931574e+00 -7.099616e+00 0.000000e+00 -7.099616e+00 3.829312e+01 0.000000e+00 0.000000e+00 0.000000e+00 0.000000e+00 7.841920e+00 9.418827e+00 0.000000e+00 9.418827e+00 3.279479e+01 0.000000e+00 0.000000e+00 0.000000e+00 0.000000e+00 1.003387e+01 -1.236997e+01 0.000000e+00 -1.236997e+01 -9.788056e+00 0.000000e+00 0.000000e+00 0.000000e+00 0.000000e+00 5.989218e+00 1.351018e+01 0.000000e+00 1.351018e+01 1.681393e+01 0.000000e+00 0.000000e+00 0.000000e+00 0.000000e+00 1.988917e+01 -1.817599e+01 0.000000e+00 -1.817599e+01 2.754787e+01 0.000000e+00 0.000000e+00 0.000000e+00 0.000000e+00 1.918990e+01 -1.589998e+01 0.000000e+00 -1.589998e+01 2.775949e+01 0.000000e+00 0.000000e+00 0.000000e+00 0.000000e+00 7.197582e+00 -1.920859e+01 0.000000e+00 -1.920859e+01 1.700678e+01 0.000000e+00 0.000000e+00 0.000000e+00 0.000000e+00 8.150369e+00 -1.055835e+00 0.000000e+00 -1.055835e+00 4.319490e+01 0.000000e+00 0.000000e+00 0.000000e+00 0.000000e+00 6.884383e+00 -1.724350e+01 0.000000e+00 -1.724350e+01 6.424794e+00 0.000000e+00 0.000000e+00 0.000000e+00 0.000000e+00 1.726144e+01 -1.542263e+01 0.000000e+00 -1.542263e+01 1.110158e+01 0.000000e+00 0.000000e+00 0.000000e+00 0.000000e+00 2.573833e+01 -1.543905e+01 0.000000e+00 -1.543905e+01 1.088574e+01 0.000000e+00 0.000000e+00 0.000000e+00 0.000000e+00 2.296992e+01 -9.490091e+00 0.000000e+00 -9.490091e+00 5.628085e+01 0.000000e+00 0.000000e+00 0.000000e+00 0.000000e+00 9.091252e+00 -6.856237e+00 0.000000e+00 -6.856237e+00 4.900624e+01 0.000000e+00 0.000000e+00 0.000000e+00 0.000000e+00 8.710573e+00 -1.318847e+01 0.000000e+00 -1.318847e+01 2.884361e+01 0.000000e+00 0.000000e+00 0.000000e+00 0.000000e+00 1.394196e+01 -1.578543e+01 0.000000e+00 -1.578543e+01 -1.920310e+00 0.000000e+00 0.000000e+00 0.000000e+00 0.000000e+00 2.191952e+01 -1.483423e+01 0.000000e+00 -1.483423e+01 9.561999e+00 0.000000e+00 0.000000e+00 0.000000e+00 0.000000e+00 7.558235e+00 -1.638802e+01 0.000000e+00 -1.638802e+01 1.444570e+01 0.000000e+00 0.000000e+00 0.000000e+00 0.000000e+00 7.182229e+00 -1.517095e+01 0.000000e+00 -1.517095e+01 3.145124e+01 0.000000e+00 0.000000e+00 0.000000e+00 0.000000e+00 1.101994e+01 -2.001689e+01 0.000000e+00 -2.001689e+01 1.314760e+01 0.000000e+00 0.000000e+00 0.000000e+00 0.000000e+00 1.219206e+01 -1.331060e+01 0.000000e+00 -1.331060e+01 4.065180e+01 0.000000e+00 0.000000e+00 0.000000e+00 0.000000e+00 1.179556e+01 -1.923815e+01 0.000000e+00 -1.923815e+01 2.193963e+01 0.000000e+00 0.000000e+00 0.000000e+00 0.000000e+00 8.955107e+00 -8.868673e+00 0.000000e+00 -8.868673e+00 -1.655255e+01 0.000000e+00 0.000000e+00 0.000000e+00 0.000000e+00 1.040693e+01 -1.669763e+01 0.000000e+00 -1.669763e+01 3.452510e+00 0.000000e+00 0.000000e+00 0.000000e+00 0.000000e+00 5.869672e+00 3.384970e+00 0.000000e+00 3.384970e+00 4.240787e+01 0.000000e+00 0.000000e+00 0.000000e+00 0.000000e+00   </DataArray>
  <DataArray type="Float64" Name="IST_PrincipalStressTensor" NumberOfComponents="3" format="ascii">-7.105427e-15 -7.285493e+00 -5.939664e+01 -2.842171e-14 -2.368351e+00 -5.296858e+01 2.520259e-01 -4.796163e-14 -4.722162e+01 1.978536e+00 -8.881784e-15 -4.179032e+01 3.607351e+00 -1.776357e-15 -3.681438e+01 5.305914e+00 0.000000e+00 -3.196214e+01 7.197983e+00 -3.552714e-15 -2.754153e+01 9.234518e+00 -4.440892e-15 -2.333182e+01 1.148224e+01 0.000000e+00 -1.931817e+01 1.390775e+01 -3.330669e-16 -1.546083e+01 1.648673e+01 1.776357e-15 -1.150967e+01 1.935494e+01 -4.440892e-16 -7.796991e+00 2.245379e+01 -6.217249e-15 -4.107622e+00 2.575526e+01 1.367795e-13 -8.806944e-02 2.943744e+01 3.883227e+00 1.776357e-15 3.338460e+01 8.399194e+00 1.776357e-15 3.778757e+01 1.325416e+01 0.000000e+00 4.290212e+01 1.824210e+01 7.105427e-15 4.864921e+01 2.451026e+01 3.552714e-15 5.558745e+01 3.139782e+01 0.000000e+00 6.435913e+01 3.970967e+01 0.000000e+00 7.642875e+01 5.085010e+01 0.000000e+00 9.565497e+01 6.585089e+01 7.105427e-15 1.367166e+02 9.021462e+01 -1.421085e-14 2.549977e+02 1.387819e+02 0.000000e+00 2.162743e+01 6.752355e-01 8.881784e-16 1.899066e+01 -6.217249e-15 -3.971599e-01 1.479051e+01 5.329071e-15 -3.912565e-01 8.203448e+00 3.996803e-15 -3.017098e-01 1.001084e+01 2.404941e-01 -8.881784e-16 1.841876e+01 5.981158e-01 -4.440892e-15 1.984880e+01 1.153797e+00 1.776357e-15 5.567483e+00 -4.440892e-16 -5.759092e-01 1.599413e+00 -4.440892e-16 -3.855741e+00 5.512116e-01 0.000000e+00 -3.343137e+00 -7.857603e-14 -7.857603e-14 -5.956362e-01 6.139064e-03 -1.665335e-16 -1.298623e+00 3.562994e-01 -2.220446e-16 -1.861340e+00 6.706957e-01 -9.714451e-17 -4.915579e-01 1.862293e+00 0.000000e+00 -2.623419e-01 1.150469e+00 1.110223e-16 -2.059447e-01 4.868178e-01 -2.775558e-17 -8.887357e-02 4.497094e-01 0.000000e+00 -2.574476e-01 4.799780e-01 -6.938894e-17 -2.853398e-01 9.627663e-01 -5.551115e-17 -2.575598e-02 1.419918e+00 0.000000e+00 -5.551085e-01 3.051535e-01 1.110223e-16 -2.539979e+00 3.091180e-01 -7.993606e-15 -1.262419e+01 8.841827e-01 1.065814e-14 -2.608290e+01 2.074787e+00 -3.552714e-15 -3.556377e+01 3.117589e+00 -3.552714e-15 -2.758894e+01 2.363552e+00 -1.776357e-15 -1.443982e+01 6.749582e-02 -1.554312e-15 -3.836035e+00 6.743074e-01 0.000000e+00 -1.151075e+01 9.263639e-02 -2.220446e-16 -3.637376e+00 1.464962e+00 -1.776357e-15 -1.323500e+01 1.676845e+00 -6.383782e-16 -1.988318e+00 2.053787e+00 -1.110223e-16 -1.373073e+00 2.350491e+00 -1.110223e-16 -6.445896e-01 2.465028e+00 1.024537e-01 8.881784e-16 2.311047e+00 6.096237e-01 0.000000e+00 3.173677e+00 -2.220446e-15 -7.504320e-02 4.802433e+00 2.220446e-16 -1.245220e+00 7.136858e+00 -8.881784e-16 -3.516903e+00 9.733583e+00 2.220446e-16 -5.622946e+00 1.327780e+01 -1.776357e-15 -6.757424e+00 1.477188e+01 -4.440892e-16 -7.763016e+00 1.508090e+01 -2.664535e-15 -8.454332e+00 1.437173e+01 -2.664535e-15 -8.767238e+00 1.283334e+01 -8.881784e-16 -9.262726e+00 1.128935e+01 -2.220446e-16 -1.034080e+01 1.051365e+01 2.220446e-16 -1.217425e+01 1.041670e+01 8.881784e-16 -1.413848e+01 9.889239e+00 -4.440892e-15 -1.510567e+01 8.800882e+00 -4.440892e-15 -1.452417e+01 7.272635e+00 -2.886580e-15 -1.280332e+01 5.658879e+00 6.661338e-16 -1.099583e+01 3.741453e+00 -6.661338e-16 -8.969865e+00 1.848964e+00 -4.440892e-16 -6.780050e+00 2.472332e-01 -1.332268e-15 -4.931148e+00 0.000000e+00 -1.024917e+00 -2.970556e+00 -2.220446e-16 -7.414341e-01 -2.397863e+00 3.085514e-01 -5.551115e-16 -2.439744e+00 1.101042e+00 5.551115e-17 -2.368399e+00 2.514440e-01 0.000000e+00 -5.557901e-01 -3.552714e-15 -1.230919e+01 -6.086011e+01 -7.105427e-15 -4.321091e+00 -5.626129e+01 -1.421085e-14 -3.311782e+00 -5.668831e+01 3.552714e-15 -1.953220e+00 -5.403640e+01 -1.065814e-14 -8.700773e-01 -5.005350e+01 4.311884e-03 1.364597e-11 -4.844029e+01 1.138754e+00 -8.881784e-15 -4.438558e+01 2.767731e+00 -1.243450e-14 -3.921806e+01 4.428122e+00 5.329071e-15 -3.433351e+01 3.886285e+00 -8.881784e-15 -3.552763e+01 4.917375e+00 -3.552714e-15 -3.311367e+01 6.212127e+00 -5.329071e-15 -2.964347e+01 8.234298e+00 -1.776357e-15 -2.553368e+01 1.031456e+01 -8.881784e-16 -2.124676e+01 1.264957e+01 1.554312e-15 -1.731884e+01 1.192772e+01 -3.996803e-15 -1.827489e+01 1.318655e+01 -4.218847e-15 -1.634189e+01 1.519120e+01 -2.442491e-15 -1.354081e+01 1.787904e+01 1.776357e-15 -9.605615e+00 2.087491e+01 -1.776357e-15 -5.970104e+00 1.995324e+01 -2.664535e-15 -6.860664e+00 2.143335e+01 -3.552714e-15 -5.004850e+00 2.409693e+01 -1.776357e-15 -2.193298e+00 2.752711e+01 1.961930e+00 0.000000e+00 3.138847e+01 6.016597e+00 1.776357e-15 3.010926e+01 4.976080e+00 -1.776357e-15 3.211025e+01 7.197774e+00 3.552714e-15 3.551063e+01 1.082526e+01 -1.776357e-15 3.627285e+01 1.199516e+01 -3.552714e-15 4.028944e+01 1.559913e+01 -3.552714e-15 4.561888e+01 2.134384e+01 3.552714e-15 5.203803e+01 2.768516e+01 0.000000e+00 4.976944e+01 2.613744e+01 -3.552714e-15 5.243514e+01 2.940758e+01 -7.105427e-15 5.970407e+01 3.530037e+01 3.552714e-15 6.989377e+01 4.461640e+01 -7.105427e-15 8.471100e+01 5.781957e+01 0.000000e+00 1.115224e+02 7.643463e+01 0.000000e+00 9.124073e+01 6.977796e+01 7.105427e-15 1.008783e+02 7.946297e+01 -7.105427e-15 1.798929e+02 1.101044e+02 -1.421085e-14 3.386895e+01 -1.723066e-13 -1.575336e-01 2.023519e+01 8.881784e-16 -1.207062e+00 2.039275e+01 -1.776357e-14 -1.924127e-01 1.709726e+01 -1.332268e-14 -3.256315e-01 1.194225e+01 4.440892e-16 -6.083715e-01 1.201696e+01 -1.332268e-15 -1.306300e+00 1.456132e+01 1.006495e+00 -3.552714e-15 1.429606e+01 3.818816e-01 4.440892e-15 1.101529e+01 1.154632e-14 -2.386939e-01 2.460315e+00 -5.551115e-16 -1.468124e+00 2.152072e-01 -5.551115e-17 -1.411272e+00 4.440892e-16 -2.674338e-01 -2.168074e+00 9.113395e-01 -1.110223e-15 -4.529687e+00 2.286559e-01 0.000000e+00 -1.652174e+00 1.448368e-01 -1.110223e-16 -1.205696e+00 3.097125e-01 0.000000e+00 -1.936260e+00 1.713968e-02 -2.942091e-15 -1.453765e+00 3.693372e-01 -5.551115e-17 -1.185423e+00 1.292835e+00 -5.551115e-17 -3.102066e-01 1.720685e+00 1.110223e-16 -1.907306e-01 6.995165e-01 -8.881784e-16 -1.257863e+01 4.094238e-01 -1.421085e-14 -1.935223e+01 5.103225e-01 2.775558e-17 -7.615688e-02 3.050389e-01 -4.163336e-17 -1.193060e-01 9.798350e-01 2.515349e-17 -9.659560e-01 5.195076e-01 -5.551115e-17 -1.905736e+00 1.289226e-01 -4.884981e-15 -6.591102e+00 2.879294e-01 9.769963e-15 -1.751311e+01 1.382016e+00 8.881784e-15 -3.199285e+01 7.105427e-14 -6.214874e-02 -2.287853e+01 2.739608e+00 -1.776357e-15 -3.446272e+01 3.996803e-14 -1.006889e-01 -1.721430e+01 1.903532e+00 0.000000e+00 -1.121610e+00 1.318030e+00 -1.110223e-16 -1.727000e+00 2.385607e+00 -2.220446e-16 -5.480031e-01 2.805651e+00 0.000000e+00 -9.855802e-02 3.488443e+00 4.539441e-01 0.000000e+00 4.181972e+00 8.466598e-01 2.220446e-16 5.398561e+00 3.945217e-01 -1.998401e-15 8.220898e+00 0.000000e+00 -8.097931e-01 1.080563e+01 -1.776357e-15 -2.596598e+00 1.438983e+01 -4.440892e-16 -3.992652e+00 1.549108e+01 -2.220446e-15 -5.759534e+00 1.546019e+01 0.000000e+00 -7.026406e+00 1.482406e+01 -3.996803e-15 -8.341928e+00 1.388892e+01 -1.998401e-15 -9.299102e+00 1.285532e+01 3.330669e-16 -1.030830e+01 1.193293e+01 -2.220446e-16 -1.173005e+01 1.103072e+01 5.551115e-16 -1.367871e+01 9.723253e+00 -4.440892e-16 -1.544392e+01 7.953249e+00 -1.776357e-15 -1.627869e+01 5.988705e+00 -3.108624e-15 -1.558314e+01 4.158260e+00 1.332268e-15 -1.388070e+01 2.523769e+00 8.881784e-16 -1.206348e+01 8.834011e-01 3.108624e-15 -9.818255e+00 -1.776357e-15 -4.086261e-01 -7.365594e+00 0.000000e+00 -1.330689e+00 -4.978990e+00 4.440892e-16 -1.617349e+00 -2.785171e+00 -2.220446e-16 -7.455011e-01 -2.120756e+00 4.442343e-01 0.000000e+00 -2.034262e+00 3.966687e+01 5.334323e+00 -1.776357e-15 3.552714e-15 -9.592244e-01 -5.121784e+01 8.395806e-01 -1.421085e-14 -4.569236e+01 2.418805e+00 0.000000e+00 -4.041610e+01 6.723753e+00 0.000000e+00 -2.858194e+01 5.830814e+00 1.776357e-15 -3.078584e+01 7.666370e+00 0.000000e+00 -2.651673e+01 9.683203e+00 8.881784e-16 -2.227715e+01 1.569803e+01 -2.664535e-15 -1.242831e+01 1.437269e+01 -2.289835e-15 -1.442664e+01 1.713615e+01 -2.220446e-15 -1.049754e+01 2.475941e+01 8.881784e-15 -1.083561e+00 2.309962e+01 -5.329071e-15 -3.078570e+00 2.654265e+01 9.911623e-01 -1.776357e-15 3.410927e+01 9.567561e+00 3.552714e-15 3.861559e+01 1.439800e+01 0.000000e+00 4.410927e+01 1.980881e+01 3.552714e-15 6.065645e+01 3.739693e+01 0.000000e+00 5.645409e+01 3.324333e+01 3.552714e-15 6.532514e+01 4.203548e+01 0.000000e+00 7.728046e+01 5.421168e+01 0.000000e+00 1.421817e+02 9.131052e+01 0.000000e+00 1.146168e+02 8.818896e+01 0.000000e+00 2.693402e+01 2.486900e-14 -2.074599e-01 1.961809e+01 4.973799e-14 -3.788787e-02 1.467778e+01 3.552714e-15 -2.012405e-01 1.176371e+01 -4.440892e-16 -1.006667e+00 4.399464e+00 0.000000e+00 -1.008245e+00 0.000000e+00 -5.650689e-01 -2.223695e+00 8.040620e-02 5.551115e-17 -1.566713e+00 7.365083e-02 1.110223e-16 -1.309431e+00 5.342098e-01 -1.942890e-16 -6.592200e-01 5.725434e-01 3.053113e-16 -2.076825e-02 6.195655e-01 -4.440892e-16 -4.639652e+00 -1.421085e-14 -1.235454e-01 -2.153382e+01 2.664535e-14 -4.459031e-01 -2.506637e+01 1.795848e+00 -8.881784e-16 -1.578713e+01 1.082140e+01 -4.440892e-16 -2.024266e+01 8.296474e+01 6.111861e+01 0.000000e+00 1.694370e+01 -5.595524e-14 -8.889003e-02 1.242342e+01 2.220446e-15 -4.611782e-01 4.786791e-01 1.387779e-17 -1.441262e-01 3.156777e+00 7.105427e-15 -3.794927e+01 1.714524e+00 7.105427e-15 -4.298332e+01 8.658038e+00 -8.881784e-16 -2.439282e+01 1.853586e+01 4.440892e-16 -8.671280e+00 2.825652e+01 2.968550e+00 1.776357e-15 4.700123e+01 2.300974e+01 0.000000e+00 4.124743e+01 1.692043e+01 3.552714e-15 7.119441e+01 4.776674e+01 7.105427e-15 2.297497e+01 1.835968e-02 -2.779998e-13 8.443939e+00 0.000000e+00 -7.256434e-01 6.141848e-01 -2.775558e-17 -8.632531e-02 3.575898e-01 -1.387779e-16 -9.836205e-01 6.734313e-01 4.440892e-16 -8.168216e+00 7.105427e-15 -5.887834e-01 -2.449368e+01 9.838795e-01 7.105427e-15 -4.601242e+01 2.420789e+00 0.000000e+00 -4.064705e+01 8.794458e+00 -1.776357e-15 -2.450785e+01 6.752339e+00 -3.552714e-15 -2.871946e+01 1.661792e+00 -5.329071e-15 -4.337738e+01 2.343159e+00 3.552714e-15 -4.182748e+01 7.761426e+00 -2.664535e-15 -2.651099e+01 7.239147e+00 0.000000e+00 -2.755171e+01 7.844854e+00 -6.217249e-15 -2.549381e+01 5.742975e+00 0.000000e+00 -3.082104e+01 6.610413e+00 -1.776357e-15 -2.968394e+01 1.876560e+01 -8.881784e-16 -8.906724e+00 1.588851e+01 0.000000e+00 -1.273081e+01 9.209601e+01 5.800907e+01 0.000000e+00 1.721920e+01 1.332268e-15 -1.073029e+01 1.657441e+01 -2.220446e-15 -1.160665e+01 1.785167e+01 4.440892e-16 -9.701690e+00 1.465700e+01 -4.943962e-17 -1.464273e+01 1.479286e+01 2.220446e-16 -1.361730e+01 2.502847e+01 7.105427e-15 -1.377571e+00 2.862378e+01 2.632054e+00 1.776357e-15 2.679339e+01 5.789366e-01 1.776357e-15 2.567899e+01 3.552714e-15 -2.693610e-01 2.767381e+01 1.762545e+00 -1.776357e-15 2.335348e+01 -8.881784e-16 -3.441203e+00 2.357174e+01 -1.776357e-15 -2.328695e+00 3.493416e+01 9.364409e+00 0.000000e+00 4.718875e+01 2.245949e+01 3.552714e-15 3.961015e+01 1.413554e+01 0.000000e+00 4.458084e+01 1.942535e+01 -3.552714e-15 4.572787e+01 2.111739e+01 7.105427e-15 7.397236e+01 4.552658e+01 -7.105427e-15 6.337552e+01 3.630598e+01 0.000000e+00 4.199796e+01 1.664244e+01 0.000000e+00 3.947476e+01 1.529925e+01 -3.552714e-15 4.200919e+01 1.801317e+01 0.000000e+00 6.861019e+01 4.074840e+01 -7.105427e-15 6.161565e+01 3.835362e+01 0.000000e+00 6.676604e+01 4.300646e+01 -7.105427e-15 5.890894e+01 3.232503e+01 -3.552714e-15 5.690812e+01 3.414601e+01 0.000000e+00 8.209630e+01 5.193019e+01 0.000000e+00 7.334692e+01 4.877635e+01 0.000000e+00 7.716889e+01 5.340702e+01 0.000000e+00 2.335275e+01 6.217249e-15 -4.150444e-01 1.565329e+02 8.999977e+01 1.421085e-14 1.776819e+01 5.329071e-15 -1.041976e+00 2.821951e+01 5.420110e-01 1.243450e-14 2.679677e+01 -7.105427e-15 -7.096775e-01 3.606722e+01 2.103703e+00 1.776357e-15 3.208645e+01 3.552714e-14 -7.644414e-01 1.402657e+02 8.278396e+01 0.000000e+00 1.303323e+02 6.707318e+01 0.000000e+00 2.034449e+01 -6.217249e-15 -7.252857e-01 1.921366e+01 3.552714e-15 -9.203843e-01 4.190164e+01 0.000000e+00 -1.526651e+01 1.011502e+01 -4.440892e-16 -2.626916e+00 1.380944e+01 8.881784e-16 -1.608484e+00 1.310642e+01 4.440892e-16 -1.422331e+00 1.224363e+01 1.332268e-15 -1.575538e+00 3.849633e-01 -6.938894e-17 -5.225179e-01 1.469489e+01 -4.440892e-15 -1.386262e+00 7.198942e+00 -1.554312e-15 -2.812338e+00 5.681464e-01 -1.110223e-16 -9.361565e-01 9.867054e-01 -2.081668e-16 -1.208846e+00 1.360642e+00 -3.191891e-16 -1.720290e+00 9.823494e-01 -1.387779e-16 -1.689508e+00 2.991689e-01 -1.110223e-16 -1.118684e+00 -1.065814e-14 -1.024989e+00 -5.201535e+01 8.327616e-01 -1.387779e-17 -1.131978e+00 1.051584e+00 -1.457168e-16 -1.143963e+00 5.056056e-01 -2.498002e-16 -1.189805e+00 4.528567e-01 0.000000e+00 -1.354468e+00 1.628547e+00 -1.332268e-15 -1.194332e+01 4.307926e-01 6.245005e-17 -5.271101e-01 1.905646e-02 5.551115e-17 -5.480419e-01 0.000000e+00 -3.037492e-01 -6.241046e-01 9.376503e-01 -4.163336e-17 -1.248426e+00 1.218522e+00 -2.220446e-15 -7.783201e+00 2.414108e+00 1.776357e-15 -1.565312e+01 3.917745e-01 0.000000e+00 -3.535878e-01 1.665335e-16 -1.526150e-01 -8.416537e-01 5.747451e-02 -2.220446e-16 -9.530988e-01 3.482601e+00 1.776357e-15 -2.228881e+01 6.427738e+00 -2.664535e-15 -2.187526e+01 5.404626e-01 4.440892e-16 -4.478447e+00 2.132786e+00 2.220446e-16 -4.830632e+00 3.229687e+00 1.776357e-15 -1.934619e+01 3.227457e+00 -4.440892e-16 -1.440232e+01 2.718745e+00 -8.881784e-16 -1.651311e+01 6.704817e+00 -1.776357e-15 -1.916934e+01 4.240275e+00 -3.552714e-15 -2.057984e+01 6.033217e+00 8.881784e-16 -1.365595e+01 8.257889e-01 -4.884981e-15 -1.143493e+01 1.112308e-01 -3.765876e-13 -4.898333e+01 3.591759e-01 -1.172396e-13 -5.003846e+01 8.271077e-01 -1.776357e-15 -4.715291e+01 3.721488e+01 1.180319e+01 -3.552714e-15 3.509142e+01 1.054872e+01 1.776357e-15 3.725580e+01 1.291934e+01 -3.552714e-15 2.071112e+02 8.408263e+01 0.000000e+00 3.663736e-15 -5.052352e-03 -2.312938e+00 1.374550e-01 1.387779e-17 -3.813521e-01 1.119628e+00 -2.220446e-16 -2.423979e+00 -3.552714e-15 -1.465026e+00 -2.825167e+01 1.156963e+00 8.326673e-17 -1.645984e+00 1.100260e+01 4.440892e-16 -2.046019e+01 1.954090e+00 0.000000e+00 -6.394963e-01 1.769568e+00 -3.330669e-16 -1.816704e-01 1.310811e+00 9.287626e-02 0.000000e+00 1.916526e+00 -1.110223e-16 -6.968680e-01 6.880693e+00 6.661338e-16 -4.100561e+00 9.935737e+00 -1.110223e-15 -5.365211e+00 1.300949e+01 -1.776357e-15 -6.657737e+00 1.523195e+01 -1.332268e-15 -7.799805e+00 1.239536e+01 1.443290e-15 -9.435893e+00 1.036434e+01 -1.221245e-15 -1.314961e+01 9.787003e+00 -2.886580e-15 -1.437729e+01 8.893044e+00 -2.220446e-15 -1.418207e+01 7.472527e+00 6.661338e-16 -1.260189e+01 4.012963e+00 -8.881784e-16 -8.396281e+00 2.228598e+00 -1.110223e-15 -6.149956e+00 6.557960e-01 -6.661338e-16 -4.196178e+00 0.000000e+00 -5.980785e-01 -2.002403e+00 1.366711e-01 -1.110223e-16 -2.015097e+00 8.482644e+01 1.065814e-14 -2.206432e+01 5.795704e+01 4.437266e+00 -3.552714e-15 3.989500e+01 -7.105427e-15 -2.911258e+00 7.101348e-01 1.387779e-16 -1.257854e+00 4.997283e+00 1.776357e-15 -2.275135e+01 8.779171e+01 1.040310e+01 1.421085e-14 -3.552714e-15 -4.183452e+00 -5.951195e+01 1.045971e+01 0.000000e+00 -2.458608e+00 1.589217e+00 2.131628e-14 -4.438274e+01 4.164004e+00 -1.776357e-15 -3.556881e+01 1.894325e+01 1.332268e-15 -7.893886e+00 2.029706e+01 -2.664535e-15 -7.027908e+00 9.865373e+00 -4.440892e-15 -2.228018e+01 9.837050e-01 9.714451e-17 -1.193993e+00 2.886837e+01 3.713479e+00 1.776357e-15 3.059906e+01 4.757690e+00 0.000000e+00 9.200720e+00 -3.552714e-15 -2.336764e+01 4.895983e+01 2.409544e+01 -3.552714e-15 5.077709e+01 2.554676e+01 3.552714e-15 1.452339e+02 4.846282e+01 0.000000e+00 2.248705e+01 2.664535e-15 -7.495150e-01 1.738902e+02 6.446232e+01 -1.421085e-14 1.699799e+01 -1.776357e-15 -1.172584e+00 1.562976e+01 1.776357e-15 -1.428643e+00 6.149681e+01 1.421085e-14 -6.059249e+00 8.411882e+01 5.844782e+01 0.000000e+00 1.042523e+02 6.504952e+01 -7.105427e-15 1.539425e+01 0.000000e+00 -1.507904e+00 1.387795e+01 3.243663e-01 8.881784e-16 1.834480e+00 4.440892e-15 -1.779193e+01 4.199278e+00 8.881784e-16 -2.380021e+01 1.533697e+01 -1.776357e-15 -5.388729e-01 1.360964e+01 -8.881784e-16 -1.166410e+00 7.270146e+00 -8.881784e-16 -2.754818e+00 3.091255e+00 -1.110223e-15 -7.672696e+00 2.247175e+00 -2.775558e-16 -1.638520e+00 5.761549e-02 -8.326673e-17 -7.637280e-01 9.153460e-01 9.714451e-17 -1.207140e+00 1.307714e+00 1.776357e-14 -3.212578e+01 3.080005e+00 -2.664535e-15 -2.616063e+01 4.038261e+00 -1.776357e-15 -1.102938e+01 3.279061e+00 3.552714e-15 -3.806362e+01 5.359873e+00 -2.664535e-15 -1.878578e+01 8.375960e+01 1.323443e+01 -7.105427e-15 2.895710e+00 0.000000e+00 -3.921952e+01 5.610204e+00 -8.881784e-16 -1.971538e+01 3.306154e+00 0.000000e+00 -3.677246e+01 4.989149e+00 -3.996803e-15 -1.687249e+01 5.381748e+00 -8.881784e-16 -1.150514e+01 2.703122e+00 -3.552714e-15 -3.141384e+01 1.149604e+00 -3.330669e-16 -2.008986e+00 1.127051e+01 8.881784e-16 -1.937294e+01 1.217535e+01 -4.440892e-16 -1.833269e+01 2.218281e-01 1.665335e-16 -1.616105e+00 7.994742e-01 -2.220446e-16 -2.106406e+00 0.000000e+00 -8.823658e-01 -1.646142e+00 2.220446e-16 -7.709317e-01 -4.432114e+00 0.000000e+00 -5.159801e-01 -2.731755e+00 4.519469e-02 -1.065814e-14 -6.739335e+00 1.302546e+00 4.440892e-16 -9.088206e+00 4.342259e+00 -4.440892e-16 -1.357811e+01 5.732236e+00 -2.664535e-15 -1.039929e+01 6.141906e+00 -3.996803e-15 -1.493200e+01 7.403032e+00 -2.220446e-16 -1.273683e+01 8.194201e+00 -1.332268e-15 -1.508047e+01 1.031211e+01 -2.220446e-16 -1.405365e+01 1.288717e+01 -3.330669e-16 -1.079468e+01 1.105450e+01 -2.095546e-15 -1.116285e+01 1.440253e+01 -1.776357e-15 -8.301659e+00 1.403529e+01 0.000000e+00 -8.441081e+00 1.495913e+01 -1.332268e-15 -5.292708e+00 1.480727e+01 8.881784e-16 -7.299858e+00 1.356879e+01 -8.881784e-16 -4.058761e+00 1.060039e+01 -4.440892e-16 -3.082929e+00 4.909911e+00 2.220446e-16 -6.606714e-01 1.048129e+00 -1.665335e-16 -1.576432e+00 4.224631e+00 -2.220446e-16 -2.215615e+00 2.869288e+00 2.331468e-15 -2.618145e-02 2.363224e+00 -2.220446e-16 -4.301678e-01 3.445020e+00 -2.664535e-15 -1.608347e+01 1.585510e+00 -1.387779e-16 -9.399000e-01 1.032228e+01 -3.108624e-15 -2.132286e+01 7.755969e+00 -8.881784e-16 -1.651983e+00 1.489549e+01 -2.664535e-15 -6.805333e+00 1.364526e+01 -2.220446e-16 -9.466231e+00 1.183549e+01 -1.915135e-15 -1.243924e+01 2.721721e+00 0.000000e+00 -1.138050e+01 0.000000e+00 -1.140151e+00 -2.312127e+00 1.449492e+00 1.387779e-17 -1.123075e+00 -7.105427e-15 -2.474502e+00 -5.535707e+01 5.179458e-01 -2.486900e-14 -5.626284e+01 5.668639e-03 2.909673e-12 -5.302676e+01 4.851563e+00 7.105427e-15 -3.311749e+01 4.388186e+00 -1.776357e-15 -3.431019e+01 5.454057e+00 0.000000e+00 -3.192693e+01 1.341104e+01 -2.220446e-15 -1.645340e+01 1.245163e+01 1.332268e-15 -1.735472e+01 1.326077e+01 1.443290e-15 -1.550120e+01 2.185361e+01 0.000000e+00 -5.241173e+00 2.035571e+01 -8.881784e-16 -6.102382e+00 2.198972e+01 0.000000e+00 -4.268272e+00 3.274387e+01 6.887564e+00 1.776357e-15 3.040924e+01 5.797129e+00 0.000000e+00 3.263791e+01 8.157722e+00 -5.329071e-15 5.510326e+01 2.869540e+01 3.552714e-15 4.953451e+01 2.688275e+01 0.000000e+00 5.287711e+01 3.033978e+01 3.552714e-15 1.207417e+02 7.370920e+01 0.000000e+00 9.425919e+01 6.357050e+01 1.421085e-14 1.083691e+02 6.633211e+01 0.000000e+00 4.445492e+00 -5.551115e-16 -1.786866e+00 7.784644e-01 -1.804112e-16 -1.065452e+00 5.074513e+00 2.664535e-15 -2.321496e+01 1.540981e+00 7.105427e-15 -3.035222e+01 -1.776357e-15 -5.463116e+00 -3.853065e+01 1.249455e+00 -1.243450e-14 -3.323906e+01 1.239669e+02 4.737456e+01 0.000000e+00 1.504244e+00 -3.552714e-15 -1.844488e+01 9.468444e-01 8.326673e-17 -1.648066e+00 4.301214e+00 0.000000e+00 -1.673885e+01 3.516839e+00 1.421085e-14 -3.370615e+01 1.747903e+00 -2.220446e-16 -7.787384e-01 5.217262e+00 -8.881784e-16 -2.722090e+01 4.113050e+00 1.776357e-15 -2.950292e+01 4.618922e+00 -3.552714e-15 -3.525111e+01 -1.776357e-14 -6.889346e-01 -3.548407e+01 1.114084e+01 2.220446e-15 -4.863490e+00 1.677727e+00 -3.019807e-14 -4.491502e+01 1.554389e+01 -5.218048e-15 -1.401512e+01 1.315920e+00 1.318390e-16 -1.156185e+00 6.154213e+01 3.193603e+01 -3.552714e-15 2.447391e+01 8.881784e-16 -2.839250e+00 8.185951e+00 -1.332268e-15 -1.627735e+01 4.616721e+01 2.051650e+01 3.552714e-15 2.441457e+01 8.881784e-16 -1.001393e+00 9.382539e+00 1.776357e-15 -2.336893e+01 2.933363e+01 7.460699e-14 -4.969055e-02 2.423252e+01 8.881784e-16 -1.712378e+00 1.277449e+01 1.776357e-15 -2.085098e+00 1.854162e+01 8.881784e-16 -1.811460e+00 1.150551e+02 4.314855e+01 0.000000e+00 1.670736e+01 0.000000e+00 -1.642099e+00 1.632101e+01 -2.664535e-15 -2.455469e+00 1.465153e+01 -1.776357e-15 -2.266386e+00 3.767038e+01 1.812105e+00 8.881784e-15 2.886655e+01 -1.243450e-14 -1.229656e+00 1.206788e+02 6.339156e+01 0.000000e+00 1.329726e+02 4.777760e+01 0.000000e+00 2.104079e+01 -8.881784e-16 -1.453245e+00 1.821807e+01 8.881784e-16 -2.237260e+00 1.160666e+02 2.717002e+01 7.105427e-15 1.023042e+02 1.671774e+01 0.000000e+00 1.217224e+01 -4.884981e-15 -1.616845e+01 2.652252e+00 -1.776357e-15 -1.128418e+01 6.656341e+00 -2.220446e-15 -1.717571e+01 9.359889e+00 0.000000e+00 -2.258575e+01 1.331082e+02 3.827961e+01 0.000000e+00 4.095695e+00 -1.776357e-15 -3.683198e+01 3.639556e+00 -4.440892e-16 -1.416521e+01 1.472482e+00 1.110223e-16 -9.140266e-01 5.949413e+00 8.881784e-16 -2.990386e+01 1.046746e+01 -8.881784e-16 -1.777826e+01 -5.551115e-17 -3.978945e-01 -5.882382e-01 4.407104e+00 2.664535e-15 -1.828359e+01 1.395323e+01 -2.220446e-15 -3.272033e+00 1.252385e+01 -8.881784e-16 -3.694637e+00 1.358861e+01 -1.332268e-15 -5.812655e+00 1.350435e+00 -1.092876e-16 -1.396865e+00 5.273079e+01 4.109966e+00 3.552714e-15 3.455834e+01 -3.019807e-14 -8.696098e-01 3.926136e+01 2.500612e+00 5.329071e-15 4.060928e+00 0.000000e+00 -7.922953e+00 1.065146e+01 -1.776357e-15 -1.226565e+01 1.384885e+01 -1.332268e-15 -8.277632e+00 2.584215e+00 -3.330669e-16 -3.477552e-01 8.755593e+00 8.881784e-16 -2.169990e+01 4.923337e+00 -8.881784e-16 -2.850131e+01 8.734884e+00 -2.220446e-15 -1.564998e+01 9.489828e+00 -2.664535e-15 -1.835726e+01 7.712965e+00 -3.996803e-15 -1.871594e+01 1.544686e+01 -2.664535e-15 -6.352411e+00 1.560160e+01 -8.881784e-16 -7.332411e+00 1.198314e+01 1.110223e-15 -1.015290e+01 1.395443e+01 -3.774758e-15 -9.889251e+00 1.280787e+01 -2.053913e-15 -1.149186e+01 9.772779e+00 0.000000e+00 -1.408720e+01 8.752659e+00 -2.442491e-15 -1.427131e+01 8.744759e+00 -2.664535e-15 -1.426595e+01 5.911638e+00 0.000000e+00 -1.454021e+01 5.869920e+00 -2.664535e-15 -1.021623e+01 2.324655e+00 -8.881784e-16 -5.973650e+00 1.060472e+00 -2.220446e-16 -3.852363e+00 3.364412e+01 7.105427e-15 -8.788134e-01 2.315543e+00 -5.329071e-15 -3.318066e+01 6.229612e-01 5.551115e-17 -1.532780e+00 6.933620e+00 -2.664535e-15 -3.021780e+01 1.188519e+01 2.220446e-16 -1.716059e+01 8.966574e+00 -1.776357e-15 -1.600563e+01 1.080263e+01 -1.776357e-15 -1.780506e+01 2.171302e+00 -1.776357e-15 -4.336973e+01 2.117116e+00 -7.105427e-15 -4.207166e+01 3.427033e+01 7.394973e+00 3.552714e-15 1.454332e+01 -3.552714e-15 -1.582201e+01 1.376190e+01 -9.436896e-16 -1.493008e+01 8.766379e+00 1.776357e-15 -2.548767e+01 8.063556e+00 -3.552714e-15 -2.440853e+01 1.980400e+01 2.664535e-15 -8.234609e+00 4.436510e+01 1.746900e+01 -3.552714e-15 4.354333e+01 1.891909e+01 0.000000e+00 5.703152e+01 2.831975e+01 -3.552714e-15 5.354195e+01 2.966181e+01 0.000000e+00 5.557847e+00 0.000000e+00 -1.390844e+01 1.153831e+02 6.376677e+01 7.105427e-15 1.145113e+02 5.119824e+01 -1.421085e-14 1.494646e+01 -1.332268e-14 -2.464084e-01 7.239855e+01 4.034839e+01 7.105427e-15 2.754998e+01 1.028007e+00 -1.776357e-15 4.169226e+01 1.491357e+01 3.552714e-15 4.002328e+01 1.587029e+01 0.000000e+00 1.442117e+01 0.000000e+00 -1.627823e+00 1.796698e+01 4.440892e-16 -1.024237e+01 1.794030e+01 -1.776357e-15 -9.063012e+00 8.341378e+01 4.960201e+01 0.000000e+00 2.094089e+01 2.664535e-15 -1.973748e+00 3.393218e+00 -2.664535e-15 -1.838467e+01 3.939122e+00 -1.110223e-15 -2.282028e+00 2.855312e+00 7.105427e-15 -4.066784e+01 2.979285e+00 0.000000e+00 -3.938703e+01 6.939020e+01 9.317796e+00 0.000000e+00 5.808869e+01 3.349880e+01 0.000000e+00 6.669165e+01 3.597825e+01 0.000000e+00 6.412332e+00 0.000000e+00 -1.449510e+01 6.250901e+00 -1.776357e-15 -2.276389e+01 7.945752e-02 0.000000e+00 -8.795420e-01 3.535316e+00 0.000000e+00 -3.548317e+01 4.660100e+00 3.552714e-15 -3.437446e+01 3.895007e+01 1.232217e+01 -3.552714e-15 3.825358e+01 1.347769e+01 -3.552714e-15 -3.330669e-16 -5.589289e-01 -2.339671e+00 1.485892e+01 0.000000e+00 -6.387210e+00 4.816431e+01 2.351310e+01 0.000000e+00 4.889169e+01 2.229637e+01 -3.552714e-15 5.342148e+01 2.543295e+01 -3.552714e-15 0.000000e+00 -6.944636e-01 -8.017018e-01 1.513486e+01 -1.332268e-15 -3.947971e+00 1.352562e+01 -8.881784e-16 -4.352593e+00 1.448008e+01 -1.332268e-15 -5.872196e+00 6.888399e+01 5.989460e+00 0.000000e+00 5.968478e+00 2.664535e-15 -1.746748e+01 2.286550e+01 8.881784e-16 -4.769460e+00 2.233192e+01 -3.552714e-15 -3.800493e+00 3.651858e+01 9.697315e+00 3.552714e-15 3.396599e+01 8.646159e+00 0.000000e+00 3.640585e+01 1.117079e+01 0.000000e+00 1.118963e+01 -1.443290e-15 -1.310402e+01 9.759890e+00 -2.442491e-15 -1.348031e+01 7.279849e+00 -8.881784e-16 -2.874985e+01 7.311236e+00 -1.776357e-15 -2.775031e+01 1.464956e+00 1.776357e-15 -4.807578e+01 1.171022e+01 8.881784e-16 -1.947168e+01 5.332739e+00 -1.776357e-15 -3.192493e+01 6.525344e+00 0.000000e+00 -3.077902e+01 1.040885e+00 2.131628e-14 -6.213345e+01 2.838473e+00 0.000000e+00 -1.113432e+01 4.316770e+00 -4.440892e-16 -1.351945e+01 1.455462e+01 -3.108624e-15 -8.307464e+00 -2.220446e-16 -3.880378e-01 -2.347450e+00 8.106218e-01 5.551115e-17 -1.626926e+00 1.016577e+01 -2.664535e-15 -1.550506e+01 5.764796e+00 -2.664535e-15 -1.326125e+01 6.674445e+00 1.332268e-15 -1.397509e+01 2.781697e+00 -8.881784e-15 -3.788042e+01 2.845560e+01 2.326532e+00 -3.552714e-15 3.013640e+01 3.353058e+00 3.552714e-15 7.946731e+01 4.806269e+01 1.421085e-14 9.347592e+01 5.444584e+01 0.000000e+00 5.948623e+01 3.808111e+00 -7.105427e-15 4.261084e+01 4.216234e+00 1.776357e-15 1.810480e+00 -1.421085e-14 -4.601893e+01 2.333364e+00 -1.776357e-14 -5.950304e+01 1.243450e-13 -5.197428e-01 -5.814316e+01 4.136480e-02 -4.996004e-16 -1.454419e+00 1.612735e+00 -8.881784e-16 -8.087369e+00 1.034607e+01 -8.881784e-16 -2.156594e+01 7.100568e+00 0.000000e+00 -1.351760e+01 8.152900e+00 -3.108624e-15 -1.913455e+01 6.537774e-01 6.394885e-14 -5.122213e+01 1.170241e+00 -1.776357e-15 -4.875317e+01 4.991813e-01 -4.440892e-16 -6.122846e+00 -3.330669e-16 -2.828349e-01 -2.216658e+00 5.272963e+00 7.105427e-15 -3.893243e+01 -6.394885e-14 -4.247646e-01 -5.398530e+01 1.764612e+00 0.000000e+00 -5.587094e+01 1.556857e+00 1.421085e-14 -5.199491e+01 1.065039e+01 -8.881784e-16 -2.244425e+01 2.478191e+01 8.881784e-16 -1.646960e+00 2.592431e+01 -8.881784e-15 -7.801694e-01 1.572231e+01 -2.775558e-15 -1.285383e+01 1.648300e+01 -1.776357e-15 -1.196308e+01 1.049921e+01 8.881784e-16 -2.042045e+01 4.022873e+00 -1.998401e-15 -7.662470e+00 5.858329e+00 1.332268e-15 -1.431701e+01 8.560894e+00 -8.881784e-16 -1.503894e+01 6.320516e+00 -2.664535e-15 -1.631561e+01 3.054877e+00 -8.881784e-15 -3.918361e+01 0.000000e+00 -5.171448e-01 -1.038485e+00 5.448742e+00 8.881784e-16 -2.765953e+01 7.719110e+00 -1.776357e-15 -3.235253e+01 2.540565e+00 0.000000e+00 -4.343207e+01 0.000000e+00 -5.282512e-01 -1.616589e+00 3.483460e+00 -1.065814e-14 -4.590002e+01 2.642303e+00 7.105427e-15 -4.777209e+01 -3.197442e-14 -8.613268e-01 -4.259596e+01 -3.552714e-15 -9.715095e+00 -5.491832e+01 1.014790e+00 -2.486900e-14 -4.789665e+01 9.970246e-01 2.664535e-14 -4.378844e+01 2.268728e+00 -1.243450e-14 -4.855780e+01 3.619686e+00 -1.243450e-14 -4.320907e+01 2.664535e-14 -2.181358e-01 -4.603832e+01 1.065814e-14 -2.426973e+00 -5.006665e+01 1.304684e+00 -1.065814e-14 -4.790100e+01 9.289341e-01 -2.486900e-14 -5.896431e+01 4.704987e+00 -1.421085e-14 -4.104889e+01 2.374566e+00 -1.065814e-14 -3.650591e+01 9.189089e-01 -1.776357e-14 -3.897930e+01 2.786313e+00 -1.776357e-14 -5.154234e+01 2.389123e+00 -1.065814e-14 -5.166208e+01 1.307149e+01 1.332268e-15 -1.756907e+01 1.212239e+01 -8.881784e-16 -1.849143e+01 1.231976e+01 -3.774758e-15 -1.667073e+01 2.144449e+01 0.000000e+00 -6.529317e+00 1.941836e+01 -1.776357e-15 -7.374425e+00 2.072477e+01 -8.881784e-16 -5.625426e+00 1.718425e+00 1.665335e-16 -8.028516e-01 1.098767e+01 -1.165734e-15 -1.204365e+01 1.176038e+01 -3.996803e-15 -2.067129e+01 7.401135e+00 -2.664535e-15 -2.488739e+01 3.234975e+01 5.260165e+00 3.552714e-15 2.868336e+01 4.092983e+00 0.000000e+00 3.079479e+01 6.163053e+00 -1.776357e-15 6.947509e+01 4.300145e+01 0.000000e+00 1.041870e+02 5.946254e+01 7.105427e-15 8.797622e+01 5.029423e+01 0.000000e+00 1.001734e+02 5.261365e+01 1.421085e-14 1.382049e+01 -1.332268e-15 -2.776122e+00 1.584872e+01 2.664535e-15 -2.313639e+00 1.153075e+01 -1.776357e-15 -2.553788e+01 1.496742e+00 -5.551115e-17 -7.457982e-01 2.660947e+01 3.882910e-01 -2.309264e-14 2.301106e+00 -1.065814e-14 -5.785385e+01 2.398802e+01 -1.776357e-15 -1.853173e+00 5.727711e+00 4.440892e-16 -1.036551e+01 1.002689e+02 3.635092e+01 -7.105427e-15 6.487834e+00 -2.220446e-15 -1.463490e+01 8.834706e+00 -1.998401e-15 -1.378488e+01 6.269089e+01 3.748765e+01 7.105427e-15 1.296740e+01 0.000000e+00 -2.217374e+01 7.556046e+01 3.819665e+01 0.000000e+00 1.005498e+02 2.325642e+01 0.000000e+00 1.549937e+01 -3.552714e-15 -6.451629e+00 2.105207e+00 -8.881784e-15 -4.285513e+01 1.353056e+02 2.003031e+01 1.421085e-14 4.248595e+00 -1.065814e-14 -4.304719e+01 2.324545e+00 8.881784e-15 -4.917997e+01 3.761022e+00 0.000000e+00 -6.023238e+01 4.332969e+01 2.806859e+00 -5.329071e-15 7.872146e+01 1.681252e+01 -7.105427e-15 6.035805e-01 -1.332268e-15 -5.025111e+00 3.244536e+00 1.776357e-15 -4.487582e+01 -6.661338e-16 -4.495616e-01 -4.326995e+00 1.125793e+00 -3.552714e-15 -4.091432e+01 8.898254e+00 -1.776357e-15 -2.157991e+01 1.190967e+01 -2.664535e-15 -1.868562e+01 1.205067e+01 -8.881784e-16 -2.008918e+01 2.825994e+00 0.000000e+00 -5.757446e+01 2.484656e+00 -6.661338e-16 -5.302609e+00 1.361243e+00 1.421085e-14 -4.240696e+01 8.753905e+01 2.518053e+01 7.105427e-15 1.155898e+02 3.529403e+01 -7.105427e-15 1.406293e+00 0.000000e+00 -8.491056e+00 1.526861e+01 -2.664535e-15 -7.008357e+00 4.832168e+00 3.552714e-15 -3.943595e+01 2.807253e+01 -5.329071e-15 -1.063767e+00 2.142665e+01 0.000000e+00 -3.054363e+00 2.493237e-01 -4.973799e-14 -4.997715e+01 9.553477e+00 -2.220446e-16 -1.381478e+01 2.093558e+01 -1.776357e-15 -8.136308e+00 2.127979e+00 1.776357e-15 -4.519484e+01 7.125051e+00 0.000000e+00 -2.643600e+01 5.897013e+01 9.316024e+00 -7.105427e-15 5.507395e+01 9.084126e+00 3.552714e-15 1.143404e+01 -1.776357e-15 -1.945808e+01 1.207405e+01 -4.440892e-16 -1.844824e+01 1.057065e+01 -4.996004e-16 -9.435022e+00 5.782101e+01 2.685276e+01 0.000000e+00 7.719394e+01 4.562618e+01 0.000000e+00 9.582375e+01 2.392222e+01 0.000000e+00 8.306964e+01 2.350444e+01 0.000000e+00 6.945824e+01 1.536672e+01 -3.552714e-15 4.471927e+01 1.525543e+01 0.000000e+00 3.537646e+01 7.330143e+00 0.000000e+00 1.000792e+02 4.689486e+01 0.000000e+00 1.102274e+02 3.940293e+01 1.421085e-14 1.618339e+01 -1.332268e-15 -1.322844e+01 5.006788e+01 2.615875e+01 3.552714e-15 3.047170e+01 -5.329071e-15 -8.696858e-01 3.374515e+01 4.568300e-01 -1.065814e-14 1.679996e+01 0.000000e+00 -4.973327e+00 1.644714e+01 -1.776357e-15 -6.954337e+00 1.925937e+01 2.664535e-15 -1.004365e+01 1.854370e+01 -3.552714e-15 -8.919134e+00 1.617799e+02 5.389692e+01 0.000000e+00 5.014170e+01 5.091134e+00 3.552714e-15 3.650731e+01 2.554826e+00 -1.598721e-14 1.830917e+01 8.881784e-16 -2.344898e+00 1.067175e+01 -3.108624e-15 -2.022288e+01 7.071881e+01 4.010164e+01 0.000000e+00 8.369283e+01 4.501974e+01 7.105427e-15 8.208055e+00 -2.664535e-15 -1.503651e+01 2.082375e+01 -1.776357e-15 -2.378941e+00 6.931482e-01 -5.551115e-17 -1.609925e+00 1.099997e+01 2.914335e-16 -1.127082e+01 4.006853e+00 -8.881784e-15 -3.924447e+01 1.079569e+01 8.881784e-16 -1.320999e+01 6.922611e+01 3.408673e+01 0.000000e+00 6.427990e+01 3.436233e+01 7.105427e-15 1.023501e+01 -1.332268e-15 -2.188474e+01 2.373389e+00 -3.552714e-15 -3.973143e+01 4.984195e+00 1.776357e-15 -3.304421e+01 2.698871e+01 -6.394885e-14 -2.644096e-01 1.591533e+01 -2.664535e-15 -4.293603e+00 4.121511e+01 1.269828e+01 0.000000e+00 3.860156e+01 1.341826e+01 0.000000e+00 2.590244e+00 -1.598721e-14 -4.160816e+01 1.537393e+01 -3.261280e-15 -1.551112e+01 1.437591e+01 -2.706169e-15 -1.423101e+01 2.443438e+00 0.000000e+00 -3.895360e+01 5.145334e+00 -1.776357e-15 -3.062885e+01 2.420779e+01 -4.440892e-15 -4.452081e+00 1.791669e+01 -2.664535e-15 -1.086290e+01 3.087255e+01 -5.329071e-15 -1.913494e+00 1.680854e+01 0.000000e+00 -3.653851e+00 6.191549e+00 0.000000e+00 -3.731727e+01 1.134417e+01 -8.881784e-16 -2.266311e+01 7.366249e-02 8.881784e-16 -2.194069e+00 6.076398e+00 -6.217249e-15 -2.818731e+01 7.262297e+00 -3.552714e-15 -2.961113e+01 8.482769e+00 -1.776357e-15 -2.745979e+01 1.931048e+01 -1.776357e-15 -3.230631e+00 1.662234e+01 -1.998401e-15 -1.091995e+01 2.536854e+01 -8.881784e-16 -2.440263e+00 2.344520e+01 -8.881784e-16 -3.349068e+00 2.654361e+01 -7.105427e-15 -1.095522e+00 1.997213e+00 -2.664535e-14 -4.720593e+01 1.660502e+01 0.000000e+00 -1.438440e+00 1.328223e+01 2.220446e-16 -8.999225e+00 1.828914e+00 -4.263256e-14 -4.791274e+01 2.029078e+00 -1.065814e-14 -3.617390e+01 2.543286e+01 -5.329071e-15 -2.088540e+00 3.392205e+00 -3.552714e-15 -4.143662e+01 5.416639e+01 2.805834e+01 3.552714e-15 6.358718e+01 3.087037e+01 3.552714e-15 1.365846e+01 -3.552714e-15 -1.084676e+01 2.611615e+00 5.329071e-15 -3.694101e+01 4.166708e+00 5.329071e-15 -3.682838e+01 4.835729e+00 -7.105427e-15 -3.574987e+01 2.731776e+01 9.551760e-01 -1.243450e-14 2.846367e+01 1.896398e+00 -1.065814e-14 8.701410e-01 -2.220446e-16 -4.082779e+00 1.139013e+01 -1.373901e-15 -1.131320e+01 1.550668e+01 -2.664535e-15 -8.665269e+00 3.436206e+01 3.552714e-15 -4.039110e+00 7.174545e+00 -1.776357e-15 -3.517208e+01 3.953796e+00 1.776357e-15 -3.089439e+01 3.455062e+00 0.000000e+00 -6.312272e+01 1.813983e+01 4.440892e-16 -1.282705e+01 1.946686e+01 -4.440892e-15 -7.278336e+00 2.255527e+01 -1.776357e-15 -6.398764e+00 2.286962e+01 2.664535e-15 -7.510751e+00 1.529301e+01 4.440892e-16 -3.475821e+00 9.950603e+00 -1.776357e-15 -2.509368e+01 7.101449e+00 -5.329071e-15 -2.591786e+01 7.972677e+00 1.776357e-15 -2.365565e+01 1.486086e+01 -3.330669e-15 -1.865628e+01 3.211574e+01 6.296362e+00 0.000000e+00 3.378894e+01 5.223236e+00 -7.105427e-15 5.330774e+01 2.403493e+01 0.000000e+00 5.057615e+01 2.423453e+01 0.000000e+00 1.483019e+01 -1.776357e-15 -4.692121e+00 9.228924e+00 -8.881784e-16 -2.379055e+01 2.996178e+00 5.329071e-15 -3.381949e+01 9.874966e+00 -1.887379e-15 -9.304009e+00 9.634433e+00 -1.332268e-15 -2.122581e+01 1.601350e+01 2.442491e-15 -2.146512e+01 5.135196e+00 -7.105427e-15 -3.302846e+01 3.981643e+00 -1.776357e-15 -3.401653e+01 6.486721e+00 -1.776357e-15 -3.188022e+01 2.577016e+01 2.664535e-15 -2.402384e+00 3.544654e+01 1.522092e+00 -5.329071e-15 1.118517e+01 8.881784e-16 -2.705136e+01 2.104271e+01 -8.881784e-16 -5.490293e+00 1.658880e+01 -1.998401e-15 -1.088485e+01 3.753729e+01 9.856471e+00 0.000000e+00 3.495584e+01 8.907193e+00 1.776357e-15 3.779982e+01 1.136163e+01 3.552714e-15 1.422859e+01 0.000000e+00 -1.364014e+01 1.927166e+01 -2.664535e-15 -3.656121e+00 3.021350e+01 -1.065814e-14 -6.873538e-01 2.660297e+01 7.105427e-15 -1.351291e+00 2.149952e+01 -2.664535e-15 -3.295054e+00 7.095886e+00 -5.329071e-15 -3.436204e+01 1.241978e+01 -5.481726e-16 -1.233924e+01 1.762433e+01 8.881784e-16 -3.063290e+00 3.475146e+01 4.831954e+00 0.000000e+00 2.888593e+01 3.805940e+00 1.776357e-15 8.721872e+00 -2.664535e-15 -3.163109e+01 7.249469e+00 1.776357e-15 -2.565885e+01 1.130598e+01 -1.582068e-15 -1.117363e+01 1.585027e+01 -3.108624e-15 -5.340487e+00 1.416468e+01 -4.884981e-15 -1.771361e+01 4.429374e+01 4.126679e+00 0.000000e+00 1.261164e+01 0.000000e+00 -1.637846e+01 1.471419e+01 0.000000e+00 -7.871689e+00 4.691143e+01 1.780042e+01 0.000000e+00 1.773125e+01 -3.108624e-15 -7.084035e+00 1.960728e+00 -7.105427e-15 -5.179470e+01 4.802610e+01 2.160700e+01 -3.552714e-15 1.408050e+01 -2.220446e-15 -1.054788e+01 1.343186e+01 1.110223e-15 -9.522334e+00 1.624887e+01 8.881784e-16 -7.264202e+00 4.809256e+01 1.975640e+01 -3.552714e-15 1.475288e+00 2.486900e-14 -5.278365e+01 1.243409e+01 0.000000e+00 -9.704634e+00 5.422460e+01 2.188798e+01 3.552714e-15 4.125465e+01 1.601969e+01 0.000000e+00 3.684391e+01 2.403483e+00 5.329071e-15 4.857349e+01 8.243140e+00 3.552714e-15 2.127915e+01 8.881784e-16 -5.995390e+00 1.493354e+01 -1.332268e-15 -5.448634e+00 1.549635e+01 -1.332268e-15 -6.287588e+00 1.064408e+01 -5.329071e-15 -2.902902e+01 -2.131628e-14 -3.040941e+00 -6.381135e+01 1.782149e+01 -4.440892e-16 -8.800822e+00 3.327879e+01 6.309240e+00 -1.776357e-15 3.671651e+01 7.646975e+00 -1.776357e-15 1.034768e+01 -5.329071e-15 -2.517941e+01 5.457732e+01 6.868793e+00 0.000000e+00 4.207790e+01 5.784539e+00 -1.776357e-15 1.645418e+01 -8.881784e-16 -8.769693e+00 8.366157e+01 3.047518e+01 -7.105427e-15 5.387267e+00 -3.552714e-15 -2.842491e+01 4.593326e+01 1.434419e+01 0.000000e+00 1.776097e+01 -4.440892e-15 -1.198830e+01 9.589271e+01 5.000690e+01 -7.105427e-15 1.019056e+02 4.212549e+01 1.421085e-14 2.363550e+01 -1.776357e-15 -6.612710e+00 9.055553e+01 4.775417e+01 0.000000e+00 8.854391e+01 4.177739e+01 0.000000e+00 1.671783e+01 -2.220446e-15 -5.870353e+00 1.801447e+01 0.000000e+00 -7.289900e+00 9.412281e+01 2.856778e+01 0.000000e+00 1.373277e+01 -3.108624e-15 -2.437896e+01 8.078457e+01 2.167134e+01 -7.105427e-15 1.642917e+01 6.661338e-16 -1.954262e+01 8.093894e+01 4.158037e+01 7.105427e-15 1.411016e+01 -3.108624e-15 -1.972138e+01 1.250379e+01 -3.108624e-15 -2.024086e+01 7.009089e+01 3.060427e+01 0.000000e+00 1.491343e+01 1.554312e-15 -1.874195e+01 1.534212e+01 -6.217249e-15 -2.287833e+01 2.605692e+01 3.552714e-15 -1.614754e+00 3.536120e+01 1.399818e+00 1.065814e-14 2.240275e+01 3.552714e-15 -3.089733e+00 1.451367e+01 4.440892e-16 -9.534197e+00 1.970327e+01 -8.881784e-16 -4.313364e+00 1.628652e+01 -4.996004e-16 -1.516210e+01 3.247711e+01 2.478148e+00 -5.329071e-15 3.048131e+01 3.502261e+00 -1.776357e-15 2.403711e+01 0.000000e+00 -1.022406e+01 5.967064e+01 2.535666e+01 -3.552714e-15 3.810280e+00 -1.776357e-15 -3.153741e+01 5.974319e+01 3.085908e+01 0.000000e+00 1.378460e+01 -8.881784e-16 -1.709402e+01 1.471086e+01 -1.110223e-15 -1.783512e+01 2.531116e+01 -4.440892e-15 -4.326517e+00 2.559434e+01 -5.329071e-15 -2.784417e+00 4.788704e+01 1.916157e+01 0.000000e+00 5.759538e+00 -2.664535e-15 -2.837426e+01 8.585986e+00 3.552714e-15 -2.752883e+01 1.975614e+01 -2.664535e-15 -1.683074e+01 5.116246e+01 2.267335e+01 3.552714e-15 8.625227e+00 -7.105427e-15 -2.342486e+01 1.183409e+01 -4.440892e-16 -2.261505e+01 1.165107e+01 -1.776357e-15 -2.124472e+01 7.656479e+00 -7.105427e-15 -2.956843e+01 1.690491e+01 -6.661338e-16 -1.228121e+01 2.200172e+01 -4.440892e-15 -5.396594e+00 5.946441e+01 1.443556e+01 -3.552714e-15 6.595960e+01 1.447855e+01 -3.552714e-15 6.521282e+01 3.078215e+01 3.552714e-15 7.805595e+01 3.518565e+01 0.000000e+00 2.699402e+01 0.000000e+00 -6.125184e+00 2.935751e+01 7.105427e-15 -4.817329e-01 1.624772e+01 -5.551115e-16 -1.346894e+01 1.905138e+01 -3.774758e-15 -1.566119e+01 4.336561e+00 -1.776357e-15 -3.055854e+01 2.161231e+01 -3.552714e-15 -8.530032e+00 1.902010e+01 0.000000e+00 -9.619819e+00 1.963349e+01 4.440892e-16 -7.721793e+00 1.916479e+01 8.881784e-16 -1.078165e+01 1.997274e+01 -1.332268e-15 -1.160435e+01 1.127167e+01 -5.329071e-15 -2.567479e+01 7.084886e+01 2.020856e+01 0.000000e+00 2.475863e+01 0.000000e+00 -6.865039e+00 1.937465e+01 -2.220446e-15 -1.882396e+01 1.378172e+01 8.881784e-16 -8.318715e+00 1.302928e+01 -3.552714e-15 -2.175097e+01 1.047799e+01 8.881784e-16 -2.412800e+01 4.789820e+01 1.720520e+01 -7.105427e-15 1.146170e+01 -4.440892e-16 -1.865904e+01 4.525872e+01 9.194700e+00 7.105427e-15 1.973226e+01 3.330669e-16 -1.811017e+01 1.858088e+01 -2.664535e-15 -1.569381e+01 1.900583e+01 4.440892e-16 -1.648703e+01 3.360708e+00 8.881784e-15 -3.301399e+01 4.207374e+01 1.220735e+01 0.000000e+00 3.836746e+01 1.041640e+01 -3.552714e-15 3.978794e+01 1.217959e+01 -3.552714e-15 3.721675e+01 3.267331e+00 -5.329071e-15 1.734323e+01 -1.776357e-15 -4.662066e+00 1.384228e+01 -1.332268e-15 -1.138373e+01 6.042926e+01 2.793139e+01 -3.552714e-15 9.097354e+00 1.776357e-15 -2.895072e+01 4.299947e+01 1.461323e+01 0.000000e+00 8.007746e+01 2.432653e+01 7.105427e-15 4.944782e+01 1.595012e+01 0.000000e+00 1.951601e+01 2.664535e-15 -5.397074e+00 4.604374e+01 1.255311e+01 -3.552714e-15 2.956962e+01 0.000000e+00 -4.753807e+00 7.336111e+00 -1.776357e-15 -2.601774e+01 6.084578e+01 2.679048e+01 3.552714e-15 3.159635e+01 3.040640e+00 -1.776357e-15 7.662965e+00 -1.776357e-15 -3.172667e+01 5.271449e+01 1.919457e+01 3.552714e-15 1.806899e+01 0.000000e+00 -5.585090e+00 9.155097e+01 3.319687e+01 0.000000e+00 6.925637e+01 2.573134e+01 -3.552714e-15 6.072889e+01 2.299679e+01 0.000000e+00 1.802716e+01 -1.609823e-15 -1.907806e+01 1.657247e+01 -2.775558e-15 -1.432345e+01 6.853299e+00 8.881784e-16 -2.792039e+01 8.230768e+00 -2.664535e-15 -2.691872e+01 3.670736e+01 4.877313e+00 -5.329071e-15 1.380394e+01 1.332268e-15 -2.054912e+01 1.293445e+01 -3.108624e-15 -1.610201e+01 5.974627e+01 1.741761e+01 0.000000e+00 4.375836e+01 1.407783e+01 0.000000e+00 1.636559e+01 6.106227e-16 -1.558607e+01 5.389415e+01 1.911069e+01 3.552714e-15 5.240086e+01 1.562235e+01 3.552714e-15 2.300758e+01 -8.881784e-16 -5.323296e+00 2.704059e+01 -2.664535e-15 -4.153719e+00 5.357291e+00 3.552714e-15 -2.932554e+01 1.808435e+01 -1.776357e-15 -1.069161e+01 2.214587e+01 -2.664535e-15 -9.166478e+00 4.579765e+01 8.564698e+00 3.552714e-15 3.841961e+01 3.457543e-01 -3.197442e-14 2.874552e+01 -5.329071e-15 -8.088281e+00 1.825604e+01 -3.108624e-15 -7.566223e+00 1.642816e+01 -1.332268e-15 -6.353606e+00 7.564901e+01 3.881529e+01 0.000000e+00 1.985823e+01 8.881784e-16 -4.406823e+00 2.007987e+01 -1.776357e-15 -8.151077e+00 6.573906e+00 -7.105427e-15 -2.666621e+01 6.700514e+01 1.687232e+01 -3.552714e-15 2.721516e+01 1.003464e+00 -1.776357e-15 1.008907e+01 -3.663736e-15 -1.188797e+01 4.146324e+01 1.030967e+01 7.105427e-15 3.725895e+01 9.213873e+00 0.000000e+00 2.341693e+01 0.000000e+00 -6.597081e+00 1.428154e+01 -1.332268e-15 -1.836492e+01 2.019470e+01 -3.552714e-15 -5.908994e+00 2.122715e+01 -8.881784e-16 -5.144102e+00 2.355047e+01 8.881784e-16 -1.301927e+01 1.851264e+01 -1.776357e-15 -5.131030e+00 2.658144e+01 1.776357e-15 -2.020993e+00 1.941967e+01 -1.776357e-15 -1.249691e+01 2.633605e+01 -3.552714e-15 -2.793805e+00 2.745506e+01 1.225686e-13 -9.265383e-02 2.143757e+01 -3.552714e-15 -1.493201e+01 4.040042e+01 1.015540e+01 0.000000e+00 3.153418e+01 -7.815970e-14 -7.066402e-02 4.285810e+00 -1.776357e-15 -5.148594e+01 9.885315e+00 -1.776357e-15 -2.619104e+01 5.646360e+00 -5.329071e-15 -3.616775e+01 2.013383e+01 0.000000e+00 -2.486908e+00 3.395605e+01 2.228872e+00 -5.329071e-15 3.153962e+01 3.289597e+00 1.776357e-15 2.857557e+01 1.776357e-15 -2.324478e+00 2.035087e+01 8.881784e-16 -2.267920e+00 2.152986e+01 -8.881784e-16 -4.018557e+00 2.101946e+00 2.131628e-14 -5.359772e+01 1.611783e+01 -3.934353e-15 -1.599846e+01 1.755811e+01 -1.873501e-15 -1.718602e+01 8.648250e+01 3.849955e+01 -7.105427e-15 6.883714e+01 1.944127e+01 3.552714e-15 4.678938e+01 1.037733e+01 0.000000e+00 4.558352e+01 1.290962e+01 0.000000e+00 2.594617e+01 -7.105427e-15 -2.491665e+00 2.648708e+01 8.881784e-16 -7.072984e+00 8.435104e+01 3.600069e+01 7.105427e-15 2.440638e+01 -3.552714e-15 -8.506996e+00 4.007730e+01 7.787861e+00 0.000000e+00 1.303508e+01 -4.440892e-16 -2.003881e+01 8.151721e+01 3.377644e+01 0.000000e+00 1.342285e+01 -5.773160e-15 -1.958052e+01 1.031866e+01 -4.440892e-16 -2.078274e+01 1.465748e+01 1.554312e-15 -1.797542e+01 2.364979e+01 -2.220446e-15 -1.522804e+01 3.870177e+01 8.292629e+00 0.000000e+00 3.605687e+01 6.681640e+00 -1.776357e-15 2.306834e+01 -8.881784e-16 -1.006214e+01 1.809068e+01 -1.332268e-15 -1.160677e+01 3.852689e+01 3.531929e+00 -3.552714e-15 7.230879e+01 2.746511e+01 -7.105427e-15 3.844950e+01 5.206897e+00 -1.776357e-15 6.096437e+01 2.330471e+01 7.105427e-15 5.787104e+01 1.953356e+01 3.552714e-15 6.710119e+01 2.968900e+01 -7.105427e-15 3.568940e+01 5.329071e-15 -1.927137e+00 5.343888e+01 1.204883e+01 -7.105427e-15 2.032450e+01 -1.110223e-15 -1.628587e+01 1.734103e+01 -7.632783e-16 -1.767595e+01 2.188506e+01 -1.776357e-15 -1.434917e+01 1.792369e+01 -5.107026e-15 -1.571409e+01 3.235699e+01 1.230809e+00 -1.243450e-14 2.803160e+01 8.772866e-01 -3.552714e-15 4.028821e+01 4.626815e+00 -3.552714e-15 3.431741e+01 1.899660e+00 1.776357e-15 2.931088e+01 6.405485e-01 -7.105427e-15 4.097143e+01 8.000749e+00 3.552714e-15 4.061875e+01 7.369184e+00 -1.776357e-15 5.458652e+01 1.589321e+01 0.000000e+00 2.117212e+01 -2.664535e-15 -8.556473e+00 1.235442e+01 -5.329071e-15 -2.259829e+01 3.094591e+01 -3.552714e-15 -1.005400e+00 7.741869e+01 2.601956e+01 0.000000e+00 2.848341e+01 5.329071e-15 -9.208675e-01 1.510334e+01 -1.332268e-15 -1.871244e+01 2.999105e+01 -3.552714e-15 -4.023331e+00 1.494130e+01 -1.554312e-15 -1.749419e+01 2.425684e+01 0.000000e+00 -5.745469e+00 3.669162e+00 -2.486900e-14 -6.487827e+01 2.225738e+01 0.000000e+00 -1.269195e+01 8.512790e+00 3.552714e-15 -2.341783e+01 3.016969e+01 -5.329071e-15 -4.100904e+00 3.078553e+01 0.000000e+00 -5.425428e+00 3.320643e+01 3.437779e+00 0.000000e+00 6.411212e+01 1.880519e+01 -3.552714e-15 2.095733e+01 1.776357e-15 -3.248185e+00 3.738181e+01 9.811417e-01 1.776357e-15 2.254295e+01 8.881784e-16 -1.311359e+01 2.235825e+01 -8.881784e-16 -1.540346e+01 5.289758e+01 1.462933e+01 7.105427e-15 5.818029e+01 1.287120e+01 7.105427e-15 2.566716e+01 1.776357e-15 -1.225548e+01 2.299741e+01 1.332268e-15 -1.307748e+01 1.146968e+01 -2.664535e-15 -2.384807e+01 4.005743e+01 5.215491e+00 -8.881784e-15 4.236625e+01 3.873776e+00 -3.552714e-15 2.821466e+01 -1.776357e-15 -2.107864e+00 1.274297e+01 3.108624e-15 -2.216271e+01 2.036663e+01 4.440892e-16 -1.410751e+01 4.735083e+01 9.364507e+00 0.000000e+00 3.225277e+01 -3.552714e-15 -3.901555e+00 1.810737e+01 8.881784e-16 -1.197946e+01 2.217235e+01 0.000000e+00 -1.307282e+01 2.450884e+01 0.000000e+00 -1.022962e+01 3.687746e+01 4.795743e-01 5.329071e-15 3.436250e+01 3.384954e+00 -1.776357e-15 5.201035e+01 1.459961e+01 3.552714e-15 5.820592e+01 1.316414e+01 7.105427e-15 4.553400e+01 1.003900e+01 0.000000e+00 2.764173e+01 1.160189e+00 -1.776357e-15 5.123227e+01 1.274412e+01 0.000000e+00 4.693457e+01 1.063461e+01 0.000000e+00 5.266955e+01 1.150275e+01 3.552714e-15 2.830351e+01 -6.217249e-15 -1.116384e+01 2.820556e+01 0.000000e+00 -7.497735e+00 2.269026e+01 -2.664535e-15 -9.018829e+00 2.567321e+01 -1.776357e-15 -5.832984e+00 5.254525e+01 9.415081e+00 0.000000e+00 5.012203e+01 8.574126e+00 0.000000e+00 2.513260e+01 -8.881784e-16 -9.639343e+00 2.779660e+01 -1.776357e-15 -1.184707e+01 2.932298e+01 -3.552714e-15 -8.586888e+00 3.978215e+01 4.442543e+00 3.552714e-15 3.595088e+01 4.685833e+00 3.552714e-15 1.597356e+01 -1.526557e-16 -1.572775e+01 2.595556e+01 8.881784e-16 -3.152413e+00 4.229352e+01 5.143523e+00 -5.329071e-15 3.994190e+01 7.007491e+00 3.552714e-15 3.192704e+01 -1.776357e-15 -7.722682e+00 4.322669e+01 8.118587e+00 -3.552714e-15 2.389962e+01 -3.552714e-15 -1.059044e+01 2.990866e+01 1.776357e-15 -1.545644e+00 3.544429e+01 1.179784e+00 5.329071e-15 5.879479e+01 2.045598e+01 -3.552714e-15 5.015111e+01 7.946387e+00 -7.105427e-15 3.536837e+01 2.185810e+00 -5.329071e-15 2.367668e+01 -3.552714e-15 -1.165503e+01 3.181034e+01 3.019807e-14 -3.288239e-01 2.774791e+01 -2.664535e-15 -5.743977e+00 3.874362e+01 6.394885e-14 -1.101533e-01 3.212891e+01 -5.329071e-15 -7.961365e+00 4.590683e+01 6.937031e+00 0.000000e+00 3.676312e+01 -3.552714e-15 -3.027934e+00 1.173555e+01 -1.776357e-15 -1.933299e+01 2.398557e+01 -4.440892e-15 -1.012613e+01 4.271882e+01 5.558728e+00 -3.552714e-15   </DataArray>
  <DataArray type="Float64" Name="IST_StrainTensor" NumberOfComponents="9" format="ascii">4.911621e-05 -1.831592e-05 0.000000e+00 -1.831592e-05 -2.713900e-04 0.000000e+00 0.000000e+00 0.000000e+00 0.000000e+00 6.417087e-05 -8.311122e-06 0.000000e+00 -8.311122e-06 -2.486273e-04 0.000000e+00 0.000000e+00 0.000000e+00 0.000000e+00 6.853420e-05 -6.068802e-06 0.000000e+00 -6.068802e-06 -2.250995e-04 0.000000e+00 0.000000e+00 0.000000e+00 0.000000e+00 6.901405e-05 -5.408610e-06 0.000000e+00 -5.408610e-06 -2.017200e-04 0.000000e+00 0.000000e+00 0.000000e+00 0.000000e+00 6.965476e-05 -5.364720e-06 0.000000e+00 -5.364720e-06 -1.803449e-04 0.000000e+00 0.000000e+00 0.000000e+00 0.000000e+00 7.079611e-05 -5.482402e-06 0.000000e+00 -5.482402e-06 -1.596502e-04 0.000000e+00 0.000000e+00 0.000000e+00 0.000000e+00 7.349641e-05 -5.177983e-06 0.000000e+00 -5.177983e-06 -1.413082e-04 0.000000e+00 0.000000e+00 0.000000e+00 0.000000e+00 7.716158e-05 -5.376556e-06 0.000000e+00 -5.376556e-06 -1.241526e-04 0.000000e+00 0.000000e+00 0.000000e+00 0.000000e+00 8.210793e-05 -5.636853e-06 0.000000e+00 -5.636853e-06 -1.082277e-04 0.000000e+00 0.000000e+00 0.000000e+00 0.000000e+00 8.811624e-05 -5.997234e-06 0.000000e+00 -5.997234e-06 -9.329316e-05 0.000000e+00 0.000000e+00 0.000000e+00 0.000000e+00 9.470904e-05 -6.466366e-06 0.000000e+00 -6.466366e-06 -7.811883e-05 0.000000e+00 0.000000e+00 0.000000e+00 0.000000e+00 1.030478e-04 -6.569186e-06 0.000000e+00 -6.569186e-06 -6.452131e-05 0.000000e+00 0.000000e+00 0.000000e+00 0.000000e+00 1.124787e-04 -7.157534e-06 0.000000e+00 -7.157534e-06 -5.132478e-05 0.000000e+00 0.000000e+00 0.000000e+00 0.000000e+00 1.224087e-04 -7.592679e-06 0.000000e+00 -7.592679e-06 -3.685145e-05 0.000000e+00 0.000000e+00 0.000000e+00 0.000000e+00 1.342280e-04 -7.972802e-06 0.000000e+00 -7.972802e-06 -2.315908e-05 0.000000e+00 0.000000e+00 0.000000e+00 0.000000e+00 1.464541e-04 -8.965018e-06 0.000000e+00 -8.965018e-06 -7.174741e-06 0.000000e+00 0.000000e+00 0.000000e+00 0.000000e+00 1.603130e-04 -1.023766e-05 0.000000e+00 -1.023766e-05 9.826070e-06 0.000000e+00 0.000000e+00 0.000000e+00 0.000000e+00 1.773640e-04 -1.150267e-05 0.000000e+00 -1.150267e-05 2.645009e-05 0.000000e+00 0.000000e+00 0.000000e+00 0.000000e+00 1.957168e-04 -1.176103e-05 0.000000e+00 -1.176103e-05 4.814811e-05 0.000000e+00 0.000000e+00 0.000000e+00 0.000000e+00 2.181946e-04 -1.564859e-05 0.000000e+00 -1.564859e-05 7.175633e-05 0.000000e+00 0.000000e+00 0.000000e+00 0.000000e+00 2.470012e-04 -2.027320e-05 0.000000e+00 -2.027320e-05 9.989481e-05 0.000000e+00 0.000000e+00 0.000000e+00 0.000000e+00 2.866614e-04 -2.671116e-05 0.000000e+00 -2.671116e-05 1.376014e-04 0.000000e+00 0.000000e+00 0.000000e+00 0.000000e+00 3.489045e-04 -4.640727e-05 0.000000e+00 -4.640727e-05 1.894484e-04 0.000000e+00 0.000000e+00 0.000000e+00 0.000000e+00 4.676075e-04 -1.128134e-04 0.000000e+00 -1.128134e-04 2.888299e-04 0.000000e+00 0.000000e+00 0.000000e+00 0.000000e+00 6.402789e-04 -3.593585e-04 0.000000e+00 -3.593585e-04 6.723197e-04 0.000000e+00 0.000000e+00 0.000000e+00 0.000000e+00 1.016557e-04 6.893927e-06 0.000000e+00 6.893927e-06 -2.731346e-05 0.000000e+00 0.000000e+00 0.000000e+00 0.000000e+00 9.047651e-05 7.902492e-06 0.000000e+00 7.902492e-06 -2.849816e-05 0.000000e+00 0.000000e+00 0.000000e+00 0.000000e+00 6.976927e-05 1.064100e-05 0.000000e+00 1.064100e-05 -2.177176e-05 0.000000e+00 0.000000e+00 0.000000e+00 0.000000e+00 3.531037e-05 1.424136e-05 0.000000e+00 1.424136e-05 -8.971238e-06 0.000000e+00 0.000000e+00 0.000000e+00 0.000000e+00 4.233738e-05 1.664021e-05 0.000000e+00 1.664021e-05 -8.166267e-06 0.000000e+00 0.000000e+00 0.000000e+00 0.000000e+00 7.251833e-05 3.709404e-05 0.000000e+00 3.709404e-05 -9.128752e-06 0.000000e+00 0.000000e+00 0.000000e+00 0.000000e+00 8.674610e-05 2.590759e-05 0.000000e+00 2.590759e-05 -1.673744e-05 0.000000e+00 0.000000e+00 0.000000e+00 0.000000e+00 2.139756e-05 1.380358e-05 0.000000e+00 1.380358e-05 -4.758984e-06 0.000000e+00 0.000000e+00 0.000000e+00 0.000000e+00 -1.893937e-05 7.396386e-06 0.000000e+00 7.396386e-06 1.141828e-05 0.000000e+00 0.000000e+00 0.000000e+00 0.000000e+00 -1.592248e-05 -4.277947e-06 0.000000e+00 -4.277947e-06 6.616065e-06 0.000000e+00 0.000000e+00 0.000000e+00 0.000000e+00 -9.369849e-07 -1.842793e-06 0.000000e+00 -1.842793e-06 -1.048469e-06 0.000000e+00 0.000000e+00 0.000000e+00 0.000000e+00 1.346318e-06 -2.014118e-06 0.000000e+00 -2.014118e-06 -5.654596e-06 0.000000e+00 0.000000e+00 0.000000e+00 0.000000e+00 4.112026e-06 1.812766e-06 0.000000e+00 1.812766e-06 -9.128830e-06 0.000000e+00 0.000000e+00 0.000000e+00 0.000000e+00 -4.000601e-07 3.528964e-06 0.000000e+00 3.528964e-06 9.971860e-07 0.000000e+00 0.000000e+00 0.000000e+00 0.000000e+00 -3.782993e-06 1.284529e-06 0.000000e+00 1.284529e-06 9.116164e-06 0.000000e+00 0.000000e+00 0.000000e+00 0.000000e+00 -2.126239e-06 -1.983296e-06 0.000000e+00 -1.983296e-06 5.274655e-06 0.000000e+00 0.000000e+00 0.000000e+00 0.000000e+00 1.083129e-07 -1.693290e-06 0.000000e+00 -1.693290e-06 1.218168e-06 0.000000e+00 0.000000e+00 0.000000e+00 0.000000e+00 -1.058814e-07 -2.146901e-06 0.000000e+00 -2.146901e-06 7.467540e-07 0.000000e+00 0.000000e+00 0.000000e+00 0.000000e+00 1.576436e-06 -2.010921e-06 0.000000e+00 -2.010921e-06 -9.276423e-07 0.000000e+00 0.000000e+00 0.000000e+00 0.000000e+00 4.409443e-06 -1.118973e-06 0.000000e+00 -1.118973e-06 -1.286076e-06 0.000000e+00 0.000000e+00 0.000000e+00 0.000000e+00 7.544567e-06 3.487895e-07 0.000000e+00 3.487895e-07 -4.661869e-06 0.000000e+00 0.000000e+00 0.000000e+00 0.000000e+00 -6.502055e-06 8.356938e-06 0.000000e+00 8.356938e-06 -9.473652e-07 0.000000e+00 0.000000e+00 0.000000e+00 0.000000e+00 -5.661330e-05 1.732564e-05 0.000000e+00 1.732564e-05 1.556306e-05 0.000000e+00 0.000000e+00 0.000000e+00 0.000000e+00 -1.233260e-04 1.878539e-05 0.000000e+00 1.878539e-05 3.933032e-05 0.000000e+00 0.000000e+00 0.000000e+00 0.000000e+00 -1.719374e-04 9.375891e-06 0.000000e+00 9.375891e-06 6.030742e-05 0.000000e+00 0.000000e+00 0.000000e+00 0.000000e+00 -1.334649e-04 -2.106933e-05 0.000000e+00 -2.106933e-05 5.189370e-05 0.000000e+00 0.000000e+00 0.000000e+00 0.000000e+00 -6.116771e-05 -3.194923e-05 0.000000e+00 -3.194923e-05 2.091349e-05 0.000000e+00 0.000000e+00 0.000000e+00 0.000000e+00 -7.428015e-06 -1.202778e-05 0.000000e+00 -1.202778e-05 -5.133782e-06 0.000000e+00 0.000000e+00 0.000000e+00 0.000000e+00 -4.288462e-05 -2.839445e-05 0.000000e+00 -2.839445e-05 6.763148e-06 0.000000e+00 0.000000e+00 0.000000e+00 0.000000e+00 -5.403323e-06 -1.153425e-05 0.000000e+00 -1.153425e-05 -6.412476e-06 0.000000e+00 0.000000e+00 0.000000e+00 0.000000e+00 1.366856e-05 -3.102143e-05 0.000000e+00 -3.102143e-05 -5.290203e-05 0.000000e+00 0.000000e+00 0.000000e+00 0.000000e+00 5.918098e-06 9.341364e-06 0.000000e+00 9.341364e-06 -6.956340e-06 0.000000e+00 0.000000e+00 0.000000e+00 0.000000e+00 1.062397e-05 4.738957e-06 0.000000e+00 4.738957e-06 -8.354924e-06 0.000000e+00 0.000000e+00 0.000000e+00 0.000000e+00 1.201890e-05 -1.322069e-06 0.000000e+00 -1.322069e-06 -6.332563e-06 0.000000e+00 0.000000e+00 0.000000e+00 0.000000e+00 9.287509e-06 -5.328433e-06 0.000000e+00 -5.328433e-06 -7.292378e-07 0.000000e+00 0.000000e+00 0.000000e+00 0.000000e+00 2.639479e-06 -4.771653e-06 0.000000e+00 -4.771653e-06 7.096090e-06 0.000000e+00 0.000000e+00 0.000000e+00 0.000000e+00 -4.207767e-06 3.643765e-06 0.000000e+00 3.643765e-06 1.453655e-05 0.000000e+00 0.000000e+00 0.000000e+00 0.000000e+00 -4.916959e-06 1.525680e-05 0.000000e+00 1.525680e-05 1.677434e-05 0.000000e+00 0.000000e+00 0.000000e+00 0.000000e+00 -3.515938e-06 3.156303e-05 0.000000e+00 3.156303e-05 1.558245e-05 0.000000e+00 0.000000e+00 0.000000e+00 0.000000e+00 1.458792e-06 4.722526e-05 0.000000e+00 4.722526e-05 1.224333e-05 0.000000e+00 0.000000e+00 0.000000e+00 0.000000e+00 1.747226e-05 6.166106e-05 0.000000e+00 6.166106e-05 4.262344e-06 0.000000e+00 0.000000e+00 0.000000e+00 0.000000e+00 2.691162e-05 6.806781e-05 0.000000e+00 6.806781e-05 -3.548728e-06 0.000000e+00 0.000000e+00 0.000000e+00 0.000000e+00 3.123539e-05 6.999304e-05 0.000000e+00 6.999304e-05 -9.146828e-06 0.000000e+00 0.000000e+00 0.000000e+00 0.000000e+00 2.925787e-05 6.879553e-05 0.000000e+00 6.879553e-05 -1.057621e-05 0.000000e+00 0.000000e+00 0.000000e+00 0.000000e+00 2.026482e-05 6.687797e-05 0.000000e+00 6.687797e-05 -8.362757e-06 0.000000e+00 0.000000e+00 0.000000e+00 0.000000e+00 7.374953e-06 6.669930e-05 0.000000e+00 6.669930e-05 -4.213114e-06 0.000000e+00 0.000000e+00 0.000000e+00 0.000000e+00 -5.860747e-06 7.015630e-05 0.000000e+00 7.015630e-05 3.254239e-07 0.000000e+00 0.000000e+00 0.000000e+00 0.000000e+00 -1.142911e-05 7.582424e-05 0.000000e+00 7.582424e-05 -9.768456e-07 0.000000e+00 0.000000e+00 0.000000e+00 0.000000e+00 -8.835119e-06 7.736507e-05 0.000000e+00 7.736507e-05 -8.552991e-06 0.000000e+00 0.000000e+00 0.000000e+00 0.000000e+00 -3.723915e-07 7.161232e-05 0.000000e+00 7.161232e-05 -1.870524e-05 0.000000e+00 0.000000e+00 0.000000e+00 0.000000e+00 8.052993e-06 5.969155e-05 0.000000e+00 5.969155e-05 -2.648860e-05 0.000000e+00 0.000000e+00 0.000000e+00 0.000000e+00 1.340218e-05 4.647872e-05 0.000000e+00 4.647872e-05 -3.119202e-05 0.000000e+00 0.000000e+00 0.000000e+00 0.000000e+00 1.601519e-05 3.060164e-05 0.000000e+00 3.060164e-05 -3.344322e-05 0.000000e+00 0.000000e+00 0.000000e+00 0.000000e+00 1.371721e-05 1.523773e-05 0.000000e+00 1.523773e-05 -3.015416e-05 0.000000e+00 0.000000e+00 0.000000e+00 0.000000e+00 7.665182e-06 4.187295e-06 0.000000e+00 4.187295e-06 -2.327823e-05 0.000000e+00 0.000000e+00 0.000000e+00 0.000000e+00 -9.686861e-07 1.971306e-06 0.000000e+00 1.971306e-06 -1.234956e-05 0.000000e+00 0.000000e+00 0.000000e+00 0.000000e+00 -4.029538e-06 4.984000e-06 0.000000e+00 4.984000e-06 -6.434785e-06 0.000000e+00 0.000000e+00 0.000000e+00 0.000000e+00 -2.621101e-06 8.455542e-06 0.000000e+00 8.455542e-06 -4.482875e-06 0.000000e+00 0.000000e+00 0.000000e+00 0.000000e+00 9.861245e-07 1.028206e-05 0.000000e+00 1.028206e-05 -5.210646e-06 0.000000e+00 0.000000e+00 0.000000e+00 0.000000e+00 4.672605e-07 -2.300707e-06 0.000000e+00 -2.300707e-06 -1.481747e-06 0.000000e+00 0.000000e+00 0.000000e+00 0.000000e+00 2.749232e-05 -1.582475e-05 0.000000e+00 -1.582475e-05 -2.713900e-04 0.000000e+00 0.000000e+00 0.000000e+00 0.000000e+00 5.937077e-05 -1.169410e-05 0.000000e+00 -1.169410e-05 -2.613120e-04 0.000000e+00 0.000000e+00 0.000000e+00 0.000000e+00 6.500892e-05 -8.207658e-06 0.000000e+00 -8.207658e-06 -2.650092e-04 0.000000e+00 0.000000e+00 0.000000e+00 0.000000e+00 6.785892e-05 -3.354338e-06 0.000000e+00 -3.354338e-06 -2.544910e-04 0.000000e+00 0.000000e+00 0.000000e+00 0.000000e+00 6.721091e-05 -6.775816e-06 0.000000e+00 -6.775816e-06 -2.369562e-04 0.000000e+00 0.000000e+00 0.000000e+00 0.000000e+00 6.922036e-05 -4.167340e-07 0.000000e+00 -4.167340e-07 -2.306736e-04 0.000000e+00 0.000000e+00 0.000000e+00 0.000000e+00 6.871359e-05 -5.741616e-06 0.000000e+00 -5.741616e-06 -2.128697e-04 0.000000e+00 0.000000e+00 0.000000e+00 0.000000e+00 6.909700e-05 -5.308620e-06 0.000000e+00 -5.308620e-06 -1.905981e-04 0.000000e+00 0.000000e+00 0.000000e+00 0.000000e+00 7.000176e-05 -5.635097e-06 0.000000e+00 -5.635097e-06 -1.696864e-04 0.000000e+00 0.000000e+00 0.000000e+00 0.000000e+00 6.925987e-05 4.499999e-08 0.000000e+00 4.499999e-08 -1.747310e-04 0.000000e+00 0.000000e+00 0.000000e+00 0.000000e+00 7.072111e-05 -2.229901e-07 0.000000e+00 -2.229901e-07 -1.647088e-04 0.000000e+00 0.000000e+00 0.000000e+00 0.000000e+00 7.180430e-05 -5.267462e-06 0.000000e+00 -5.267462e-06 -1.499088e-04 0.000000e+00 0.000000e+00 0.000000e+00 0.000000e+00 7.555603e-05 -5.243324e-06 0.000000e+00 -5.243324e-06 -1.332206e-04 0.000000e+00 0.000000e+00 0.000000e+00 0.000000e+00 7.931274e-05 -5.531218e-06 0.000000e+00 -5.531218e-06 -1.157534e-04 0.000000e+00 0.000000e+00 0.000000e+00 0.000000e+00 8.479088e-05 -5.876833e-06 0.000000e+00 -5.876833e-06 -1.003551e-04 0.000000e+00 0.000000e+00 0.000000e+00 0.000000e+00 8.289301e-05 -1.536909e-06 0.000000e+00 -1.536909e-06 -1.040503e-04 0.000000e+00 0.000000e+00 0.000000e+00 0.000000e+00 8.611851e-05 -1.919470e-06 0.000000e+00 -1.919470e-06 -9.663631e-05 0.000000e+00 0.000000e+00 0.000000e+00 0.000000e+00 9.146235e-05 -6.261970e-06 0.000000e+00 -6.261970e-06 -8.596104e-05 0.000000e+00 0.000000e+00 0.000000e+00 0.000000e+00 9.861368e-05 -6.476762e-06 0.000000e+00 -6.476762e-06 -7.103560e-05 0.000000e+00 0.000000e+00 0.000000e+00 0.000000e+00 1.076534e-04 -6.810618e-06 0.000000e+00 -6.810618e-06 -5.797078e-05 0.000000e+00 0.000000e+00 0.000000e+00 0.000000e+00 1.047704e-04 -2.761218e-06 0.000000e+00 -2.761218e-06 -6.112851e-05 0.000000e+00 0.000000e+00 0.000000e+00 0.000000e+00 1.091601e-04 -2.951164e-06 0.000000e+00 -2.951164e-06 -5.439846e-05 0.000000e+00 0.000000e+00 0.000000e+00 0.000000e+00 1.175468e-04 -7.362679e-06 0.000000e+00 -7.362679e-06 -4.453470e-05 0.000000e+00 0.000000e+00 0.000000e+00 0.000000e+00 1.279054e-04 -7.677341e-06 0.000000e+00 -7.677341e-06 -2.960861e-05 0.000000e+00 0.000000e+00 0.000000e+00 0.000000e+00 1.404149e-04 -8.476787e-06 0.000000e+00 -8.476787e-06 -1.573138e-05 0.000000e+00 0.000000e+00 0.000000e+00 0.000000e+00 1.361716e-04 -3.886354e-06 0.000000e+00 -3.886354e-06 -1.922047e-05 0.000000e+00 0.000000e+00 0.000000e+00 0.000000e+00 1.425290e-04 -3.814642e-06 0.000000e+00 -3.814642e-06 -1.150225e-05 0.000000e+00 0.000000e+00 0.000000e+00 0.000000e+00 1.530324e-04 -9.565981e-06 0.000000e+00 -9.565981e-06 1.420574e-06 0.000000e+00 0.000000e+00 0.000000e+00 0.000000e+00 1.554455e-04 -4.688091e-06 0.000000e+00 -4.688091e-06 5.447836e-06 0.000000e+00 0.000000e+00 0.000000e+00 0.000000e+00 1.687840e-04 -1.093273e-05 0.000000e+00 -1.093273e-05 1.751128e-05 0.000000e+00 0.000000e+00 0.000000e+00 0.000000e+00 1.858276e-04 -1.168332e-05 0.000000e+00 -1.168332e-05 3.738141e-05 0.000000e+00 0.000000e+00 0.000000e+00 0.000000e+00 2.071580e-04 -1.278344e-05 0.000000e+00 -1.278344e-05 5.858593e-05 0.000000e+00 0.000000e+00 0.000000e+00 0.000000e+00 1.993989e-04 -6.153042e-06 0.000000e+00 -6.153042e-06 5.362408e-05 0.000000e+00 0.000000e+00 0.000000e+00 0.000000e+00 2.073471e-04 -6.883610e-06 0.000000e+00 -6.883610e-06 6.546191e-05 0.000000e+00 0.000000e+00 0.000000e+00 0.000000e+00 2.317538e-04 -1.777901e-05 0.000000e+00 -1.777901e-05 8.492762e-05 0.000000e+00 0.000000e+00 0.000000e+00 0.000000e+00 2.655025e-04 -2.341916e-05 0.000000e+00 -2.341916e-05 1.161980e-04 0.000000e+00 0.000000e+00 0.000000e+00 0.000000e+00 3.139551e-04 -3.302330e-05 0.000000e+00 -3.302330e-05 1.611468e-04 0.000000e+00 0.000000e+00 0.000000e+00 0.000000e+00 3.966404e-04 -6.959182e-05 0.000000e+00 -6.959182e-05 2.298830e-04 0.000000e+00 0.000000e+00 0.000000e+00 0.000000e+00 3.263022e-04 -3.250351e-05 0.000000e+00 -3.250351e-05 2.104268e-04 0.000000e+00 0.000000e+00 0.000000e+00 0.000000e+00 3.420603e-04 -5.169335e-05 0.000000e+00 -5.169335e-05 2.590771e-04 0.000000e+00 0.000000e+00 0.000000e+00 0.000000e+00 5.649594e-04 -1.999940e-04 0.000000e+00 -1.999940e-04 4.016982e-04 0.000000e+00 0.000000e+00 0.000000e+00 0.000000e+00 1.613877e-04 4.984996e-06 0.000000e+00 4.984996e-06 -4.901633e-05 0.000000e+00 0.000000e+00 0.000000e+00 0.000000e+00 9.807620e-05 9.069299e-07 0.000000e+00 9.069299e-07 -3.464912e-05 0.000000e+00 0.000000e+00 0.000000e+00 0.000000e+00 9.707424e-05 6.267110e-06 0.000000e+00 6.267110e-06 -2.973978e-05 0.000000e+00 0.000000e+00 0.000000e+00 0.000000e+00 8.106494e-05 9.344540e-06 0.000000e+00 9.344540e-06 -2.515951e-05 0.000000e+00 0.000000e+00 0.000000e+00 0.000000e+00 5.568364e-05 1.246257e-05 0.000000e+00 1.246257e-05 -1.790404e-05 0.000000e+00 0.000000e+00 0.000000e+00 0.000000e+00 4.846395e-05 2.763117e-05 0.000000e+00 2.763117e-05 -1.276174e-05 0.000000e+00 0.000000e+00 0.000000e+00 0.000000e+00 6.069617e-05 2.350971e-05 0.000000e+00 2.350971e-05 -8.803459e-06 0.000000e+00 0.000000e+00 0.000000e+00 0.000000e+00 5.420197e-05 3.115182e-05 0.000000e+00 3.115182e-05 -5.275480e-06 0.000000e+00 0.000000e+00 0.000000e+00 0.000000e+00 4.868269e-05 1.641852e-05 0.000000e+00 1.641852e-05 -1.276071e-05 0.000000e+00 0.000000e+00 0.000000e+00 0.000000e+00 -1.713863e-06 1.168384e-05 0.000000e+00 1.168384e-05 5.021168e-06 0.000000e+00 0.000000e+00 0.000000e+00 0.000000e+00 -2.514636e-06 5.007288e-06 0.000000e+00 5.007288e-06 -1.472246e-06 0.000000e+00 0.000000e+00 0.000000e+00 0.000000e+00 -9.433635e-06 -2.392514e-06 0.000000e+00 -2.392514e-06 1.315277e-06 0.000000e+00 0.000000e+00 0.000000e+00 0.000000e+00 -2.287126e-05 1.413911e-07 0.000000e+00 1.413911e-07 1.081010e-05 0.000000e+00 0.000000e+00 0.000000e+00 0.000000e+00 -6.419288e-06 -4.185089e-06 0.000000e+00 -4.185089e-06 1.674227e-06 0.000000e+00 0.000000e+00 0.000000e+00 0.000000e+00 1.658583e-06 -2.394181e-06 0.000000e+00 -2.394181e-06 -5.194781e-06 0.000000e+00 0.000000e+00 0.000000e+00 0.000000e+00 4.207664e-06 -6.790441e-07 0.000000e+00 -6.790441e-07 -9.629489e-06 0.000000e+00 0.000000e+00 0.000000e+00 0.000000e+00 2.154631e-06 -1.858199e-07 0.000000e+00 -1.858199e-07 -6.943381e-06 0.000000e+00 0.000000e+00 0.000000e+00 0.000000e+00 2.291236e-06 3.134672e-06 0.000000e+00 3.134672e-06 -5.011523e-06 0.000000e+00 0.000000e+00 0.000000e+00 0.000000e+00 -2.607177e-06 2.569107e-06 0.000000e+00 2.569107e-06 5.882606e-06 0.000000e+00 0.000000e+00 0.000000e+00 0.000000e+00 -3.347886e-06 -4.672132e-07 0.000000e+00 -4.672132e-07 8.447735e-06 0.000000e+00 0.000000e+00 0.000000e+00 0.000000e+00 -5.657612e-05 1.834498e-05 0.000000e+00 1.834498e-05 1.697907e-05 0.000000e+00 0.000000e+00 0.000000e+00 0.000000e+00 -8.977393e-05 1.881122e-05 0.000000e+00 1.881122e-05 2.663125e-05 0.000000e+00 0.000000e+00 0.000000e+00 0.000000e+00 1.381749e-06 -1.691787e-06 0.000000e+00 -1.691787e-06 6.546993e-08 0.000000e+00 0.000000e+00 0.000000e+00 0.000000e+00 -1.069679e-07 1.245655e-06 0.000000e+00 1.245655e-06 7.260775e-07 0.000000e+00 0.000000e+00 0.000000e+00 0.000000e+00 4.522337e-06 4.003736e-06 0.000000e+00 4.003736e-06 -4.476074e-06 0.000000e+00 0.000000e+00 0.000000e+00 0.000000e+00 -7.274913e-06 5.630637e-06 0.000000e+00 5.630637e-06 2.654151e-06 0.000000e+00 0.000000e+00 0.000000e+00 0.000000e+00 -2.677741e-05 1.328215e-05 0.000000e+00 1.328215e-05 5.236811e-06 0.000000e+00 0.000000e+00 0.000000e+00 0.000000e+00 -8.056681e-05 1.861641e-05 0.000000e+00 1.861641e-05 2.314953e-05 0.000000e+00 0.000000e+00 0.000000e+00 0.000000e+00 -1.531358e-04 1.560453e-05 0.000000e+00 1.560453e-05 5.109972e-05 0.000000e+00 0.000000e+00 0.000000e+00 0.000000e+00 -1.050993e-04 -2.272846e-05 0.000000e+00 -2.272846e-05 2.863035e-05 0.000000e+00 0.000000e+00 0.000000e+00 0.000000e+00 -1.679273e-04 -4.665534e-06 0.000000e+00 -4.665534e-06 6.218365e-05 0.000000e+00 0.000000e+00 0.000000e+00 0.000000e+00 -7.565189e-05 -2.482453e-05 0.000000e+00 -2.482453e-05 1.793525e-05 0.000000e+00 0.000000e+00 0.000000e+00 0.000000e+00 9.207986e-06 5.018978e-06 0.000000e+00 5.018978e-06 -6.601579e-06 0.000000e+00 0.000000e+00 0.000000e+00 0.000000e+00 3.853674e-06 8.262176e-06 0.000000e+00 8.262176e-06 -5.216907e-06 0.000000e+00 0.000000e+00 0.000000e+00 0.000000e+00 1.208867e-05 -9.908994e-07 0.000000e+00 -9.908994e-07 -5.963320e-06 0.000000e+00 0.000000e+00 0.000000e+00 0.000000e+00 1.053366e-05 -6.674092e-06 0.000000e+00 -6.674092e-06 -1.510018e-06 0.000000e+00 0.000000e+00 0.000000e+00 0.000000e+00 6.313481e-06 -9.388974e-06 0.000000e+00 -9.388974e-06 6.827809e-06 0.000000e+00 0.000000e+00 0.000000e+00 0.000000e+00 -9.601859e-07 -4.395189e-06 0.000000e+00 -4.395189e-06 1.772229e-05 0.000000e+00 0.000000e+00 0.000000e+00 0.000000e+00 -3.644144e-06 7.939061e-06 0.000000e+00 7.939061e-06 2.295442e-05 0.000000e+00 0.000000e+00 0.000000e+00 0.000000e+00 -1.956049e-06 2.401263e-05 0.000000e+00 2.401263e-05 2.665973e-05 0.000000e+00 0.000000e+00 0.000000e+00 0.000000e+00 5.955358e-06 4.075719e-05 0.000000e+00 4.075719e-05 2.140807e-05 0.000000e+00 0.000000e+00 0.000000e+00 0.000000e+00 1.900163e-05 5.687356e-05 0.000000e+00 5.687356e-05 1.565563e-05 0.000000e+00 0.000000e+00 0.000000e+00 0.000000e+00 2.832897e-05 6.465135e-05 0.000000e+00 6.465135e-05 4.109506e-06 0.000000e+00 0.000000e+00 0.000000e+00 0.000000e+00 3.168759e-05 6.733117e-05 0.000000e+00 6.733117e-05 -3.574986e-06 0.000000e+00 0.000000e+00 0.000000e+00 0.000000e+00 2.933524e-05 6.926813e-05 0.000000e+00 6.926813e-05 -7.728148e-06 0.000000e+00 0.000000e+00 0.000000e+00 0.000000e+00 2.265429e-05 7.018650e-05 0.000000e+00 7.018650e-05 -7.354911e-06 0.000000e+00 0.000000e+00 0.000000e+00 0.000000e+00 1.299121e-05 7.116147e-05 0.000000e+00 7.116147e-05 -4.501151e-06 0.000000e+00 0.000000e+00 0.000000e+00 0.000000e+00 1.583024e-06 7.323198e-05 0.000000e+00 7.323198e-05 -9.067395e-07 0.000000e+00 0.000000e+00 0.000000e+00 0.000000e+00 -7.365940e-06 7.642454e-05 0.000000e+00 7.642454e-05 -1.460692e-06 0.000000e+00 0.000000e+00 0.000000e+00 0.000000e+00 -1.094955e-05 7.788555e-05 0.000000e+00 7.788555e-05 -8.119347e-06 0.000000e+00 0.000000e+00 0.000000e+00 0.000000e+00 -9.422485e-06 7.487131e-05 0.000000e+00 7.487131e-05 -1.832899e-05 0.000000e+00 0.000000e+00 0.000000e+00 0.000000e+00 -4.107455e-06 6.570403e-05 0.000000e+00 6.570403e-05 -2.787399e-05 0.000000e+00 0.000000e+00 0.000000e+00 0.000000e+00 2.050730e-06 5.276643e-05 0.000000e+00 5.276643e-05 -3.445886e-05 0.000000e+00 0.000000e+00 0.000000e+00 0.000000e+00 8.283143e-06 3.812888e-05 0.000000e+00 3.812888e-05 -4.008217e-05 0.000000e+00 0.000000e+00 0.000000e+00 0.000000e+00 1.040878e-05 2.138015e-05 0.000000e+00 2.138015e-05 -4.019162e-05 0.000000e+00 0.000000e+00 0.000000e+00 0.000000e+00 7.302205e-06 7.297509e-06 0.000000e+00 7.297509e-06 -3.321627e-05 0.000000e+00 0.000000e+00 0.000000e+00 0.000000e+00 7.590519e-07 -6.226257e-07 0.000000e+00 -6.226257e-07 -2.179131e-05 0.000000e+00 0.000000e+00 0.000000e+00 0.000000e+00 -3.727507e-06 1.834701e-07 0.000000e+00 1.834701e-07 -1.094756e-05 0.000000e+00 0.000000e+00 0.000000e+00 0.000000e+00 -3.957690e-06 4.177130e-06 0.000000e+00 4.177130e-06 -5.596500e-06 0.000000e+00 0.000000e+00 0.000000e+00 0.000000e+00 -1.283003e-06 7.548751e-06 0.000000e+00 7.548751e-06 -4.017087e-06 0.000000e+00 0.000000e+00 0.000000e+00 0.000000e+00 -3.012678e-05 1.551462e-05 0.000000e+00 1.551462e-05 1.801308e-04 0.000000e+00 0.000000e+00 0.000000e+00 0.000000e+00 6.859373e-05 -1.463348e-06 0.000000e+00 -1.463348e-06 -2.425173e-04 0.000000e+00 0.000000e+00 0.000000e+00 0.000000e+00 6.927265e-05 2.129272e-07 0.000000e+00 2.129272e-07 -2.187819e-04 0.000000e+00 0.000000e+00 0.000000e+00 0.000000e+00 6.925515e-05 2.559877e-07 0.000000e+00 2.559877e-07 -1.959128e-04 0.000000e+00 0.000000e+00 0.000000e+00 0.000000e+00 7.284656e-05 -7.615549e-07 0.000000e+00 -7.615549e-07 -1.457072e-04 0.000000e+00 0.000000e+00 0.000000e+00 0.000000e+00 7.174489e-05 -3.881278e-07 0.000000e+00 -3.881278e-07 -1.549283e-04 0.000000e+00 0.000000e+00 0.000000e+00 0.000000e+00 7.438368e-05 -9.072842e-07 0.000000e+00 -9.072842e-07 -1.372182e-04 0.000000e+00 0.000000e+00 0.000000e+00 0.000000e+00 7.792843e-05 -1.139070e-06 0.000000e+00 -1.139070e-06 -1.199083e-04 0.000000e+00 0.000000e+00 0.000000e+00 0.000000e+00 9.248394e-05 -2.015151e-06 0.000000e+00 -2.015151e-06 -8.158487e-05 0.000000e+00 0.000000e+00 0.000000e+00 0.000000e+00 8.903209e-05 -1.828513e-06 0.000000e+00 -1.828513e-06 -8.921192e-05 0.000000e+00 0.000000e+00 0.000000e+00 0.000000e+00 9.656098e-05 -2.488706e-06 0.000000e+00 -2.488706e-06 -7.443228e-05 0.000000e+00 0.000000e+00 0.000000e+00 0.000000e+00 1.193888e-04 -3.125421e-06 0.000000e+00 -3.125421e-06 -4.046931e-05 0.000000e+00 0.000000e+00 0.000000e+00 0.000000e+00 1.143363e-04 -3.113640e-06 0.000000e+00 -3.113640e-06 -4.759946e-05 0.000000e+00 0.000000e+00 0.000000e+00 0.000000e+00 1.249094e-04 -3.285426e-06 0.000000e+00 -3.285426e-06 -3.312999e-05 0.000000e+00 0.000000e+00 0.000000e+00 0.000000e+00 1.486496e-04 -4.041660e-06 0.000000e+00 -4.041660e-06 -3.060122e-06 0.000000e+00 0.000000e+00 0.000000e+00 0.000000e+00 1.631187e-04 -5.423797e-06 0.000000e+00 -5.423797e-06 1.359327e-05 0.000000e+00 0.000000e+00 0.000000e+00 0.000000e+00 1.815699e-04 -5.142078e-06 0.000000e+00 -5.142078e-06 3.149039e-05 0.000000e+00 0.000000e+00 0.000000e+00 0.000000e+00 2.347695e-04 -9.626794e-06 0.000000e+00 -9.626794e-06 9.207510e-05 0.000000e+00 0.000000e+00 0.000000e+00 0.000000e+00 2.208550e-04 -8.320789e-06 0.000000e+00 -8.320789e-06 7.813634e-05 0.000000e+00 0.000000e+00 0.000000e+00 0.000000e+00 2.501538e-04 -1.115059e-05 0.000000e+00 -1.115059e-05 1.077149e-04 0.000000e+00 0.000000e+00 0.000000e+00 0.000000e+00 2.888539e-04 -1.550193e-05 0.000000e+00 -1.550193e-05 1.494533e-04 0.000000e+00 0.000000e+00 0.000000e+00 0.000000e+00 2.749680e-04 -1.084193e-04 0.000000e+00 -1.084193e-04 5.033392e-04 0.000000e+00 0.000000e+00 0.000000e+00 0.000000e+00 3.351517e-04 -8.175067e-05 0.000000e+00 -8.175067e-05 3.408676e-04 0.000000e+00 0.000000e+00 0.000000e+00 0.000000e+00 1.280757e-04 8.948222e-06 0.000000e+00 8.948222e-06 -3.898716e-05 0.000000e+00 0.000000e+00 0.000000e+00 0.000000e+00 9.273853e-05 9.428731e-06 0.000000e+00 9.428731e-06 -2.747120e-05 0.000000e+00 0.000000e+00 0.000000e+00 0.000000e+00 6.869528e-05 1.160598e-05 0.000000e+00 1.160598e-05 -2.044016e-05 0.000000e+00 0.000000e+00 0.000000e+00 0.000000e+00 5.295755e-05 1.831314e-05 0.000000e+00 1.831314e-05 -1.710074e-05 0.000000e+00 0.000000e+00 0.000000e+00 0.000000e+00 1.819666e-05 1.108142e-05 0.000000e+00 1.108142e-05 -6.892599e-06 0.000000e+00 0.000000e+00 0.000000e+00 0.000000e+00 -9.755078e-06 -5.229557e-07 0.000000e+00 -5.229557e-07 4.591983e-07 0.000000e+00 0.000000e+00 0.000000e+00 0.000000e+00 -6.073470e-06 -3.613669e-06 0.000000e+00 -3.613669e-06 1.119113e-06 0.000000e+00 0.000000e+00 0.000000e+00 0.000000e+00 1.621805e-06 2.184878e-06 0.000000e+00 2.184878e-06 -5.741073e-06 0.000000e+00 0.000000e+00 0.000000e+00 0.000000e+00 -2.076918e-07 3.693949e-06 0.000000e+00 3.693949e-06 -2.090086e-07 0.000000e+00 0.000000e+00 0.000000e+00 0.000000e+00 -9.167736e-07 -1.240706e-08 0.000000e+00 -1.240706e-08 2.756024e-06 0.000000e+00 0.000000e+00 0.000000e+00 0.000000e+00 -1.920188e-05 1.042579e-05 0.000000e+00 1.042579e-05 5.801593e-06 0.000000e+00 0.000000e+00 0.000000e+00 0.000000e+00 -1.003711e-04 1.613572e-05 0.000000e+00 1.613572e-05 2.817988e-05 0.000000e+00 0.000000e+00 0.000000e+00 0.000000e+00 -1.187256e-04 -4.124230e-07 0.000000e+00 -4.124230e-07 3.368464e-05 0.000000e+00 0.000000e+00 0.000000e+00 0.000000e+00 2.377764e-05 -2.727348e-05 0.000000e+00 -2.727348e-05 -7.041524e-05 0.000000e+00 0.000000e+00 0.000000e+00 0.000000e+00 8.043859e-05 -1.383741e-06 0.000000e+00 -1.383741e-06 -1.118428e-04 0.000000e+00 0.000000e+00 0.000000e+00 0.000000e+00 3.041511e-04 -2.178908e-05 0.000000e+00 -2.178908e-05 1.761267e-04 0.000000e+00 0.000000e+00 0.000000e+00 0.000000e+00 7.980653e-05 1.024350e-05 0.000000e+00 1.024350e-05 -2.362384e-05 0.000000e+00 0.000000e+00 0.000000e+00 0.000000e+00 5.760475e-05 1.310079e-05 0.000000e+00 1.310079e-05 -1.773062e-05 0.000000e+00 0.000000e+00 0.000000e+00 0.000000e+00 -8.471566e-07 -1.320166e-06 0.000000e+00 -1.320166e-06 1.962333e-06 0.000000e+00 0.000000e+00 0.000000e+00 0.000000e+00 6.924549e-05 6.263352e-08 0.000000e+00 6.263352e-08 -1.852205e-04 0.000000e+00 0.000000e+00 0.000000e+00 0.000000e+00 6.956856e-05 4.009381e-07 0.000000e+00 4.009381e-07 -2.071312e-04 0.000000e+00 0.000000e+00 0.000000e+00 0.000000e+00 7.607299e-05 -7.361940e-07 0.000000e+00 -7.361940e-07 -1.285222e-04 0.000000e+00 0.000000e+00 0.000000e+00 0.000000e+00 1.006105e-04 -2.691581e-06 0.000000e+00 -2.691581e-06 -6.772859e-05 0.000000e+00 0.000000e+00 0.000000e+00 0.000000e+00 1.302232e-04 -3.770982e-06 0.000000e+00 -3.770982e-06 -2.613961e-05 0.000000e+00 0.000000e+00 0.000000e+00 0.000000e+00 1.907661e-04 -5.141426e-06 0.000000e+00 -5.141426e-06 4.260377e-05 0.000000e+00 0.000000e+00 0.000000e+00 0.000000e+00 1.720344e-04 -5.617871e-06 0.000000e+00 -5.617871e-06 2.185844e-05 0.000000e+00 0.000000e+00 0.000000e+00 0.000000e+00 2.698055e-04 -1.186519e-05 0.000000e+00 -1.186519e-05 1.267317e-04 0.000000e+00 0.000000e+00 0.000000e+00 0.000000e+00 1.087685e-04 9.289714e-06 0.000000e+00 9.289714e-06 -3.212409e-05 0.000000e+00 0.000000e+00 0.000000e+00 0.000000e+00 3.732282e-05 1.439784e-05 0.000000e+00 1.439784e-05 -1.159517e-05 0.000000e+00 0.000000e+00 0.000000e+00 0.000000e+00 -7.998346e-07 1.371215e-06 0.000000e+00 1.371215e-06 2.559366e-06 0.000000e+00 0.000000e+00 0.000000e+00 0.000000e+00 8.936769e-07 3.671734e-06 0.000000e+00 3.671734e-06 -2.980446e-06 0.000000e+00 0.000000e+00 0.000000e+00 0.000000e+00 -3.552072e-05 1.478509e-05 0.000000e+00 1.478509e-05 1.053811e-05 0.000000e+00 0.000000e+00 0.000000e+00 0.000000e+00 -1.150566e-04 1.043035e-05 0.000000e+00 1.043035e-05 3.144839e-05 0.000000e+00 0.000000e+00 0.000000e+00 0.000000e+00 6.996308e-05 -1.148495e-05 0.000000e+00 -1.148495e-05 -2.200582e-04 0.000000e+00 0.000000e+00 0.000000e+00 0.000000e+00 6.915593e-05 -1.080790e-05 0.000000e+00 -1.080790e-05 -1.965768e-04 0.000000e+00 0.000000e+00 0.000000e+00 0.000000e+00 7.619394e-05 -1.195531e-05 0.000000e+00 -1.195531e-05 -1.285719e-04 0.000000e+00 0.000000e+00 0.000000e+00 0.000000e+00 7.258495e-05 -1.143257e-05 0.000000e+00 -1.143257e-05 -1.458087e-04 0.000000e+00 0.000000e+00 0.000000e+00 0.000000e+00 6.943296e-05 -1.116758e-05 0.000000e+00 -1.116758e-05 -2.084849e-04 0.000000e+00 0.000000e+00 0.000000e+00 0.000000e+00 7.084208e-05 -4.354288e-06 0.000000e+00 -4.354288e-06 -2.024565e-04 0.000000e+00 0.000000e+00 0.000000e+00 0.000000e+00 7.420515e-05 -1.151535e-05 0.000000e+00 -1.151535e-05 -1.367037e-04 0.000000e+00 0.000000e+00 0.000000e+00 0.000000e+00 7.361232e-05 -6.870539e-06 0.000000e+00 -6.870539e-06 -1.413209e-04 0.000000e+00 0.000000e+00 0.000000e+00 0.000000e+00 7.352907e-05 -7.137083e-06 0.000000e+00 -7.137083e-06 -1.323589e-04 0.000000e+00 0.000000e+00 0.000000e+00 0.000000e+00 7.077296e-05 -1.168268e-05 0.000000e+00 -1.168268e-05 -1.543665e-04 0.000000e+00 0.000000e+00 0.000000e+00 0.000000e+00 7.368842e-05 -6.622339e-06 0.000000e+00 -6.622339e-06 -1.506002e-04 0.000000e+00 0.000000e+00 0.000000e+00 0.000000e+00 1.005950e-04 -1.590107e-05 0.000000e+00 -1.590107e-05 -6.773205e-05 0.000000e+00 0.000000e+00 0.000000e+00 0.000000e+00 9.247988e-05 -1.549982e-05 0.000000e+00 -1.549982e-05 -8.195422e-05 0.000000e+00 0.000000e+00 0.000000e+00 0.000000e+00 3.138520e-04 -8.412510e-05 0.000000e+00 -8.412510e-05 1.864983e-04 0.000000e+00 0.000000e+00 0.000000e+00 0.000000e+00 9.589348e-05 -1.567359e-05 0.000000e+00 -1.567359e-05 -7.426378e-05 0.000000e+00 0.000000e+00 0.000000e+00 0.000000e+00 9.481270e-05 -1.098129e-05 0.000000e+00 -1.098129e-05 -7.825350e-05 0.000000e+00 0.000000e+00 0.000000e+00 0.000000e+00 9.805295e-05 -1.175899e-05 0.000000e+00 -1.175899e-05 -7.088635e-05 0.000000e+00 0.000000e+00 0.000000e+00 0.000000e+00 8.949189e-05 -1.483466e-05 0.000000e+00 -1.483466e-05 -8.944432e-05 0.000000e+00 0.000000e+00 0.000000e+00 0.000000e+00 8.925429e-05 -1.059984e-05 0.000000e+00 -1.059984e-05 -8.533573e-05 0.000000e+00 0.000000e+00 0.000000e+00 0.000000e+00 1.188884e-04 -1.909849e-05 0.000000e+00 -1.909849e-05 -4.005213e-05 0.000000e+00 0.000000e+00 0.000000e+00 0.000000e+00 1.301624e-04 -1.942884e-05 0.000000e+00 -1.942884e-05 -2.597625e-05 0.000000e+00 0.000000e+00 0.000000e+00 0.000000e+00 1.244289e-04 -1.931150e-05 0.000000e+00 -1.931150e-05 -3.318784e-05 0.000000e+00 0.000000e+00 0.000000e+00 0.000000e+00 1.212867e-04 -1.481959e-05 0.000000e+00 -1.481959e-05 -3.658789e-05 0.000000e+00 0.000000e+00 0.000000e+00 0.000000e+00 1.279058e-04 -1.468738e-05 0.000000e+00 -1.468738e-05 -2.978461e-05 0.000000e+00 0.000000e+00 0.000000e+00 0.000000e+00 1.140534e-04 -1.841236e-05 0.000000e+00 -1.841236e-05 -4.767914e-05 0.000000e+00 0.000000e+00 0.000000e+00 0.000000e+00 1.143513e-04 -1.394278e-05 0.000000e+00 -1.394278e-05 -4.354117e-05 0.000000e+00 0.000000e+00 0.000000e+00 0.000000e+00 1.493489e-04 -2.368303e-05 0.000000e+00 -2.368303e-05 -1.686994e-06 0.000000e+00 0.000000e+00 0.000000e+00 0.000000e+00 1.865404e-04 -2.990342e-05 0.000000e+00 -2.990342e-05 4.562040e-05 0.000000e+00 0.000000e+00 0.000000e+00 0.000000e+00 1.636209e-04 -2.710531e-05 0.000000e+00 -2.710531e-05 1.553140e-05 0.000000e+00 0.000000e+00 0.000000e+00 0.000000e+00 1.784968e-04 -3.007393e-05 0.000000e+00 -3.007393e-05 3.485716e-05 0.000000e+00 0.000000e+00 0.000000e+00 0.000000e+00 1.839736e-04 -2.317351e-05 0.000000e+00 -2.317351e-05 3.884389e-05 0.000000e+00 0.000000e+00 0.000000e+00 0.000000e+00 2.634629e-04 -6.014940e-05 0.000000e+00 -6.014940e-05 1.348669e-04 0.000000e+00 0.000000e+00 0.000000e+00 0.000000e+00 2.344465e-04 -4.851656e-05 0.000000e+00 -4.851656e-05 9.782518e-05 0.000000e+00 0.000000e+00 0.000000e+00 0.000000e+00 1.706804e-04 -2.895071e-05 0.000000e+00 -2.895071e-05 2.478757e-05 0.000000e+00 0.000000e+00 0.000000e+00 0.000000e+00 1.627707e-04 -2.213351e-05 0.000000e+00 -2.213351e-05 1.980940e-05 0.000000e+00 0.000000e+00 0.000000e+00 0.000000e+00 1.707330e-04 -2.277385e-05 0.000000e+00 -2.277385e-05 2.934152e-05 0.000000e+00 0.000000e+00 0.000000e+00 0.000000e+00 2.487086e-04 -5.497546e-05 0.000000e+00 -5.497546e-05 1.158201e-04 0.000000e+00 0.000000e+00 0.000000e+00 0.000000e+00 2.261110e-04 -4.055242e-05 0.000000e+00 -4.055242e-05 1.071199e-04 0.000000e+00 0.000000e+00 0.000000e+00 0.000000e+00 2.413568e-04 -4.469334e-05 0.000000e+00 -4.469334e-05 1.245515e-04 0.000000e+00 0.000000e+00 0.000000e+00 0.000000e+00 2.226813e-04 -4.222246e-05 0.000000e+00 -4.222246e-05 8.143193e-05 0.000000e+00 0.000000e+00 0.000000e+00 0.000000e+00 2.125290e-04 -3.564453e-05 0.000000e+00 -3.564453e-05 9.098472e-05 0.000000e+00 0.000000e+00 0.000000e+00 0.000000e+00 2.877122e-04 -6.767008e-05 0.000000e+00 -6.767008e-05 1.590427e-04 0.000000e+00 0.000000e+00 0.000000e+00 0.000000e+00 2.626912e-04 -4.780020e-05 0.000000e+00 -4.780020e-05 1.443864e-04 0.000000e+00 0.000000e+00 0.000000e+00 0.000000e+00 2.574876e-04 -6.181015e-05 0.000000e+00 -6.181015e-05 1.777654e-04 0.000000e+00 0.000000e+00 0.000000e+00 0.000000e+00 1.063773e-04 2.771230e-05 0.000000e+00 2.771230e-05 -2.991833e-05 0.000000e+00 0.000000e+00 0.000000e+00 0.000000e+00 2.862809e-04 -1.639594e-04 0.000000e+00 -1.639594e-04 5.354945e-04 0.000000e+00 0.000000e+00 0.000000e+00 0.000000e+00 8.066849e-05 2.455309e-05 0.000000e+00 2.455309e-05 -2.491445e-05 0.000000e+00 0.000000e+00 0.000000e+00 0.000000e+00 1.257280e-04 3.588133e-05 0.000000e+00 3.588133e-05 -2.985625e-05 0.000000e+00 0.000000e+00 0.000000e+00 0.000000e+00 1.230860e-04 3.018762e-05 0.000000e+00 3.018762e-05 -3.612904e-05 0.000000e+00 0.000000e+00 0.000000e+00 0.000000e+00 1.522076e-04 5.659710e-05 0.000000e+00 5.659710e-05 -2.497114e-05 0.000000e+00 0.000000e+00 0.000000e+00 0.000000e+00 1.453374e-04 4.080627e-05 0.000000e+00 4.080627e-05 -4.093066e-05 0.000000e+00 0.000000e+00 0.000000e+00 0.000000e+00 3.470430e-04 -1.761960e-04 0.000000e+00 -1.761960e-04 3.964560e-04 0.000000e+00 0.000000e+00 0.000000e+00 0.000000e+00 1.583295e-04 -9.595259e-05 0.000000e+00 -9.595259e-05 4.996887e-04 0.000000e+00 0.000000e+00 0.000000e+00 0.000000e+00 9.273853e-05 2.546254e-05 0.000000e+00 2.546254e-05 -2.734117e-05 0.000000e+00 0.000000e+00 0.000000e+00 0.000000e+00 8.783028e-05 2.440689e-05 0.000000e+00 2.440689e-05 -2.685268e-05 0.000000e+00 0.000000e+00 0.000000e+00 0.000000e+00 2.203467e-04 -1.873181e-05 0.000000e+00 -1.873181e-05 -1.315629e-04 0.000000e+00 0.000000e+00 0.000000e+00 0.000000e+00 3.146309e-05 3.457035e-05 0.000000e+00 3.457035e-05 -6.502744e-06 0.000000e+00 0.000000e+00 0.000000e+00 0.000000e+00 6.068993e-05 2.547305e-05 0.000000e+00 2.547305e-05 -2.002008e-05 0.000000e+00 0.000000e+00 0.000000e+00 0.000000e+00 4.591596e-05 3.637431e-05 0.000000e+00 3.637431e-05 -6.969007e-06 0.000000e+00 0.000000e+00 0.000000e+00 0.000000e+00 4.280882e-05 3.468640e-05 0.000000e+00 3.468640e-05 -7.248526e-06 0.000000e+00 0.000000e+00 0.000000e+00 0.000000e+00 -2.213852e-06 -1.987746e-06 0.000000e+00 -1.987746e-06 1.755337e-06 0.000000e+00 0.000000e+00 0.000000e+00 0.000000e+00 6.520110e-05 2.503649e-05 0.000000e+00 2.503649e-05 -2.083900e-05 0.000000e+00 0.000000e+00 0.000000e+00 0.000000e+00 1.443108e-05 3.015820e-05 0.000000e+00 3.015820e-05 1.909353e-07 0.000000e+00 0.000000e+00 0.000000e+00 0.000000e+00 -3.294665e-06 3.806642e-06 0.000000e+00 3.806642e-06 2.067964e-06 0.000000e+00 0.000000e+00 0.000000e+00 0.000000e+00 5.198021e-06 3.895742e-06 0.000000e+00 3.895742e-06 -5.938488e-06 0.000000e+00 0.000000e+00 0.000000e+00 0.000000e+00 -9.154169e-06 -4.213741e-06 0.000000e+00 -4.213741e-06 7.955342e-06 0.000000e+00 0.000000e+00 0.000000e+00 0.000000e+00 -4.649512e-06 -7.506412e-06 0.000000e+00 -7.506412e-06 2.292317e-06 0.000000e+00 0.000000e+00 0.000000e+00 0.000000e+00 -2.103937e-06 -4.326080e-06 0.000000e+00 -4.326080e-06 -6.277786e-07 0.000000e+00 0.000000e+00 0.000000e+00 0.000000e+00 6.877188e-05 -1.436241e-05 0.000000e+00 -1.436241e-05 -2.455730e-04 0.000000e+00 0.000000e+00 0.000000e+00 0.000000e+00 4.023543e-06 -4.065959e-06 0.000000e+00 -4.065959e-06 -5.020930e-06 0.000000e+00 0.000000e+00 0.000000e+00 0.000000e+00 6.636149e-06 -2.764150e-07 0.000000e+00 -2.764150e-07 -6.944080e-06 0.000000e+00 0.000000e+00 0.000000e+00 0.000000e+00 2.971080e-06 -3.261080e-06 0.000000e+00 -3.261080e-06 -5.251746e-06 0.000000e+00 0.000000e+00 0.000000e+00 0.000000e+00 3.501444e-06 2.500530e-06 0.000000e+00 2.500530e-06 -6.506816e-06 0.000000e+00 0.000000e+00 0.000000e+00 0.000000e+00 -3.977538e-05 3.542098e-05 0.000000e+00 3.542098e-05 5.392785e-06 0.000000e+00 0.000000e+00 0.000000e+00 0.000000e+00 -3.125273e-06 -3.384697e-08 0.000000e+00 -3.384697e-08 2.804214e-06 0.000000e+00 0.000000e+00 0.000000e+00 0.000000e+00 -7.093373e-07 1.746827e-06 0.000000e+00 1.746827e-06 -1.053948e-06 0.000000e+00 0.000000e+00 0.000000e+00 0.000000e+00 -5.824726e-07 2.324277e-07 0.000000e+00 2.324277e-07 -2.510373e-06 0.000000e+00 0.000000e+00 0.000000e+00 0.000000e+00 1.744797e-06 6.376868e-06 0.000000e+00 6.376868e-06 -2.780715e-06 0.000000e+00 0.000000e+00 0.000000e+00 0.000000e+00 -2.044036e-05 2.619317e-05 0.000000e+00 2.619317e-05 -1.441901e-06 0.000000e+00 0.000000e+00 0.000000e+00 0.000000e+00 -6.030458e-05 4.080498e-05 0.000000e+00 4.080498e-05 1.617455e-05 0.000000e+00 0.000000e+00 0.000000e+00 0.000000e+00 -6.443037e-07 -2.195768e-06 0.000000e+00 -2.195768e-06 7.715929e-07 0.000000e+00 0.000000e+00 0.000000e+00 0.000000e+00 1.456667e-07 -1.139542e-06 0.000000e+00 -1.139542e-06 -3.459896e-06 0.000000e+00 0.000000e+00 0.000000e+00 0.000000e+00 1.519573e-06 -8.428130e-07 0.000000e+00 -8.428130e-07 -4.504987e-06 0.000000e+00 0.000000e+00 0.000000e+00 0.000000e+00 -1.026609e-04 3.573377e-05 0.000000e+00 3.573377e-05 3.997348e-05 0.000000e+00 0.000000e+00 0.000000e+00 0.000000e+00 -1.067243e-04 -3.342222e-05 0.000000e+00 -3.342222e-05 5.523257e-05 0.000000e+00 0.000000e+00 0.000000e+00 0.000000e+00 -6.823294e-06 1.553255e-05 0.000000e+00 1.553255e-05 -6.303322e-06 0.000000e+00 0.000000e+00 0.000000e+00 0.000000e+00 -1.072412e-05 2.063410e-05 0.000000e+00 2.063410e-05 1.731299e-06 0.000000e+00 0.000000e+00 0.000000e+00 0.000000e+00 -8.251708e-05 4.225254e-05 0.000000e+00 4.225254e-05 2.879541e-05 0.000000e+00 0.000000e+00 0.000000e+00 0.000000e+00 -5.194508e-05 4.321416e-05 0.000000e+00 4.321416e-05 1.469553e-05 0.000000e+00 0.000000e+00 0.000000e+00 0.000000e+00 -6.634555e-05 4.079013e-05 0.000000e+00 4.079013e-05 2.036432e-05 0.000000e+00 0.000000e+00 0.000000e+00 0.000000e+00 -7.528018e-05 -5.867688e-05 0.000000e+00 -5.867688e-05 3.373176e-05 0.000000e+00 0.000000e+00 0.000000e+00 0.000000e+00 1.508955e-05 -6.411542e-05 0.000000e+00 -6.411542e-05 -6.955476e-05 0.000000e+00 0.000000e+00 0.000000e+00 0.000000e+00 -2.908057e-05 -5.870122e-05 0.000000e+00 -5.870122e-05 3.671468e-06 0.000000e+00 0.000000e+00 0.000000e+00 0.000000e+00 6.349081e-06 -2.937179e-05 0.000000e+00 -2.937179e-05 -4.171287e-05 0.000000e+00 0.000000e+00 0.000000e+00 0.000000e+00 7.000771e-05 -1.229425e-05 0.000000e+00 -1.229425e-05 -2.329147e-04 0.000000e+00 0.000000e+00 0.000000e+00 0.000000e+00 7.304272e-05 -6.865339e-06 0.000000e+00 -6.865339e-06 -2.386403e-04 0.000000e+00 0.000000e+00 0.000000e+00 0.000000e+00 7.122573e-05 -4.693132e-06 0.000000e+00 -4.693132e-06 -2.256451e-04 0.000000e+00 0.000000e+00 0.000000e+00 0.000000e+00 1.561790e-04 -2.527942e-05 0.000000e+00 -2.527942e-05 7.214577e-06 0.000000e+00 0.000000e+00 0.000000e+00 0.000000e+00 1.496755e-04 -1.877581e-05 0.000000e+00 -1.877581e-05 2.458281e-06 0.000000e+00 0.000000e+00 0.000000e+00 0.000000e+00 1.561022e-04 -2.052465e-05 0.000000e+00 -2.052465e-05 1.114821e-05 0.000000e+00 0.000000e+00 0.000000e+00 0.000000e+00 1.127068e-04 7.853545e-05 0.000000e+00 7.853545e-05 8.579391e-04 0.000000e+00 0.000000e+00 0.000000e+00 0.000000e+00 1.379741e-07 5.917653e-06 0.000000e+00 5.917653e-06 -7.864607e-06 0.000000e+00 0.000000e+00 0.000000e+00 0.000000e+00 -4.290699e-07 1.605673e-06 0.000000e+00 1.605673e-06 -3.839203e-07 0.000000e+00 0.000000e+00 0.000000e+00 0.000000e+00 -3.986638e-06 1.081748e-05 0.000000e+00 1.081748e-05 -3.611967e-07 0.000000e+00 0.000000e+00 0.000000e+00 0.000000e+00 3.058873e-05 -2.134427e-05 0.000000e+00 -2.134427e-05 -1.296444e-04 0.000000e+00 0.000000e+00 0.000000e+00 0.000000e+00 5.260423e-06 6.193393e-06 0.000000e+00 6.193393e-06 -6.890492e-06 0.000000e+00 0.000000e+00 0.000000e+00 0.000000e+00 8.080143e-05 -1.261681e-05 0.000000e+00 -1.261681e-05 -1.123267e-04 0.000000e+00 0.000000e+00 0.000000e+00 0.000000e+00 8.944200e-06 -4.340412e-06 0.000000e+00 -4.340412e-06 -4.562222e-06 0.000000e+00 0.000000e+00 0.000000e+00 0.000000e+00 4.336323e-06 -5.798330e-06 0.000000e+00 -5.798330e-06 9.566697e-07 0.000000e+00 0.000000e+00 0.000000e+00 0.000000e+00 -1.318150e-06 -9.127570e-07 0.000000e+00 -9.127570e-07 5.997107e-06 0.000000e+00 0.000000e+00 0.000000e+00 0.000000e+00 -2.647513e-06 6.597588e-06 0.000000e+00 6.597588e-06 6.713039e-06 0.000000e+00 0.000000e+00 0.000000e+00 0.000000e+00 3.962303e-06 3.398297e-05 0.000000e+00 3.398297e-05 5.304804e-06 0.000000e+00 0.000000e+00 0.000000e+00 0.000000e+00 1.329895e-05 4.701806e-05 0.000000e+00 4.701806e-05 1.936133e-06 0.000000e+00 0.000000e+00 0.000000e+00 0.000000e+00 2.446043e-05 5.927262e-05 0.000000e+00 5.927262e-05 -3.287912e-06 0.000000e+00 0.000000e+00 0.000000e+00 0.000000e+00 3.561036e-05 6.739998e-05 0.000000e+00 6.739998e-05 -1.083656e-05 0.000000e+00 0.000000e+00 0.000000e+00 0.000000e+00 1.437509e-05 6.690991e-05 0.000000e+00 6.690991e-05 -4.510200e-06 0.000000e+00 0.000000e+00 0.000000e+00 0.000000e+00 -1.299071e-05 7.230086e-05 0.000000e+00 7.230086e-05 3.706489e-06 0.000000e+00 0.000000e+00 0.000000e+00 0.000000e+00 -1.611798e-05 7.431338e-05 0.000000e+00 7.431338e-05 8.170382e-07 0.000000e+00 0.000000e+00 0.000000e+00 0.000000e+00 -1.120357e-05 7.138304e-05 0.000000e+00 7.138304e-05 -6.426530e-06 0.000000e+00 0.000000e+00 0.000000e+00 0.000000e+00 -3.564387e-06 6.193483e-05 0.000000e+00 6.193483e-05 -1.353348e-05 0.000000e+00 0.000000e+00 0.000000e+00 0.000000e+00 8.172813e-06 3.515275e-05 0.000000e+00 3.515275e-05 -2.278387e-05 0.000000e+00 0.000000e+00 0.000000e+00 0.000000e+00 9.336009e-06 2.050962e-05 0.000000e+00 2.050962e-05 -2.240720e-05 0.000000e+00 0.000000e+00 0.000000e+00 0.000000e+00 6.181478e-06 8.919823e-06 0.000000e+00 8.919823e-06 -1.798275e-05 0.000000e+00 0.000000e+00 0.000000e+00 0.000000e+00 -2.373972e-06 3.879655e-06 0.000000e+00 3.879655e-06 -6.294300e-06 0.000000e+00 0.000000e+00 0.000000e+00 0.000000e+00 -2.779445e-06 6.650965e-06 0.000000e+00 6.650965e-06 -3.481975e-06 0.000000e+00 0.000000e+00 0.000000e+00 0.000000e+00 3.835148e-04 1.779657e-04 0.000000e+00 1.779657e-04 -1.743077e-04 0.000000e+00 0.000000e+00 0.000000e+00 0.000000e+00 2.157922e-04 1.222393e-04 0.000000e+00 1.222393e-04 -7.811126e-06 0.000000e+00 0.000000e+00 0.000000e+00 0.000000e+00 1.719609e-04 7.337757e-05 0.000000e+00 7.337757e-05 -4.868180e-05 0.000000e+00 0.000000e+00 0.000000e+00 0.000000e+00 5.095520e-07 -5.922989e-06 0.000000e+00 -5.922989e-06 -2.335281e-06 0.000000e+00 0.000000e+00 0.000000e+00 0.000000e+00 3.805653e-05 -5.292247e-05 0.000000e+00 -5.292247e-05 -9.723673e-05 0.000000e+00 0.000000e+00 0.000000e+00 0.000000e+00 2.109216e-04 2.348270e-04 0.000000e+00 2.348270e-04 1.163944e-04 0.000000e+00 0.000000e+00 0.000000e+00 0.000000e+00 6.282680e-05 -2.778541e-05 0.000000e+00 -2.778541e-05 -2.751448e-04 0.000000e+00 0.000000e+00 0.000000e+00 0.000000e+00 3.166235e-05 3.553781e-05 0.000000e+00 3.553781e-05 -4.992015e-06 0.000000e+00 0.000000e+00 0.000000e+00 0.000000e+00 7.089994e-05 -4.516235e-06 0.000000e+00 -4.516235e-06 -2.135450e-04 0.000000e+00 0.000000e+00 0.000000e+00 0.000000e+00 7.010768e-05 -1.144274e-05 0.000000e+00 -1.144274e-05 -1.747904e-04 0.000000e+00 0.000000e+00 0.000000e+00 0.000000e+00 1.006038e-04 -1.205368e-05 0.000000e+00 -1.205368e-05 -6.377253e-05 0.000000e+00 0.000000e+00 0.000000e+00 0.000000e+00 1.050307e-04 -1.668382e-05 0.000000e+00 -1.668382e-05 -6.080017e-05 0.000000e+00 0.000000e+00 0.000000e+00 0.000000e+00 7.803463e-05 -1.237179e-05 0.000000e+00 -1.237179e-05 -1.194173e-04 0.000000e+00 0.000000e+00 0.000000e+00 0.000000e+00 1.427769e-06 -6.501699e-06 0.000000e+00 -6.501699e-06 -2.128729e-06 0.000000e+00 0.000000e+00 0.000000e+00 0.000000e+00 1.305962e-04 -1.554311e-05 0.000000e+00 -1.554311e-05 -2.199010e-05 0.000000e+00 0.000000e+00 0.000000e+00 0.000000e+00 1.362389e-04 -2.050973e-05 0.000000e+00 -2.050973e-05 -1.838303e-05 0.000000e+00 0.000000e+00 0.000000e+00 0.000000e+00 7.694244e-05 -7.135366e-06 0.000000e+00 -7.135366e-06 -1.241655e-04 0.000000e+00 0.000000e+00 0.000000e+00 0.000000e+00 1.949104e-04 -2.391390e-05 0.000000e+00 -2.391390e-05 4.860720e-05 0.000000e+00 0.000000e+00 0.000000e+00 0.000000e+00 1.989851e-04 -3.076486e-05 0.000000e+00 -3.076486e-05 5.542775e-05 0.000000e+00 0.000000e+00 0.000000e+00 0.000000e+00 8.035232e-05 1.758510e-04 0.000000e+00 1.758510e-04 5.653035e-04 0.000000e+00 0.000000e+00 0.000000e+00 0.000000e+00 1.032816e-04 2.601632e-05 0.000000e+00 2.601632e-05 -3.082319e-05 0.000000e+00 0.000000e+00 0.000000e+00 0.000000e+00 5.867268e-05 9.159932e-06 0.000000e+00 9.159932e-06 7.358359e-04 0.000000e+00 0.000000e+00 0.000000e+00 0.000000e+00 7.713748e-05 2.421629e-05 0.000000e+00 2.421629e-05 -2.438614e-05 0.000000e+00 0.000000e+00 0.000000e+00 0.000000e+00 7.023933e-05 2.487935e-05 0.000000e+00 2.487935e-05 -2.290227e-05 0.000000e+00 0.000000e+00 0.000000e+00 0.000000e+00 2.217661e-04 1.642773e-04 0.000000e+00 1.642773e-04 -3.697424e-05 0.000000e+00 0.000000e+00 0.000000e+00 0.000000e+00 2.592498e-04 -7.645465e-05 0.000000e+00 -7.645465e-05 2.159723e-04 0.000000e+00 0.000000e+00 0.000000e+00 0.000000e+00 3.331735e-04 -1.101019e-04 0.000000e+00 -1.101019e-04 2.311657e-04 0.000000e+00 0.000000e+00 0.000000e+00 0.000000e+00 6.938579e-05 2.446773e-05 0.000000e+00 2.446773e-05 -2.309799e-05 0.000000e+00 0.000000e+00 0.000000e+00 0.000000e+00 5.310974e-05 2.988756e-05 0.000000e+00 2.988756e-05 -5.768693e-06 0.000000e+00 0.000000e+00 0.000000e+00 0.000000e+00 -7.769780e-05 3.284736e-05 0.000000e+00 3.284736e-05 2.450631e-05 0.000000e+00 0.000000e+00 0.000000e+00 0.000000e+00 -1.167576e-04 2.097182e-05 0.000000e+00 2.097182e-05 5.142113e-05 0.000000e+00 0.000000e+00 0.000000e+00 0.000000e+00 6.586684e-05 2.677638e-05 0.000000e+00 2.677638e-05 -1.653986e-05 0.000000e+00 0.000000e+00 0.000000e+00 0.000000e+00 5.634974e-05 2.869814e-05 0.000000e+00 2.869814e-05 -1.487229e-05 0.000000e+00 0.000000e+00 0.000000e+00 0.000000e+00 1.357887e-05 3.043348e-05 0.000000e+00 3.043348e-05 1.472227e-06 0.000000e+00 0.000000e+00 0.000000e+00 0.000000e+00 -2.091641e-05 3.055561e-05 0.000000e+00 3.055561e-05 5.644939e-06 0.000000e+00 0.000000e+00 0.000000e+00 0.000000e+00 -1.026767e-05 4.167346e-06 0.000000e+00 4.167346e-06 1.229652e-05 0.000000e+00 0.000000e+00 0.000000e+00 0.000000e+00 -3.714897e-06 -1.462569e-07 0.000000e+00 -1.462569e-07 1.361189e-06 0.000000e+00 0.000000e+00 0.000000e+00 0.000000e+00 -1.164616e-06 -6.534491e-06 0.000000e+00 -6.534491e-06 1.919680e-07 0.000000e+00 0.000000e+00 0.000000e+00 0.000000e+00 4.134722e-05 -4.597610e-05 0.000000e+00 -4.597610e-05 -1.440741e-04 0.000000e+00 0.000000e+00 0.000000e+00 0.000000e+00 2.524985e-05 -6.427706e-05 0.000000e+00 -6.427706e-05 -1.021853e-04 0.000000e+00 0.000000e+00 0.000000e+00 0.000000e+00 -3.396176e-05 4.095566e-05 0.000000e+00 4.095566e-05 1.065802e-05 0.000000e+00 0.000000e+00 0.000000e+00 0.000000e+00 6.952712e-05 -1.088817e-05 0.000000e+00 -1.088817e-05 -1.854757e-04 0.000000e+00 0.000000e+00 0.000000e+00 0.000000e+00 -8.658126e-05 -3.825312e-05 0.000000e+00 -3.825312e-05 4.182824e-05 0.000000e+00 0.000000e+00 0.000000e+00 0.000000e+00 1.966339e-04 2.154718e-04 0.000000e+00 2.154718e-04 1.266795e-04 0.000000e+00 0.000000e+00 0.000000e+00 0.000000e+00 6.972777e-05 -4.821860e-06 0.000000e+00 -4.821860e-06 -1.908071e-04 0.000000e+00 0.000000e+00 0.000000e+00 0.000000e+00 1.663452e-05 -6.732991e-05 0.000000e+00 -6.732991e-05 -6.365176e-05 0.000000e+00 0.000000e+00 0.000000e+00 0.000000e+00 6.816816e-05 -5.163781e-06 0.000000e+00 -5.163781e-06 -1.797225e-04 0.000000e+00 0.000000e+00 0.000000e+00 0.000000e+00 -4.805455e-05 -6.148834e-05 0.000000e+00 -6.148834e-05 8.443405e-06 0.000000e+00 0.000000e+00 0.000000e+00 0.000000e+00 -5.055102e-06 -5.201456e-05 0.000000e+00 -5.201456e-05 -1.535621e-05 0.000000e+00 0.000000e+00 0.000000e+00 0.000000e+00 5.268021e-05 -3.232371e-05 0.000000e+00 -3.232371e-05 -1.483826e-04 0.000000e+00 0.000000e+00 0.000000e+00 0.000000e+00 2.314344e-06 9.030190e-06 0.000000e+00 9.030190e-06 -5.178952e-06 0.000000e+00 0.000000e+00 0.000000e+00 0.000000e+00 8.098916e-05 -8.205141e-06 0.000000e+00 -8.205141e-06 -1.079973e-04 0.000000e+00 0.000000e+00 0.000000e+00 0.000000e+00 8.325440e-05 -1.309954e-05 0.000000e+00 -1.309954e-05 -1.037788e-04 0.000000e+00 0.000000e+00 0.000000e+00 0.000000e+00 -2.512311e-06 5.685715e-06 0.000000e+00 5.685715e-06 -2.135277e-06 0.000000e+00 0.000000e+00 0.000000e+00 0.000000e+00 -9.625187e-07 8.911853e-06 0.000000e+00 8.911853e-06 -3.393920e-06 0.000000e+00 0.000000e+00 0.000000e+00 0.000000e+00 -4.063350e-06 2.359252e-06 0.000000e+00 2.359252e-06 -4.365008e-06 0.000000e+00 0.000000e+00 0.000000e+00 0.000000e+00 2.271072e-06 2.945208e-06 0.000000e+00 2.945208e-06 -1.961456e-05 0.000000e+00 0.000000e+00 0.000000e+00 0.000000e+00 7.239822e-07 3.061986e-06 0.000000e+00 3.061986e-06 -1.154977e-05 0.000000e+00 0.000000e+00 0.000000e+00 0.000000e+00 5.240963e-06 1.311865e-05 0.000000e+00 1.311865e-05 -2.755476e-05 0.000000e+00 0.000000e+00 0.000000e+00 0.000000e+00 4.405707e-06 2.706026e-05 0.000000e+00 2.706026e-05 -3.035791e-05 0.000000e+00 0.000000e+00 0.000000e+00 0.000000e+00 -9.351541e-06 5.513779e-05 0.000000e+00 5.513779e-05 -2.143462e-05 0.000000e+00 0.000000e+00 0.000000e+00 0.000000e+00 3.061498e-06 4.874005e-05 0.000000e+00 4.874005e-05 -1.861834e-05 0.000000e+00 0.000000e+00 0.000000e+00 0.000000e+00 -1.530015e-05 6.522551e-05 0.000000e+00 6.522551e-05 -1.400016e-05 0.000000e+00 0.000000e+00 0.000000e+00 0.000000e+00 -1.540382e-05 6.199638e-05 0.000000e+00 6.199638e-05 -2.375510e-06 0.000000e+00 0.000000e+00 0.000000e+00 0.000000e+00 -1.674098e-05 7.184810e-05 0.000000e+00 7.184810e-05 -6.213265e-06 0.000000e+00 0.000000e+00 0.000000e+00 0.000000e+00 -1.344356e-05 7.507262e-05 0.000000e+00 7.507262e-05 9.717855e-07 0.000000e+00 0.000000e+00 0.000000e+00 0.000000e+00 6.515389e-06 7.323840e-05 0.000000e+00 7.323840e-05 4.595915e-07 0.000000e+00 0.000000e+00 0.000000e+00 0.000000e+00 -1.308740e-06 6.875873e-05 0.000000e+00 6.875873e-05 9.475944e-07 0.000000e+00 0.000000e+00 0.000000e+00 0.000000e+00 2.818228e-05 6.792677e-05 0.000000e+00 6.792677e-05 -7.846053e-06 0.000000e+00 0.000000e+00 0.000000e+00 0.000000e+00 2.777552e-05 6.707812e-05 0.000000e+00 6.707812e-05 -9.128162e-06 0.000000e+00 0.000000e+00 0.000000e+00 0.000000e+00 3.563329e-05 5.956664e-05 0.000000e+00 5.956664e-05 -3.411893e-06 0.000000e+00 0.000000e+00 0.000000e+00 0.000000e+00 3.353546e-05 6.511728e-05 0.000000e+00 6.511728e-05 -8.510752e-06 0.000000e+00 0.000000e+00 0.000000e+00 0.000000e+00 2.850593e-05 5.307336e-05 0.000000e+00 5.307336e-05 3.194162e-06 0.000000e+00 0.000000e+00 0.000000e+00 0.000000e+00 1.446451e-05 4.230887e-05 0.000000e+00 4.230887e-05 1.059368e-05 0.000000e+00 0.000000e+00 0.000000e+00 0.000000e+00 -3.235432e-06 1.381468e-05 0.000000e+00 1.381468e-05 1.739957e-05 0.000000e+00 0.000000e+00 0.000000e+00 0.000000e+00 -2.575132e-06 7.944924e-06 0.000000e+00 7.944924e-06 8.141220e-07 0.000000e+00 0.000000e+00 0.000000e+00 0.000000e+00 -2.291086e-06 1.911975e-05 0.000000e+00 1.911975e-05 8.987805e-06 0.000000e+00 0.000000e+00 0.000000e+00 0.000000e+00 -4.214358e-06 -4.081686e-07 0.000000e+00 -4.081686e-07 1.369138e-05 0.000000e+00 0.000000e+00 0.000000e+00 0.000000e+00 5.693460e-06 -8.285390e-06 0.000000e+00 -8.285390e-06 7.500606e-07 0.000000e+00 0.000000e+00 0.000000e+00 0.000000e+00 -2.357720e-05 -6.039306e-05 0.000000e+00 -6.039306e-05 -1.855097e-05 0.000000e+00 0.000000e+00 0.000000e+00 0.000000e+00 8.653741e-06 1.918221e-06 0.000000e+00 1.918221e-06 -6.501709e-06 0.000000e+00 0.000000e+00 0.000000e+00 0.000000e+00 7.924431e-05 -8.513162e-06 0.000000e+00 -8.513162e-06 -1.159129e-04 0.000000e+00 0.000000e+00 0.000000e+00 0.000000e+00 4.712476e-06 2.860323e-05 0.000000e+00 2.860323e-05 1.563414e-05 0.000000e+00 0.000000e+00 0.000000e+00 0.000000e+00 3.452732e-05 6.378764e-05 0.000000e+00 6.378764e-05 -7.560147e-06 0.000000e+00 0.000000e+00 0.000000e+00 0.000000e+00 1.839707e-05 7.061618e-05 0.000000e+00 7.061618e-05 -4.466989e-06 0.000000e+00 0.000000e+00 0.000000e+00 0.000000e+00 -5.165957e-06 7.502084e-05 0.000000e+00 7.502084e-05 3.153445e-06 0.000000e+00 0.000000e+00 0.000000e+00 0.000000e+00 -1.744286e-06 4.176530e-05 0.000000e+00 4.176530e-05 -2.711832e-05 0.000000e+00 0.000000e+00 0.000000e+00 0.000000e+00 -2.139779e-06 -3.129678e-07 0.000000e+00 -3.129678e-07 -9.367817e-06 0.000000e+00 0.000000e+00 0.000000e+00 0.000000e+00 8.405625e-06 1.264912e-06 0.000000e+00 1.264912e-06 -7.317567e-06 0.000000e+00 0.000000e+00 0.000000e+00 0.000000e+00 6.626342e-05 -1.837606e-05 0.000000e+00 -1.837606e-05 -2.590353e-04 0.000000e+00 0.000000e+00 0.000000e+00 0.000000e+00 8.223476e-05 -1.459583e-05 0.000000e+00 -1.459583e-05 -2.680511e-04 0.000000e+00 0.000000e+00 0.000000e+00 0.000000e+00 7.550735e-05 -9.448631e-06 0.000000e+00 -9.448631e-06 -2.522443e-04 0.000000e+00 0.000000e+00 0.000000e+00 0.000000e+00 6.982121e-05 -1.178294e-05 0.000000e+00 -1.178294e-05 -1.640410e-04 0.000000e+00 0.000000e+00 0.000000e+00 0.000000e+00 6.977857e-05 -5.624194e-06 0.000000e+00 -5.624194e-06 -1.695186e-04 0.000000e+00 0.000000e+00 0.000000e+00 0.000000e+00 7.141915e-05 -6.129096e-06 0.000000e+00 -6.129096e-06 -1.596620e-04 0.000000e+00 0.000000e+00 0.000000e+00 0.000000e+00 8.631521e-05 -1.390435e-05 0.000000e+00 -1.390435e-05 -9.645643e-05 0.000000e+00 0.000000e+00 0.000000e+00 0.000000e+00 8.359570e-05 -9.498035e-06 0.000000e+00 -9.498035e-06 -9.993935e-05 0.000000e+00 0.000000e+00 0.000000e+00 0.000000e+00 8.471555e-05 -1.010664e-05 0.000000e+00 -1.010664e-05 -9.218365e-05 0.000000e+00 0.000000e+00 0.000000e+00 0.000000e+00 1.096673e-04 -1.768070e-05 0.000000e+00 -1.768070e-05 -5.429247e-05 0.000000e+00 0.000000e+00 0.000000e+00 0.000000e+00 1.045949e-04 -1.310129e-05 0.000000e+00 -1.310129e-05 -5.708379e-05 0.000000e+00 0.000000e+00 0.000000e+00 0.000000e+00 1.096514e-04 -1.367753e-05 0.000000e+00 -1.367753e-05 -5.057985e-05 0.000000e+00 0.000000e+00 0.000000e+00 0.000000e+00 1.430039e-04 -2.198854e-05 0.000000e+00 -2.198854e-05 -1.089911e-05 0.000000e+00 0.000000e+00 0.000000e+00 0.000000e+00 1.347296e-04 -1.643843e-05 0.000000e+00 -1.643843e-05 -1.404169e-05 0.000000e+00 0.000000e+00 0.000000e+00 0.000000e+00 1.417526e-04 -1.734570e-05 0.000000e+00 -1.734570e-05 -5.767184e-06 0.000000e+00 0.000000e+00 0.000000e+00 0.000000e+00 2.133083e-04 -3.546516e-05 0.000000e+00 -3.546516e-05 6.602052e-05 0.000000e+00 0.000000e+00 0.000000e+00 0.000000e+00 1.920776e-04 -2.697544e-05 0.000000e+00 -2.697544e-05 6.264657e-05 0.000000e+00 0.000000e+00 0.000000e+00 0.000000e+00 2.011546e-04 -3.106449e-05 0.000000e+00 -3.106449e-05 7.623498e-05 0.000000e+00 0.000000e+00 0.000000e+00 0.000000e+00 3.512680e-04 -1.430163e-04 0.000000e+00 -1.430163e-04 2.969016e-04 0.000000e+00 0.000000e+00 0.000000e+00 0.000000e+00 2.527240e-04 -9.442595e-05 0.000000e+00 -9.442595e-05 2.733749e-04 0.000000e+00 0.000000e+00 0.000000e+00 0.000000e+00 2.206776e-04 -1.093653e-04 0.000000e+00 -1.093653e-04 3.616596e-04 0.000000e+00 0.000000e+00 0.000000e+00 0.000000e+00 -8.196712e-07 1.856229e-05 0.000000e+00 1.856229e-05 9.681757e-06 0.000000e+00 0.000000e+00 0.000000e+00 0.000000e+00 -1.392862e-06 5.633610e-06 0.000000e+00 5.633610e-06 4.362369e-07 0.000000e+00 0.000000e+00 0.000000e+00 0.000000e+00 -1.175506e-04 -6.561540e-06 0.000000e+00 -6.561540e-06 5.708239e-05 0.000000e+00 0.000000e+00 0.000000e+00 0.000000e+00 4.354850e-05 -3.688494e-05 0.000000e+00 -3.688494e-05 -1.395860e-04 0.000000e+00 0.000000e+00 0.000000e+00 0.000000e+00 2.893012e-05 -4.496714e-06 0.000000e+00 -4.496714e-06 -1.755760e-04 0.000000e+00 0.000000e+00 0.000000e+00 0.000000e+00 4.148933e-05 -4.906673e-05 0.000000e+00 -4.906673e-05 -1.481213e-04 0.000000e+00 0.000000e+00 0.000000e+00 0.000000e+00 9.472076e-05 1.406408e-04 0.000000e+00 1.406408e-04 4.764176e-04 0.000000e+00 0.000000e+00 0.000000e+00 0.000000e+00 -8.674742e-05 1.972195e-05 0.000000e+00 1.972195e-05 3.027862e-05 0.000000e+00 0.000000e+00 0.000000e+00 0.000000e+00 5.890350e-07 7.837170e-06 0.000000e+00 7.837170e-06 -2.926441e-06 0.000000e+00 0.000000e+00 0.000000e+00 0.000000e+00 1.027962e-06 -6.138204e-05 0.000000e+00 -6.138204e-05 -4.248675e-05 0.000000e+00 0.000000e+00 0.000000e+00 0.000000e+00 5.308278e-05 -5.082381e-05 0.000000e+00 -5.082381e-05 -1.537138e-04 0.000000e+00 0.000000e+00 0.000000e+00 0.000000e+00 7.887508e-06 -4.671210e-06 0.000000e+00 -4.671210e-06 -4.656959e-06 0.000000e+00 0.000000e+00 0.000000e+00 0.000000e+00 3.760824e-05 -6.755196e-05 0.000000e+00 -6.755196e-05 -1.109537e-04 0.000000e+00 0.000000e+00 0.000000e+00 0.000000e+00 4.078372e-05 -6.261508e-05 0.000000e+00 -6.261508e-05 -1.254166e-04 0.000000e+00 0.000000e+00 0.000000e+00 0.000000e+00 5.838300e-05 -5.703480e-05 0.000000e+00 -5.703480e-05 -1.604903e-04 0.000000e+00 0.000000e+00 0.000000e+00 0.000000e+00 4.117047e-05 -3.612804e-05 0.000000e+00 -3.612804e-05 -1.617472e-04 0.000000e+00 0.000000e+00 0.000000e+00 0.000000e+00 2.393391e-05 4.767023e-05 0.000000e+00 4.767023e-05 -3.009397e-06 0.000000e+00 0.000000e+00 0.000000e+00 0.000000e+00 7.124143e-05 -1.619378e-05 0.000000e+00 -1.619378e-05 -2.153658e-04 0.000000e+00 0.000000e+00 0.000000e+00 0.000000e+00 9.049326e-05 -2.522766e-05 0.000000e+00 -2.522766e-05 -8.539737e-05 0.000000e+00 0.000000e+00 0.000000e+00 0.000000e+00 2.305652e-06 -7.374961e-06 0.000000e+00 -7.374961e-06 -1.773201e-06 0.000000e+00 0.000000e+00 0.000000e+00 0.000000e+00 2.153789e-04 -6.962396e-05 0.000000e+00 -6.962396e-05 9.621492e-05 0.000000e+00 0.000000e+00 0.000000e+00 0.000000e+00 1.145909e-04 -3.129997e-05 0.000000e+00 -3.129997e-05 -4.247533e-05 0.000000e+00 0.000000e+00 0.000000e+00 0.000000e+00 -8.689324e-05 1.856897e-05 0.000000e+00 1.856897e-05 5.992191e-05 0.000000e+00 0.000000e+00 0.000000e+00 0.000000e+00 1.732437e-04 -4.946354e-05 0.000000e+00 -4.946354e-05 4.903529e-05 0.000000e+00 0.000000e+00 0.000000e+00 0.000000e+00 1.019520e-04 4.720733e-05 0.000000e+00 4.720733e-05 -2.390811e-05 0.000000e+00 0.000000e+00 0.000000e+00 0.000000e+00 7.590697e-05 -2.079590e-05 0.000000e+00 -2.079590e-05 -1.225283e-04 0.000000e+00 0.000000e+00 0.000000e+00 0.000000e+00 1.180175e-04 5.900385e-05 0.000000e+00 5.900385e-05 -2.040436e-05 0.000000e+00 0.000000e+00 0.000000e+00 0.000000e+00 1.008558e-04 4.938923e-05 0.000000e+00 4.938923e-05 -2.578862e-05 0.000000e+00 0.000000e+00 0.000000e+00 0.000000e+00 4.458766e-05 3.739925e-05 0.000000e+00 3.739925e-05 -8.956358e-06 0.000000e+00 0.000000e+00 0.000000e+00 0.000000e+00 7.951563e-05 3.609480e-05 0.000000e+00 3.609480e-05 -2.374843e-05 0.000000e+00 0.000000e+00 0.000000e+00 0.000000e+00 5.047815e-05 6.391043e-05 0.000000e+00 6.391043e-05 4.768675e-04 0.000000e+00 0.000000e+00 0.000000e+00 0.000000e+00 7.187695e-05 3.222600e-05 0.000000e+00 3.222600e-05 -2.165942e-05 0.000000e+00 0.000000e+00 0.000000e+00 0.000000e+00 6.999621e-05 3.434058e-05 0.000000e+00 3.434058e-05 -2.377774e-05 0.000000e+00 0.000000e+00 0.000000e+00 0.000000e+00 6.280621e-05 3.105255e-05 0.000000e+00 3.105255e-05 -2.152241e-05 0.000000e+00 0.000000e+00 0.000000e+00 0.000000e+00 1.406754e-04 8.193327e-05 0.000000e+00 8.193327e-05 -9.067076e-06 0.000000e+00 0.000000e+00 0.000000e+00 0.000000e+00 1.151314e-04 6.250749e-05 0.000000e+00 6.250749e-05 -2.300843e-05 0.000000e+00 0.000000e+00 0.000000e+00 0.000000e+00 1.605149e-04 -1.002343e-04 0.000000e+00 -1.002343e-04 4.530529e-04 0.000000e+00 0.000000e+00 0.000000e+00 0.000000e+00 3.759862e-05 -4.979552e-06 0.000000e+00 -4.979552e-06 5.649019e-04 0.000000e+00 0.000000e+00 0.000000e+00 0.000000e+00 8.921990e-05 4.058249e-05 0.000000e+00 4.058249e-05 -2.392809e-05 0.000000e+00 0.000000e+00 0.000000e+00 0.000000e+00 7.782177e-05 3.726340e-05 0.000000e+00 3.726340e-05 -2.455239e-05 0.000000e+00 0.000000e+00 0.000000e+00 0.000000e+00 3.156459e-04 2.641863e-04 0.000000e+00 2.641863e-04 1.618093e-04 0.000000e+00 0.000000e+00 0.000000e+00 0.000000e+00 1.167684e-04 2.520292e-04 0.000000e+00 2.520292e-04 2.799714e-04 0.000000e+00 0.000000e+00 0.000000e+00 0.000000e+00 -8.652909e-05 -3.627657e-05 0.000000e+00 -3.627657e-05 7.320841e-05 0.000000e+00 0.000000e+00 0.000000e+00 0.000000e+00 -2.437859e-05 4.196334e-05 0.000000e+00 4.196334e-05 -4.394498e-06 0.000000e+00 0.000000e+00 0.000000e+00 0.000000e+00 -7.967031e-05 3.975256e-05 0.000000e+00 3.975256e-05 4.460576e-05 0.000000e+00 0.000000e+00 0.000000e+00 0.000000e+00 2.972594e-05 -8.424426e-05 0.000000e+00 -8.424426e-05 -7.381215e-05 0.000000e+00 0.000000e+00 0.000000e+00 0.000000e+00 3.839560e-05 1.581750e-04 0.000000e+00 1.581750e-04 5.328970e-04 0.000000e+00 0.000000e+00 0.000000e+00 0.000000e+00 7.093544e-05 -1.728656e-05 0.000000e+00 -1.728656e-05 -1.800564e-04 0.000000e+00 0.000000e+00 0.000000e+00 0.000000e+00 -3.884222e-05 5.082761e-05 0.000000e+00 5.082761e-05 3.756692e-06 0.000000e+00 0.000000e+00 0.000000e+00 0.000000e+00 7.149693e-06 -3.986210e-06 0.000000e+00 -3.986210e-06 -5.288175e-06 0.000000e+00 0.000000e+00 0.000000e+00 0.000000e+00 6.950055e-05 -1.848170e-05 0.000000e+00 -1.848170e-05 -1.493487e-04 0.000000e+00 0.000000e+00 0.000000e+00 0.000000e+00 -4.609275e-05 -8.058390e-05 0.000000e+00 -8.058390e-05 2.172341e-05 0.000000e+00 0.000000e+00 0.000000e+00 0.000000e+00 -1.061174e-06 8.911673e-08 0.000000e+00 8.911673e-08 -2.225935e-06 0.000000e+00 0.000000e+00 0.000000e+00 0.000000e+00 -6.971427e-05 -5.255815e-05 0.000000e+00 -5.255815e-05 2.345931e-05 0.000000e+00 0.000000e+00 0.000000e+00 0.000000e+00 3.885758e-05 4.898253e-05 0.000000e+00 4.898253e-05 -3.253598e-06 0.000000e+00 0.000000e+00 0.000000e+00 0.000000e+00 3.545508e-05 4.571555e-05 0.000000e+00 4.571555e-05 -6.024378e-06 0.000000e+00 0.000000e+00 0.000000e+00 0.000000e+00 3.328796e-05 5.650626e-05 0.000000e+00 5.650626e-05 -7.368115e-06 0.000000e+00 0.000000e+00 0.000000e+00 0.000000e+00 5.135094e-06 6.718659e-06 0.000000e+00 6.718659e-06 -5.289861e-06 0.000000e+00 0.000000e+00 0.000000e+00 0.000000e+00 1.667566e-04 1.321400e-04 0.000000e+00 1.321400e-04 2.271255e-05 0.000000e+00 0.000000e+00 0.000000e+00 0.000000e+00 1.224252e-04 8.736240e-05 0.000000e+00 8.736240e-05 -1.012938e-05 0.000000e+00 0.000000e+00 0.000000e+00 0.000000e+00 2.606021e-05 -1.051220e-04 0.000000e+00 -1.051220e-04 1.131464e-04 0.000000e+00 0.000000e+00 0.000000e+00 0.000000e+00 -1.176843e-06 3.671814e-05 0.000000e+00 3.671814e-05 -1.169657e-05 0.000000e+00 0.000000e+00 0.000000e+00 0.000000e+00 -1.191491e-05 7.033154e-05 0.000000e+00 7.033154e-05 6.534277e-06 0.000000e+00 0.000000e+00 0.000000e+00 0.000000e+00 2.391813e-05 6.690526e-05 0.000000e+00 6.690526e-05 -5.347411e-06 0.000000e+00 0.000000e+00 0.000000e+00 0.000000e+00 1.997393e-06 -8.908715e-06 0.000000e+00 -8.908715e-06 5.457471e-06 0.000000e+00 0.000000e+00 0.000000e+00 0.000000e+00 1.487047e-05 -8.693720e-05 0.000000e+00 -8.693720e-05 -5.801815e-05 0.000000e+00 0.000000e+00 0.000000e+00 0.000000e+00 3.453791e-05 -7.246974e-05 0.000000e+00 -7.246974e-05 -1.131312e-04 0.000000e+00 0.000000e+00 0.000000e+00 0.000000e+00 -1.317683e-05 -7.545890e-05 0.000000e+00 -7.545890e-05 -9.873503e-06 0.000000e+00 0.000000e+00 0.000000e+00 0.000000e+00 -2.698846e-05 -8.532424e-05 0.000000e+00 -8.532424e-05 -2.569640e-06 0.000000e+00 0.000000e+00 0.000000e+00 0.000000e+00 -5.600889e-06 -8.080603e-05 0.000000e+00 -8.080603e-05 -3.107571e-05 0.000000e+00 0.000000e+00 0.000000e+00 0.000000e+00 4.153606e-05 6.210394e-05 0.000000e+00 6.210394e-05 -1.122123e-05 0.000000e+00 0.000000e+00 0.000000e+00 0.000000e+00 3.794940e-05 6.674564e-05 0.000000e+00 6.674564e-05 -1.038543e-05 0.000000e+00 0.000000e+00 0.000000e+00 0.000000e+00 4.975025e-06 6.848929e-05 0.000000e+00 6.848929e-05 1.125764e-06 0.000000e+00 0.000000e+00 0.000000e+00 0.000000e+00 1.246577e-05 7.358216e-05 0.000000e+00 7.358216e-05 1.084828e-06 0.000000e+00 0.000000e+00 0.000000e+00 0.000000e+00 -1.889666e-06 7.510256e-05 0.000000e+00 7.510256e-05 6.276352e-06 0.000000e+00 0.000000e+00 0.000000e+00 0.000000e+00 -2.259374e-05 7.222820e-05 0.000000e+00 7.222820e-05 8.212324e-06 0.000000e+00 0.000000e+00 0.000000e+00 0.000000e+00 -2.253000e-05 7.000644e-05 0.000000e+00 7.000644e-05 4.134513e-06 0.000000e+00 0.000000e+00 0.000000e+00 0.000000e+00 -2.251509e-05 6.996832e-05 0.000000e+00 6.996832e-05 4.111118e-06 0.000000e+00 0.000000e+00 0.000000e+00 0.000000e+00 -2.638440e-05 6.215488e-05 0.000000e+00 6.215488e-05 -2.377496e-06 0.000000e+00 0.000000e+00 0.000000e+00 0.000000e+00 -7.439212e-06 4.979009e-05 0.000000e+00 4.979009e-05 -7.048505e-06 0.000000e+00 0.000000e+00 0.000000e+00 0.000000e+00 3.191518e-06 2.395285e-05 0.000000e+00 2.395285e-05 -1.535483e-05 0.000000e+00 0.000000e+00 0.000000e+00 0.000000e+00 4.139522e-06 1.240658e-05 0.000000e+00 1.240658e-05 -1.344583e-05 0.000000e+00 0.000000e+00 0.000000e+00 0.000000e+00 2.645611e-05 -1.030814e-04 0.000000e+00 -1.030814e-04 8.276157e-05 0.000000e+00 0.000000e+00 0.000000e+00 0.000000e+00 4.540944e-05 -5.187551e-05 0.000000e+00 -5.187551e-05 -1.482932e-04 0.000000e+00 0.000000e+00 0.000000e+00 0.000000e+00 -1.518053e-06 6.672531e-06 0.000000e+00 6.672531e-06 -1.514675e-06 0.000000e+00 0.000000e+00 0.000000e+00 0.000000e+00 4.958844e-05 -7.354947e-05 0.000000e+00 -7.354947e-05 -1.272024e-04 0.000000e+00 0.000000e+00 0.000000e+00 0.000000e+00 -7.141887e-05 -6.450253e-05 0.000000e+00 -6.450253e-05 5.383418e-05 0.000000e+00 0.000000e+00 0.000000e+00 0.000000e+00 -6.574209e-05 -5.529363e-05 0.000000e+00 -5.529363e-05 4.227859e-05 0.000000e+00 0.000000e+00 0.000000e+00 0.000000e+00 -4.624268e-05 -8.151968e-05 0.000000e+00 -8.151968e-05 2.290124e-05 0.000000e+00 0.000000e+00 0.000000e+00 0.000000e+00 7.202807e-05 -8.691630e-06 0.000000e+00 -8.691630e-06 -2.093562e-04 0.000000e+00 0.000000e+00 0.000000e+00 0.000000e+00 6.926064e-05 -1.586507e-05 0.000000e+00 -1.586507e-05 -2.024425e-04 0.000000e+00 0.000000e+00 0.000000e+00 0.000000e+00 1.431062e-04 -3.864530e-05 0.000000e+00 -3.864530e-05 -4.221864e-06 0.000000e+00 0.000000e+00 0.000000e+00 0.000000e+00 8.886811e-05 -2.351311e-05 0.000000e+00 -2.351311e-05 -9.313039e-05 0.000000e+00 0.000000e+00 0.000000e+00 0.000000e+00 8.463816e-05 -1.974765e-05 0.000000e+00 -1.974765e-05 -8.853207e-05 0.000000e+00 0.000000e+00 0.000000e+00 0.000000e+00 7.636031e-05 -1.942861e-05 0.000000e+00 -1.942861e-05 -1.320980e-04 0.000000e+00 0.000000e+00 0.000000e+00 0.000000e+00 7.213585e-05 -1.503815e-05 0.000000e+00 -1.503815e-05 -1.266191e-04 0.000000e+00 0.000000e+00 0.000000e+00 0.000000e+00 1.020438e-04 -2.612248e-05 0.000000e+00 -2.612248e-05 -6.347912e-05 0.000000e+00 0.000000e+00 0.000000e+00 0.000000e+00 1.702684e-04 -4.912373e-05 0.000000e+00 -4.912373e-05 3.584527e-05 0.000000e+00 0.000000e+00 0.000000e+00 0.000000e+00 1.681925e-04 -4.125320e-05 0.000000e+00 -4.125320e-05 4.001550e-05 0.000000e+00 0.000000e+00 0.000000e+00 0.000000e+00 2.082534e-04 -5.951182e-05 0.000000e+00 -5.951182e-05 7.625080e-05 0.000000e+00 0.000000e+00 0.000000e+00 0.000000e+00 1.863761e-04 -5.646060e-05 0.000000e+00 -5.646060e-05 9.096980e-05 0.000000e+00 0.000000e+00 0.000000e+00 0.000000e+00 -5.875742e-05 4.024665e-05 0.000000e+00 4.024665e-05 3.092212e-05 0.000000e+00 0.000000e+00 0.000000e+00 0.000000e+00 2.295259e-04 -1.440691e-04 0.000000e+00 -1.440691e-04 3.676403e-04 0.000000e+00 0.000000e+00 0.000000e+00 0.000000e+00 1.004489e-04 -8.672663e-05 0.000000e+00 -8.672663e-05 4.519162e-04 0.000000e+00 0.000000e+00 0.000000e+00 0.000000e+00 5.849024e-05 3.249727e-05 0.000000e+00 3.249727e-05 -9.490060e-06 0.000000e+00 0.000000e+00 0.000000e+00 0.000000e+00 2.314599e-04 -8.913336e-05 0.000000e+00 -8.913336e-05 1.443632e-04 0.000000e+00 0.000000e+00 0.000000e+00 0.000000e+00 1.233765e-04 -3.164699e-05 0.000000e+00 -3.164699e-05 -2.811654e-05 0.000000e+00 0.000000e+00 0.000000e+00 0.000000e+00 1.637142e-04 -4.536304e-05 0.000000e+00 -4.536304e-05 2.497193e-05 0.000000e+00 0.000000e+00 0.000000e+00 0.000000e+00 1.563223e-04 -3.998702e-05 0.000000e+00 -3.998702e-05 2.998965e-05 0.000000e+00 0.000000e+00 0.000000e+00 0.000000e+00 4.839141e-05 4.165228e-05 0.000000e+00 4.165228e-05 -5.746908e-06 0.000000e+00 0.000000e+00 0.000000e+00 0.000000e+00 9.649876e-05 -2.511588e-05 0.000000e+00 -2.511588e-05 -7.075005e-05 0.000000e+00 0.000000e+00 0.000000e+00 0.000000e+00 9.567699e-05 -2.107315e-05 0.000000e+00 -2.107315e-05 -6.608604e-05 0.000000e+00 0.000000e+00 0.000000e+00 0.000000e+00 2.711150e-04 -9.225092e-05 0.000000e+00 -9.225092e-05 1.722710e-04 0.000000e+00 0.000000e+00 0.000000e+00 0.000000e+00 8.871720e-05 4.206564e-05 0.000000e+00 4.206564e-05 -2.549340e-05 0.000000e+00 0.000000e+00 0.000000e+00 0.000000e+00 -9.237809e-05 1.442137e-06 0.000000e+00 1.442137e-06 4.240657e-05 0.000000e+00 0.000000e+00 0.000000e+00 0.000000e+00 7.096557e-07 1.914627e-05 0.000000e+00 1.914627e-05 4.813991e-06 0.000000e+00 0.000000e+00 0.000000e+00 0.000000e+00 7.138997e-05 -9.040164e-06 0.000000e+00 -9.040164e-06 -1.974317e-04 0.000000e+00 0.000000e+00 0.000000e+00 0.000000e+00 6.947525e-05 -1.599393e-05 0.000000e+00 -1.599393e-05 -1.908344e-04 0.000000e+00 0.000000e+00 0.000000e+00 0.000000e+00 1.308425e-04 1.859381e-04 0.000000e+00 1.859381e-04 1.315175e-04 0.000000e+00 0.000000e+00 0.000000e+00 0.000000e+00 1.946943e-04 -6.344205e-05 0.000000e+00 -6.344205e-05 1.105973e-04 0.000000e+00 0.000000e+00 0.000000e+00 0.000000e+00 2.227204e-04 -7.984011e-05 0.000000e+00 -7.984011e-05 1.195126e-04 0.000000e+00 0.000000e+00 0.000000e+00 0.000000e+00 -4.900295e-05 5.408636e-05 0.000000e+00 5.408636e-05 2.206040e-05 0.000000e+00 0.000000e+00 0.000000e+00 0.000000e+00 1.183107e-05 -8.072661e-05 0.000000e+00 -8.072661e-05 -6.687438e-05 0.000000e+00 0.000000e+00 0.000000e+00 0.000000e+00 -2.245741e-06 2.824670e-06 0.000000e+00 2.824670e-06 -4.212067e-07 0.000000e+00 0.000000e+00 0.000000e+00 0.000000e+00 6.697940e-05 -1.146771e-05 0.000000e+00 -1.146771e-05 -1.734722e-04 0.000000e+00 0.000000e+00 0.000000e+00 0.000000e+00 6.983675e-05 -1.872977e-05 0.000000e+00 -1.872977e-05 -1.688846e-04 0.000000e+00 0.000000e+00 0.000000e+00 0.000000e+00 1.563148e-04 -4.209181e-05 0.000000e+00 -4.209181e-05 1.459270e-05 0.000000e+00 0.000000e+00 0.000000e+00 0.000000e+00 1.532843e-04 -3.719084e-05 0.000000e+00 -3.719084e-05 1.915330e-05 0.000000e+00 0.000000e+00 0.000000e+00 0.000000e+00 2.751190e-07 2.075503e-06 0.000000e+00 2.075503e-06 -9.937118e-06 0.000000e+00 0.000000e+00 0.000000e+00 0.000000e+00 3.701828e-05 6.164629e-05 0.000000e+00 6.164629e-05 -8.779245e-06 0.000000e+00 0.000000e+00 0.000000e+00 0.000000e+00 1.804130e-04 -4.590115e-05 0.000000e+00 -4.590115e-05 5.851170e-05 0.000000e+00 0.000000e+00 0.000000e+00 0.000000e+00 1.874519e-04 -4.519114e-05 0.000000e+00 -4.519114e-05 4.984158e-05 0.000000e+00 0.000000e+00 0.000000e+00 0.000000e+00 2.043042e-04 -4.683416e-05 0.000000e+00 -4.683416e-05 5.854391e-05 0.000000e+00 0.000000e+00 0.000000e+00 0.000000e+00 -2.325046e-06 -2.859417e-07 0.000000e+00 -2.859417e-07 -2.662172e-06 0.000000e+00 0.000000e+00 0.000000e+00 0.000000e+00 4.460511e-05 5.305512e-05 0.000000e+00 5.305512e-05 -7.315472e-06 0.000000e+00 0.000000e+00 0.000000e+00 0.000000e+00 4.101865e-05 4.899154e-05 0.000000e+00 4.899154e-05 -1.044190e-05 0.000000e+00 0.000000e+00 0.000000e+00 0.000000e+00 3.904192e-05 5.795275e-05 0.000000e+00 5.795275e-05 -1.034898e-05 0.000000e+00 0.000000e+00 0.000000e+00 0.000000e+00 1.181348e-04 1.945598e-04 0.000000e+00 1.945598e-04 1.314434e-04 0.000000e+00 0.000000e+00 0.000000e+00 0.000000e+00 -6.924821e-05 5.247576e-05 0.000000e+00 5.247576e-05 3.091821e-05 0.000000e+00 0.000000e+00 0.000000e+00 0.000000e+00 1.103352e-04 -2.980766e-05 0.000000e+00 -2.980766e-05 -5.001502e-05 0.000000e+00 0.000000e+00 0.000000e+00 0.000000e+00 1.075953e-04 -2.565520e-05 0.000000e+00 -2.565520e-05 -4.582388e-05 0.000000e+00 0.000000e+00 0.000000e+00 0.000000e+00 1.495992e-04 -4.031401e-05 0.000000e+00 -4.031401e-05 4.453763e-06 0.000000e+00 0.000000e+00 0.000000e+00 0.000000e+00 1.418546e-04 -3.353343e-05 0.000000e+00 -3.353343e-05 1.858785e-07 0.000000e+00 0.000000e+00 0.000000e+00 0.000000e+00 1.493564e-04 -3.452894e-05 0.000000e+00 -3.452894e-05 9.232348e-06 0.000000e+00 0.000000e+00 0.000000e+00 0.000000e+00 -1.390645e-05 7.442719e-05 0.000000e+00 7.442719e-05 7.525138e-06 0.000000e+00 0.000000e+00 0.000000e+00 0.000000e+00 -2.562845e-05 6.926079e-05 0.000000e+00 6.926079e-05 1.322704e-05 0.000000e+00 0.000000e+00 0.000000e+00 0.000000e+00 7.493315e-05 -1.336715e-05 0.000000e+00 -1.336715e-05 -1.464998e-04 0.000000e+00 0.000000e+00 0.000000e+00 0.000000e+00 7.296903e-05 -1.791962e-05 0.000000e+00 -1.791962e-05 -1.410993e-04 0.000000e+00 0.000000e+00 0.000000e+00 0.000000e+00 7.483133e-05 -1.587857e-05 0.000000e+00 -1.587857e-05 -2.302007e-04 0.000000e+00 0.000000e+00 0.000000e+00 0.000000e+00 8.135197e-05 -2.061675e-05 0.000000e+00 -2.061675e-05 -1.072235e-04 0.000000e+00 0.000000e+00 0.000000e+00 0.000000e+00 6.938937e-05 -1.921252e-05 0.000000e+00 -1.921252e-05 -1.580300e-04 0.000000e+00 0.000000e+00 0.000000e+00 0.000000e+00 7.420843e-05 -1.385834e-05 0.000000e+00 -1.385834e-05 -1.550540e-04 0.000000e+00 0.000000e+00 0.000000e+00 0.000000e+00 9.241704e-05 -2.252433e-05 0.000000e+00 -2.252433e-05 -2.960589e-04 0.000000e+00 0.000000e+00 0.000000e+00 0.000000e+00 -1.210048e-05 4.321468e-05 0.000000e+00 4.321468e-05 -1.555236e-05 0.000000e+00 0.000000e+00 0.000000e+00 0.000000e+00 -2.188458e-05 5.481779e-05 0.000000e+00 5.481779e-05 -8.791017e-06 0.000000e+00 0.000000e+00 0.000000e+00 0.000000e+00 2.594505e-05 6.903774e-05 0.000000e+00 6.903774e-05 -5.121190e-06 0.000000e+00 0.000000e+00 0.000000e+00 0.000000e+00 -1.405360e-07 4.154304e-06 0.000000e+00 4.154304e-06 -8.977755e-06 0.000000e+00 0.000000e+00 0.000000e+00 0.000000e+00 3.285866e-07 7.353287e-06 0.000000e+00 7.353287e-06 -3.049600e-06 0.000000e+00 0.000000e+00 0.000000e+00 0.000000e+00 -8.752640e-05 -1.145303e-05 0.000000e+00 -1.145303e-05 6.972877e-05 0.000000e+00 0.000000e+00 0.000000e+00 0.000000e+00 -6.924413e-05 1.573164e-05 0.000000e+00 1.573164e-05 4.425593e-05 0.000000e+00 0.000000e+00 0.000000e+00 0.000000e+00 -7.295360e-05 -1.975434e-05 0.000000e+00 -1.975434e-05 4.861812e-05 0.000000e+00 0.000000e+00 0.000000e+00 0.000000e+00 6.695495e-05 -1.010250e-05 0.000000e+00 -1.010250e-05 -1.839507e-04 0.000000e+00 0.000000e+00 0.000000e+00 0.000000e+00 1.276995e-04 -2.654298e-05 0.000000e+00 -2.654298e-05 -2.509243e-05 0.000000e+00 0.000000e+00 0.000000e+00 0.000000e+00 1.320682e-04 -3.252859e-05 0.000000e+00 -3.252859e-05 -2.043669e-05 0.000000e+00 0.000000e+00 0.000000e+00 0.000000e+00 2.072462e-04 -9.705997e-05 0.000000e+00 -9.705997e-05 2.178538e-04 0.000000e+00 0.000000e+00 0.000000e+00 0.000000e+00 2.679278e-04 -1.188984e-04 0.000000e+00 -1.188984e-04 2.251447e-04 0.000000e+00 0.000000e+00 0.000000e+00 0.000000e+00 1.282899e-04 1.708223e-04 0.000000e+00 1.708223e-04 8.269121e-05 0.000000e+00 0.000000e+00 0.000000e+00 0.000000e+00 9.782791e-05 1.171823e-04 0.000000e+00 1.171823e-04 5.826232e-05 0.000000e+00 0.000000e+00 0.000000e+00 0.000000e+00 7.415372e-05 -7.862813e-06 0.000000e+00 -7.862813e-06 -2.215152e-04 0.000000e+00 0.000000e+00 0.000000e+00 0.000000e+00 9.562962e-05 -1.363069e-05 0.000000e+00 -1.363069e-05 -2.861952e-04 0.000000e+00 0.000000e+00 0.000000e+00 0.000000e+00 7.891243e-05 -2.438101e-05 0.000000e+00 -2.438101e-05 -2.744554e-04 0.000000e+00 0.000000e+00 0.000000e+00 0.000000e+00 -2.458301e-06 4.628656e-06 0.000000e+00 4.628656e-06 -2.251880e-06 0.000000e+00 0.000000e+00 0.000000e+00 0.000000e+00 -1.162424e-05 3.001257e-05 0.000000e+00 3.001257e-05 -9.957871e-06 0.000000e+00 0.000000e+00 0.000000e+00 0.000000e+00 7.793228e-05 -2.046454e-05 0.000000e+00 -2.046454e-05 -1.153319e-04 0.000000e+00 0.000000e+00 0.000000e+00 0.000000e+00 -2.939097e-05 6.101816e-05 0.000000e+00 6.101816e-05 8.000877e-06 0.000000e+00 0.000000e+00 0.000000e+00 0.000000e+00 -4.047643e-06 -8.324950e-05 0.000000e+00 -8.324950e-05 -3.255786e-05 0.000000e+00 0.000000e+00 0.000000e+00 0.000000e+00 7.538689e-05 -1.698441e-05 0.000000e+00 -1.698441e-05 -2.439481e-04 0.000000e+00 0.000000e+00 0.000000e+00 0.000000e+00 7.497138e-05 -8.761300e-06 0.000000e+00 -8.761300e-06 -2.335811e-04 0.000000e+00 0.000000e+00 0.000000e+00 0.000000e+00 2.150446e-06 1.695087e-05 0.000000e+00 1.695087e-05 -2.089599e-05 0.000000e+00 0.000000e+00 0.000000e+00 0.000000e+00 9.190372e-07 3.157869e-06 0.000000e+00 3.157869e-06 -9.250681e-06 0.000000e+00 0.000000e+00 0.000000e+00 0.000000e+00 7.040799e-05 -5.212836e-05 0.000000e+00 -5.212836e-05 -1.826062e-04 0.000000e+00 0.000000e+00 0.000000e+00 0.000000e+00 7.388022e-05 -2.006675e-05 0.000000e+00 -2.006675e-05 -2.552471e-04 0.000000e+00 0.000000e+00 0.000000e+00 0.000000e+00 8.772859e-05 -1.321260e-05 0.000000e+00 -1.321260e-05 -2.680830e-04 0.000000e+00 0.000000e+00 0.000000e+00 0.000000e+00 8.125988e-05 -1.196160e-05 0.000000e+00 -1.196160e-05 -2.493867e-04 0.000000e+00 0.000000e+00 0.000000e+00 0.000000e+00 8.139656e-05 -1.677444e-05 0.000000e+00 -1.677444e-05 -1.207094e-04 0.000000e+00 0.000000e+00 0.000000e+00 0.000000e+00 1.159704e-04 -2.644228e-05 0.000000e+00 -2.644228e-05 -3.885391e-05 0.000000e+00 0.000000e+00 0.000000e+00 0.000000e+00 1.181543e-04 -3.191343e-05 0.000000e+00 -3.191343e-05 -3.434051e-05 0.000000e+00 0.000000e+00 0.000000e+00 0.000000e+00 9.088666e-05 -2.022818e-05 0.000000e+00 -2.022818e-05 -8.132506e-05 0.000000e+00 0.000000e+00 0.000000e+00 0.000000e+00 9.179025e-05 -2.555568e-05 0.000000e+00 -2.555568e-05 -7.672387e-05 0.000000e+00 0.000000e+00 0.000000e+00 0.000000e+00 7.789043e-05 -1.558728e-05 0.000000e+00 -1.558728e-05 -1.109612e-04 0.000000e+00 0.000000e+00 0.000000e+00 0.000000e+00 -1.016743e-05 3.593562e-05 0.000000e+00 3.593562e-05 -1.964563e-06 0.000000e+00 0.000000e+00 0.000000e+00 0.000000e+00 -3.557938e-05 5.863641e-05 0.000000e+00 5.863641e-05 7.383781e-06 0.000000e+00 0.000000e+00 0.000000e+00 0.000000e+00 -3.523617e-05 6.883743e-05 0.000000e+00 6.883743e-05 1.364269e-05 0.000000e+00 0.000000e+00 0.000000e+00 0.000000e+00 -5.383117e-05 5.939009e-05 0.000000e+00 5.939009e-05 2.051420e-05 0.000000e+00 0.000000e+00 0.000000e+00 0.000000e+00 6.530075e-05 -3.658383e-05 0.000000e+00 -3.658383e-05 -1.857298e-04 0.000000e+00 0.000000e+00 0.000000e+00 0.000000e+00 -3.926077e-06 9.088954e-07 0.000000e+00 9.088954e-07 -1.259357e-06 0.000000e+00 0.000000e+00 0.000000e+00 0.000000e+00 3.704859e-05 -7.082288e-05 0.000000e+00 -7.082288e-05 -1.110845e-04 0.000000e+00 0.000000e+00 0.000000e+00 0.000000e+00 6.165338e-05 -6.953130e-05 0.000000e+00 -6.953130e-05 -1.437648e-04 0.000000e+00 0.000000e+00 0.000000e+00 0.000000e+00 7.055158e-05 -3.177104e-05 0.000000e+00 -3.177104e-05 -2.068566e-04 0.000000e+00 0.000000e+00 0.000000e+00 0.000000e+00 -1.390132e-06 2.564257e-06 0.000000e+00 2.564257e-06 -5.759334e-06 0.000000e+00 0.000000e+00 0.000000e+00 0.000000e+00 7.504489e-05 -4.609045e-05 0.000000e+00 -4.609045e-05 -2.164334e-04 0.000000e+00 0.000000e+00 0.000000e+00 0.000000e+00 7.866642e-05 -2.588450e-05 0.000000e+00 -2.588450e-05 -2.290991e-04 0.000000e+00 0.000000e+00 0.000000e+00 0.000000e+00 5.220190e-05 -3.397508e-05 0.000000e+00 -3.397508e-05 -1.970595e-04 0.000000e+00 0.000000e+00 0.000000e+00 0.000000e+00 3.118104e-05 1.679234e-05 0.000000e+00 1.679234e-05 -2.466257e-04 0.000000e+00 0.000000e+00 0.000000e+00 0.000000e+00 7.220258e-05 -1.782932e-05 0.000000e+00 -1.782932e-05 -2.284754e-04 0.000000e+00 0.000000e+00 0.000000e+00 0.000000e+00 6.549390e-05 -2.232022e-05 0.000000e+00 -2.232022e-05 -2.081320e-04 0.000000e+00 0.000000e+00 0.000000e+00 0.000000e+00 7.876212e-05 -2.101288e-05 0.000000e+00 -2.101288e-05 -2.330590e-04 0.000000e+00 0.000000e+00 0.000000e+00 0.000000e+00 7.546931e-05 -3.163586e-05 0.000000e+00 -3.163586e-05 -2.074339e-04 0.000000e+00 0.000000e+00 0.000000e+00 0.000000e+00 6.410125e-05 -1.334277e-05 0.000000e+00 -1.334277e-05 -2.182894e-04 0.000000e+00 0.000000e+00 0.000000e+00 0.000000e+00 5.994266e-05 -2.666329e-06 0.000000e+00 -2.666329e-06 -2.349214e-04 0.000000e+00 0.000000e+00 0.000000e+00 0.000000e+00 7.355504e-05 -1.817003e-05 0.000000e+00 -1.817003e-05 -2.288761e-04 0.000000e+00 0.000000e+00 0.000000e+00 0.000000e+00 8.856770e-05 5.792775e-06 0.000000e+00 5.792775e-06 -2.820190e-04 0.000000e+00 0.000000e+00 0.000000e+00 0.000000e+00 7.340720e-05 -4.588293e-05 0.000000e+00 -4.588293e-05 -1.945535e-04 0.000000e+00 0.000000e+00 0.000000e+00 0.000000e+00 5.498268e-05 -4.436496e-05 0.000000e+00 -4.436496e-05 -1.687538e-04 0.000000e+00 0.000000e+00 0.000000e+00 0.000000e+00 5.542800e-05 -3.350683e-05 0.000000e+00 -3.350683e-05 -1.822960e-04 0.000000e+00 0.000000e+00 0.000000e+00 0.000000e+00 8.669052e-05 -8.392311e-06 0.000000e+00 -8.392311e-06 -2.492106e-04 0.000000e+00 0.000000e+00 0.000000e+00 0.000000e+00 8.463746e-05 -1.345943e-05 0.000000e+00 -1.345943e-05 -2.488806e-04 0.000000e+00 0.000000e+00 0.000000e+00 0.000000e+00 8.484626e-05 -2.162190e-05 0.000000e+00 -2.162190e-05 -9.983820e-05 0.000000e+00 0.000000e+00 0.000000e+00 0.000000e+00 8.272278e-05 -1.633862e-05 0.000000e+00 -1.633862e-05 -1.039529e-04 0.000000e+00 0.000000e+00 0.000000e+00 0.000000e+00 8.047730e-05 -1.885625e-05 0.000000e+00 -1.885625e-05 -9.498053e-05 0.000000e+00 0.000000e+00 0.000000e+00 0.000000e+00 1.067715e-04 -2.805975e-05 0.000000e+00 -2.805975e-05 -5.705423e-05 0.000000e+00 0.000000e+00 0.000000e+00 0.000000e+00 9.967944e-05 -2.324309e-05 0.000000e+00 -2.324309e-05 -5.953300e-05 0.000000e+00 0.000000e+00 0.000000e+00 0.000000e+00 1.029286e-04 -2.459612e-05 0.000000e+00 -2.459612e-05 -5.259744e-05 0.000000e+00 0.000000e+00 0.000000e+00 0.000000e+00 5.115547e-06 -6.929395e-06 0.000000e+00 -6.929395e-06 -2.063634e-06 0.000000e+00 0.000000e+00 0.000000e+00 0.000000e+00 -5.957541e-05 4.170458e-05 0.000000e+00 4.170458e-05 5.605546e-05 0.000000e+00 0.000000e+00 0.000000e+00 0.000000e+00 8.161955e-05 -2.775296e-05 0.000000e+00 -2.775296e-05 -1.113226e-04 0.000000e+00 0.000000e+00 0.000000e+00 0.000000e+00 2.934638e-05 -8.103728e-05 0.000000e+00 -8.103728e-05 -8.763389e-05 0.000000e+00 0.000000e+00 0.000000e+00 0.000000e+00 1.385637e-04 -3.567559e-05 0.000000e+00 -3.567559e-05 -1.319736e-05 0.000000e+00 0.000000e+00 0.000000e+00 0.000000e+00 1.246107e-04 -2.992501e-05 0.000000e+00 -2.992501e-05 -1.535628e-05 0.000000e+00 0.000000e+00 0.000000e+00 0.000000e+00 1.309486e-04 -3.166986e-05 0.000000e+00 -3.166986e-05 -7.755771e-06 0.000000e+00 0.000000e+00 0.000000e+00 0.000000e+00 2.210645e-04 -7.473501e-05 0.000000e+00 -7.473501e-05 1.538573e-04 0.000000e+00 0.000000e+00 0.000000e+00 0.000000e+00 2.600360e-04 -1.378479e-04 0.000000e+00 -1.378479e-04 2.854625e-04 0.000000e+00 0.000000e+00 0.000000e+00 0.000000e+00 1.870326e-04 -1.082521e-04 0.000000e+00 -1.082521e-04 2.738689e-04 0.000000e+00 0.000000e+00 0.000000e+00 0.000000e+00 1.571488e-04 -1.102944e-04 0.000000e+00 -1.102944e-04 3.521412e-04 0.000000e+00 0.000000e+00 0.000000e+00 0.000000e+00 5.201111e-05 3.885496e-05 0.000000e+00 3.885496e-05 -1.519655e-05 0.000000e+00 0.000000e+00 0.000000e+00 0.000000e+00 5.626446e-05 4.499153e-05 0.000000e+00 4.499153e-05 -1.114752e-05 0.000000e+00 0.000000e+00 0.000000e+00 0.000000e+00 3.780687e-05 -9.708157e-05 0.000000e+00 -9.708157e-05 -8.449730e-05 0.000000e+00 0.000000e+00 0.000000e+00 0.000000e+00 -1.212403e-06 -6.489147e-06 0.000000e+00 -6.489147e-06 3.715549e-06 0.000000e+00 0.000000e+00 0.000000e+00 0.000000e+00 1.213521e-04 -2.751116e-05 0.000000e+00 -2.751116e-05 -3.135955e-05 0.000000e+00 0.000000e+00 0.000000e+00 0.000000e+00 9.316901e-05 -1.274918e-05 0.000000e+00 -1.274918e-05 -2.783448e-04 0.000000e+00 0.000000e+00 0.000000e+00 0.000000e+00 8.941856e-05 6.031949e-05 0.000000e+00 6.031949e-05 -1.563574e-05 0.000000e+00 0.000000e+00 0.000000e+00 0.000000e+00 -1.904333e-05 4.851051e-05 0.000000e+00 4.851051e-05 3.584020e-06 0.000000e+00 0.000000e+00 0.000000e+00 0.000000e+00 3.239134e-05 3.155771e-05 0.000000e+00 3.155771e-05 4.230082e-04 0.000000e+00 0.000000e+00 0.000000e+00 0.000000e+00 -4.251913e-05 5.862565e-05 0.000000e+00 5.862565e-05 1.536224e-05 0.000000e+00 0.000000e+00 0.000000e+00 0.000000e+00 -5.013136e-05 5.610522e-05 0.000000e+00 5.610522e-05 3.363079e-05 0.000000e+00 0.000000e+00 0.000000e+00 0.000000e+00 2.009055e-04 -7.023927e-05 0.000000e+00 -7.023927e-05 1.330230e-04 0.000000e+00 0.000000e+00 0.000000e+00 0.000000e+00 1.743992e-05 -1.037120e-04 0.000000e+00 -1.037120e-04 -4.812772e-05 0.000000e+00 0.000000e+00 0.000000e+00 0.000000e+00 1.988400e-04 -1.152798e-04 0.000000e+00 -1.152798e-04 1.803503e-04 0.000000e+00 0.000000e+00 0.000000e+00 0.000000e+00 4.305420e-05 1.748513e-04 0.000000e+00 1.748513e-04 3.696331e-04 0.000000e+00 0.000000e+00 0.000000e+00 0.000000e+00 4.289527e-05 6.198884e-05 0.000000e+00 6.198884e-05 -1.273613e-05 0.000000e+00 0.000000e+00 0.000000e+00 0.000000e+00 6.981086e-05 -1.993709e-05 0.000000e+00 -1.993709e-05 -2.056439e-04 0.000000e+00 0.000000e+00 0.000000e+00 0.000000e+00 1.882798e-04 3.497472e-04 0.000000e+00 3.497472e-04 3.295064e-04 0.000000e+00 0.000000e+00 0.000000e+00 0.000000e+00 7.801105e-05 -3.277608e-05 0.000000e+00 -3.277608e-05 -2.073397e-04 0.000000e+00 0.000000e+00 0.000000e+00 0.000000e+00 8.132050e-05 -1.366790e-06 0.000000e+00 -1.366790e-06 -2.375052e-04 0.000000e+00 0.000000e+00 0.000000e+00 0.000000e+00 1.035205e-04 -1.312532e-05 0.000000e+00 -1.312532e-05 -2.917584e-04 0.000000e+00 0.000000e+00 0.000000e+00 0.000000e+00 1.225061e-04 1.168405e-04 0.000000e+00 1.168405e-04 3.128239e-05 0.000000e+00 0.000000e+00 0.000000e+00 0.000000e+00 5.591404e-05 1.613894e-04 0.000000e+00 1.613894e-04 2.625326e-04 0.000000e+00 0.000000e+00 0.000000e+00 0.000000e+00 -2.435994e-06 1.670911e-05 0.000000e+00 1.670911e-05 -1.230244e-05 0.000000e+00 0.000000e+00 0.000000e+00 0.000000e+00 7.771802e-05 -2.334235e-05 0.000000e+00 -2.334235e-05 -2.164890e-04 0.000000e+00 0.000000e+00 0.000000e+00 0.000000e+00 1.509431e-06 7.372260e-06 0.000000e+00 7.372260e-06 -1.743129e-05 0.000000e+00 0.000000e+00 0.000000e+00 0.000000e+00 6.164599e-05 -2.363227e-05 0.000000e+00 -2.363227e-05 -1.942744e-04 0.000000e+00 0.000000e+00 0.000000e+00 0.000000e+00 7.002366e-05 -2.427761e-05 0.000000e+00 -2.427761e-05 -1.122959e-04 0.000000e+00 0.000000e+00 0.000000e+00 0.000000e+00 -2.510150e-05 -9.368761e-05 0.000000e+00 -9.368761e-05 2.514995e-06 0.000000e+00 0.000000e+00 0.000000e+00 0.000000e+00 -6.402692e-06 -9.923428e-05 0.000000e+00 -9.923428e-05 -2.039232e-05 0.000000e+00 0.000000e+00 0.000000e+00 0.000000e+00 9.499824e-05 -1.625613e-05 0.000000e+00 -1.625613e-05 -2.774931e-04 0.000000e+00 0.000000e+00 0.000000e+00 0.000000e+00 -4.046676e-06 2.409467e-05 0.000000e+00 2.409467e-05 -5.346502e-06 0.000000e+00 0.000000e+00 0.000000e+00 0.000000e+00 6.569410e-05 -1.921336e-05 0.000000e+00 -1.921336e-05 -2.025132e-04 0.000000e+00 0.000000e+00 0.000000e+00 0.000000e+00 5.977803e-05 1.443886e-04 0.000000e+00 1.443886e-04 3.159539e-04 0.000000e+00 0.000000e+00 0.000000e+00 0.000000e+00 1.742307e-05 8.360642e-05 0.000000e+00 8.360642e-05 4.855231e-04 0.000000e+00 0.000000e+00 0.000000e+00 0.000000e+00 -3.746123e-06 2.955485e-05 0.000000e+00 2.955485e-05 -1.986975e-05 0.000000e+00 0.000000e+00 0.000000e+00 0.000000e+00 3.363259e-05 6.602888e-05 0.000000e+00 6.602888e-05 -6.098406e-06 0.000000e+00 0.000000e+00 0.000000e+00 0.000000e+00 7.451518e-05 -3.606767e-05 0.000000e+00 -3.606767e-05 -1.898611e-04 0.000000e+00 0.000000e+00 0.000000e+00 0.000000e+00 9.815608e-05 7.286358e-05 0.000000e+00 7.286358e-05 -8.126848e-06 0.000000e+00 0.000000e+00 0.000000e+00 0.000000e+00 7.459666e-05 6.170800e-05 0.000000e+00 6.170800e-05 -1.335572e-05 0.000000e+00 0.000000e+00 0.000000e+00 0.000000e+00 6.842852e-05 -3.570055e-05 0.000000e+00 -3.570055e-05 -2.341879e-04 0.000000e+00 0.000000e+00 0.000000e+00 0.000000e+00 -2.580577e-05 6.987024e-05 0.000000e+00 6.987024e-05 1.160143e-05 0.000000e+00 0.000000e+00 0.000000e+00 0.000000e+00 1.033329e-04 -3.705482e-05 0.000000e+00 -3.705482e-05 -6.066870e-05 0.000000e+00 0.000000e+00 0.000000e+00 0.000000e+00 7.434150e-05 -1.020301e-05 0.000000e+00 -1.020301e-05 -2.178977e-04 0.000000e+00 0.000000e+00 0.000000e+00 0.000000e+00 7.078873e-05 -1.368822e-05 0.000000e+00 -1.368822e-05 -1.351586e-04 0.000000e+00 0.000000e+00 0.000000e+00 0.000000e+00 5.146458e-05 1.404779e-04 0.000000e+00 1.404779e-04 1.761559e-04 0.000000e+00 0.000000e+00 0.000000e+00 0.000000e+00 4.482995e-05 1.280895e-04 0.000000e+00 1.280895e-04 1.690303e-04 0.000000e+00 0.000000e+00 0.000000e+00 0.000000e+00 7.923800e-05 -2.379116e-05 0.000000e+00 -2.379116e-05 -1.059848e-04 0.000000e+00 0.000000e+00 0.000000e+00 0.000000e+00 7.942511e-05 -2.857461e-05 0.000000e+00 -2.857461e-05 -1.006724e-04 0.000000e+00 0.000000e+00 0.000000e+00 0.000000e+00 -4.330224e-05 4.232954e-05 0.000000e+00 4.232954e-05 4.708767e-05 0.000000e+00 0.000000e+00 0.000000e+00 0.000000e+00 1.906755e-04 -8.205218e-05 0.000000e+00 -8.205218e-05 9.157043e-05 0.000000e+00 0.000000e+00 0.000000e+00 0.000000e+00 2.371025e-04 -9.218071e-05 0.000000e+00 -9.218071e-05 1.722979e-04 0.000000e+00 0.000000e+00 0.000000e+00 0.000000e+00 3.159864e-05 1.459895e-04 0.000000e+00 1.459895e-04 3.675546e-04 0.000000e+00 0.000000e+00 0.000000e+00 0.000000e+00 1.966337e-05 9.508075e-05 0.000000e+00 9.508075e-05 3.355836e-04 0.000000e+00 0.000000e+00 0.000000e+00 0.000000e+00 3.538973e-05 1.296096e-04 0.000000e+00 1.296096e-04 2.473601e-04 0.000000e+00 0.000000e+00 0.000000e+00 0.000000e+00 1.622391e-04 -6.661862e-05 0.000000e+00 -6.661862e-05 3.767653e-05 0.000000e+00 0.000000e+00 0.000000e+00 0.000000e+00 1.377930e-04 -5.566316e-05 0.000000e+00 -5.566316e-05 4.562399e-06 0.000000e+00 0.000000e+00 0.000000e+00 0.000000e+00 9.698657e-05 -7.213851e-05 0.000000e+00 -7.213851e-05 3.929270e-04 0.000000e+00 0.000000e+00 0.000000e+00 0.000000e+00 3.132240e-05 -2.249408e-05 0.000000e+00 -2.249408e-05 4.674453e-04 0.000000e+00 0.000000e+00 0.000000e+00 0.000000e+00 8.824422e-05 -3.668192e-05 0.000000e+00 -3.668192e-05 -7.839439e-05 0.000000e+00 0.000000e+00 0.000000e+00 0.000000e+00 1.797343e-04 -5.196569e-05 0.000000e+00 -5.196569e-05 7.435447e-05 0.000000e+00 0.000000e+00 0.000000e+00 0.000000e+00 9.005631e-05 8.804924e-05 0.000000e+00 8.804924e-05 8.617070e-06 0.000000e+00 0.000000e+00 0.000000e+00 0.000000e+00 1.081625e-04 8.943715e-05 0.000000e+00 8.943715e-05 5.844108e-06 0.000000e+00 0.000000e+00 0.000000e+00 0.000000e+00 5.182131e-05 5.925214e-05 0.000000e+00 5.925214e-05 -1.239921e-05 0.000000e+00 0.000000e+00 0.000000e+00 0.000000e+00 3.769453e-05 6.905158e-05 0.000000e+00 6.905158e-05 -6.051865e-06 0.000000e+00 0.000000e+00 0.000000e+00 0.000000e+00 9.949486e-05 -3.387775e-05 0.000000e+00 -3.387775e-05 -6.877583e-05 0.000000e+00 0.000000e+00 0.000000e+00 0.000000e+00 9.506110e-05 -3.132881e-05 0.000000e+00 -3.132881e-05 -6.297922e-05 0.000000e+00 0.000000e+00 0.000000e+00 0.000000e+00 1.862757e-04 2.855023e-04 0.000000e+00 2.855023e-04 5.326469e-04 0.000000e+00 0.000000e+00 0.000000e+00 0.000000e+00 1.042732e-04 1.389059e-04 0.000000e+00 1.389059e-04 7.983625e-05 0.000000e+00 0.000000e+00 0.000000e+00 0.000000e+00 7.224246e-05 1.048483e-04 0.000000e+00 1.048483e-04 5.796467e-05 0.000000e+00 0.000000e+00 0.000000e+00 0.000000e+00 7.320229e-05 4.377029e-05 0.000000e+00 4.377029e-05 -1.998806e-05 0.000000e+00 0.000000e+00 0.000000e+00 0.000000e+00 -7.955883e-06 -9.529415e-05 0.000000e+00 -9.529415e-05 -2.388120e-05 0.000000e+00 0.000000e+00 0.000000e+00 0.000000e+00 1.693695e-04 -9.351910e-05 0.000000e+00 -9.351910e-05 2.000320e-04 0.000000e+00 0.000000e+00 0.000000e+00 0.000000e+00 2.147528e-04 -1.197022e-04 0.000000e+00 -1.197022e-04 2.142891e-04 0.000000e+00 0.000000e+00 0.000000e+00 0.000000e+00 -4.438251e-05 6.393219e-05 0.000000e+00 6.393219e-05 2.162098e-05 0.000000e+00 0.000000e+00 0.000000e+00 0.000000e+00 8.131820e-05 5.098811e-05 0.000000e+00 5.098811e-05 -1.983550e-05 0.000000e+00 0.000000e+00 0.000000e+00 0.000000e+00 2.148822e-06 6.107178e-06 0.000000e+00 6.107178e-06 -5.204744e-06 0.000000e+00 0.000000e+00 0.000000e+00 0.000000e+00 -2.950984e-05 6.250939e-05 0.000000e+00 6.250939e-05 2.860702e-05 0.000000e+00 0.000000e+00 0.000000e+00 0.000000e+00 7.375774e-05 -1.921424e-05 0.000000e+00 -1.921424e-05 -1.912165e-04 0.000000e+00 0.000000e+00 0.000000e+00 0.000000e+00 -2.719317e-05 7.059859e-05 0.000000e+00 7.059859e-05 1.914552e-05 0.000000e+00 0.000000e+00 0.000000e+00 0.000000e+00 1.968314e-04 -1.059362e-04 0.000000e+00 -1.059362e-04 1.475447e-04 0.000000e+00 0.000000e+00 0.000000e+00 0.000000e+00 1.619689e-04 -9.257000e-05 0.000000e+00 -9.257000e-05 1.668386e-04 0.000000e+00 0.000000e+00 0.000000e+00 0.000000e+00 1.128490e-05 -9.455915e-05 0.000000e+00 -9.455915e-05 -5.011735e-05 0.000000e+00 0.000000e+00 0.000000e+00 0.000000e+00 6.665869e-05 -1.906713e-05 0.000000e+00 -1.906713e-05 -1.911855e-04 0.000000e+00 0.000000e+00 0.000000e+00 0.000000e+00 7.032294e-05 -1.203939e-05 0.000000e+00 -1.203939e-05 -1.638563e-04 0.000000e+00 0.000000e+00 0.000000e+00 0.000000e+00 1.160580e-04 -4.473253e-05 0.000000e+00 -4.473253e-05 -2.697697e-05 0.000000e+00 0.000000e+00 0.000000e+00 0.000000e+00 5.045841e-05 5.427860e-05 0.000000e+00 5.427860e-05 -1.171933e-05 0.000000e+00 0.000000e+00 0.000000e+00 0.000000e+00 1.549038e-04 -5.966322e-05 0.000000e+00 -5.966322e-05 2.480754e-05 0.000000e+00 0.000000e+00 0.000000e+00 0.000000e+00 1.411191e-04 -5.580742e-05 0.000000e+00 -5.580742e-05 3.228032e-05 0.000000e+00 0.000000e+00 0.000000e+00 0.000000e+00 7.113912e-05 -1.317220e-05 0.000000e+00 -1.317220e-05 -2.011989e-04 0.000000e+00 0.000000e+00 0.000000e+00 0.000000e+00 8.889044e-05 -3.459040e-05 0.000000e+00 -3.459040e-05 -8.934775e-05 0.000000e+00 0.000000e+00 0.000000e+00 0.000000e+00 8.338355e-05 -3.045748e-05 0.000000e+00 -3.045748e-05 -8.290053e-05 0.000000e+00 0.000000e+00 0.000000e+00 0.000000e+00 6.580136e-05 -1.943215e-05 0.000000e+00 -1.943215e-05 -1.875019e-04 0.000000e+00 0.000000e+00 0.000000e+00 0.000000e+00 6.526706e-05 -2.555832e-05 0.000000e+00 -2.555832e-05 -1.502121e-04 0.000000e+00 0.000000e+00 0.000000e+00 0.000000e+00 1.100668e-04 -4.380214e-05 0.000000e+00 -4.380214e-05 -4.421447e-05 0.000000e+00 0.000000e+00 0.000000e+00 0.000000e+00 9.818164e-05 -2.158368e-05 0.000000e+00 -2.158368e-05 -7.466899e-05 0.000000e+00 0.000000e+00 0.000000e+00 0.000000e+00 4.231410e-05 -1.013060e-04 0.000000e+00 -1.013060e-04 5.421610e-05 0.000000e+00 0.000000e+00 0.000000e+00 0.000000e+00 6.404618e-05 4.729913e-05 0.000000e+00 4.729913e-05 -2.019722e-05 0.000000e+00 0.000000e+00 0.000000e+00 0.000000e+00 7.434351e-05 -4.695357e-05 0.000000e+00 -4.695357e-05 -1.780959e-04 0.000000e+00 0.000000e+00 0.000000e+00 0.000000e+00 8.145905e-05 -3.185758e-05 0.000000e+00 -3.185758e-05 -1.191888e-04 0.000000e+00 0.000000e+00 0.000000e+00 0.000000e+00 1.248199e-06 5.138016e-06 0.000000e+00 5.138016e-06 -8.316220e-06 0.000000e+00 0.000000e+00 0.000000e+00 0.000000e+00 6.691194e-05 -2.192409e-05 0.000000e+00 -2.192409e-05 -1.406150e-04 0.000000e+00 0.000000e+00 0.000000e+00 0.000000e+00 7.476616e-05 -2.188465e-05 0.000000e+00 -2.188465e-05 -1.492623e-04 0.000000e+00 0.000000e+00 0.000000e+00 0.000000e+00 7.738439e-05 -2.220254e-05 0.000000e+00 -2.220254e-05 -1.406411e-04 0.000000e+00 0.000000e+00 0.000000e+00 0.000000e+00 7.213373e-05 5.303485e-05 0.000000e+00 5.303485e-05 -1.853425e-05 0.000000e+00 0.000000e+00 0.000000e+00 0.000000e+00 -7.302016e-05 -2.138499e-05 0.000000e+00 -2.138499e-05 9.202812e-05 0.000000e+00 0.000000e+00 0.000000e+00 0.000000e+00 1.115515e-04 -4.506074e-05 0.000000e+00 -4.506074e-05 -3.512387e-05 0.000000e+00 0.000000e+00 0.000000e+00 0.000000e+00 1.066673e-04 -3.903537e-05 0.000000e+00 -3.903537e-05 -3.968018e-05 0.000000e+00 0.000000e+00 0.000000e+00 0.000000e+00 1.178303e-04 -4.038631e-05 0.000000e+00 -4.038631e-05 -3.300334e-05 0.000000e+00 0.000000e+00 0.000000e+00 0.000000e+00 7.570474e-05 -1.941682e-05 0.000000e+00 -1.941682e-05 -2.264005e-04 0.000000e+00 0.000000e+00 0.000000e+00 0.000000e+00 6.660753e-05 3.756231e-05 0.000000e+00 3.756231e-05 -1.605227e-05 0.000000e+00 0.000000e+00 0.000000e+00 0.000000e+00 1.314847e-05 6.870402e-05 0.000000e+00 6.870402e-05 1.128207e-06 0.000000e+00 0.000000e+00 0.000000e+00 0.000000e+00 7.680534e-05 -1.038366e-05 0.000000e+00 -1.038366e-05 -2.304181e-04 0.000000e+00 0.000000e+00 0.000000e+00 0.000000e+00 5.715590e-05 -3.117442e-05 0.000000e+00 -3.117442e-05 -1.709720e-04 0.000000e+00 0.000000e+00 0.000000e+00 0.000000e+00 8.382367e-05 7.238122e-05 0.000000e+00 7.238122e-05 -6.009278e-06 0.000000e+00 0.000000e+00 0.000000e+00 0.000000e+00 7.264537e-05 -2.725525e-05 0.000000e+00 -2.725525e-05 -1.994601e-04 0.000000e+00 0.000000e+00 0.000000e+00 0.000000e+00 1.643445e-04 -7.605843e-05 0.000000e+00 -7.605843e-05 1.097379e-04 0.000000e+00 0.000000e+00 0.000000e+00 0.000000e+00 1.959852e-04 -9.363922e-05 0.000000e+00 -9.363922e-05 1.188733e-04 0.000000e+00 0.000000e+00 0.000000e+00 0.000000e+00 -6.974597e-05 1.459466e-05 0.000000e+00 1.459466e-05 7.911830e-05 0.000000e+00 0.000000e+00 0.000000e+00 0.000000e+00 6.416046e-05 -1.598953e-05 0.000000e+00 -1.598953e-05 -1.785918e-04 0.000000e+00 0.000000e+00 0.000000e+00 0.000000e+00 6.874773e-05 -3.044176e-05 0.000000e+00 -3.044176e-05 -1.776200e-04 0.000000e+00 0.000000e+00 0.000000e+00 0.000000e+00 7.155507e-05 -2.515069e-05 0.000000e+00 -2.515069e-05 -1.746022e-04 0.000000e+00 0.000000e+00 0.000000e+00 0.000000e+00 1.186039e-04 -3.935209e-05 0.000000e+00 -3.935209e-05 -2.436078e-05 0.000000e+00 0.000000e+00 0.000000e+00 0.000000e+00 1.201160e-04 -4.392769e-05 0.000000e+00 -4.392769e-05 -1.891581e-05 0.000000e+00 0.000000e+00 0.000000e+00 0.000000e+00 -2.444578e-07 1.445378e-05 0.000000e+00 1.445378e-05 -1.046434e-05 0.000000e+00 0.000000e+00 0.000000e+00 0.000000e+00 -6.090536e-05 -3.482940e-05 0.000000e+00 -3.482940e-05 6.116180e-05 0.000000e+00 0.000000e+00 0.000000e+00 0.000000e+00 1.973151e-05 7.435287e-05 0.000000e+00 7.435287e-05 3.073191e-06 0.000000e+00 0.000000e+00 0.000000e+00 0.000000e+00 5.481008e-05 -1.187840e-04 0.000000e+00 -1.187840e-04 4.626642e-05 0.000000e+00 0.000000e+00 0.000000e+00 0.000000e+00 7.043089e-05 -5.890013e-05 0.000000e+00 -5.890013e-05 -1.637560e-04 0.000000e+00 0.000000e+00 0.000000e+00 0.000000e+00 4.632083e-05 -5.755954e-05 0.000000e+00 -5.755954e-05 -1.361228e-04 0.000000e+00 0.000000e+00 0.000000e+00 0.000000e+00 1.061212e-04 1.444297e-05 0.000000e+00 1.444297e-05 -3.050134e-04 0.000000e+00 0.000000e+00 0.000000e+00 0.000000e+00 -6.512108e-05 -6.094908e-05 0.000000e+00 -6.094908e-05 8.283034e-05 0.000000e+00 0.000000e+00 0.000000e+00 0.000000e+00 9.498191e-05 -3.574516e-05 0.000000e+00 -3.574516e-05 -5.435350e-05 0.000000e+00 0.000000e+00 0.000000e+00 0.000000e+00 1.069439e-04 -4.036153e-05 0.000000e+00 -4.036153e-05 -5.308889e-05 0.000000e+00 0.000000e+00 0.000000e+00 0.000000e+00 -6.095124e-05 -3.676538e-05 0.000000e+00 -3.676538e-05 1.121475e-04 0.000000e+00 0.000000e+00 0.000000e+00 0.000000e+00 5.874785e-05 4.300945e-05 0.000000e+00 4.300945e-05 -1.935722e-05 0.000000e+00 0.000000e+00 0.000000e+00 0.000000e+00 7.958010e-05 -2.790872e-05 0.000000e+00 -2.790872e-05 -1.300570e-04 0.000000e+00 0.000000e+00 0.000000e+00 0.000000e+00 6.818180e-05 -2.316616e-05 0.000000e+00 -2.316616e-05 -1.309032e-04 0.000000e+00 0.000000e+00 0.000000e+00 0.000000e+00 6.777041e-05 -2.765893e-05 0.000000e+00 -2.765893e-05 -1.200470e-04 0.000000e+00 0.000000e+00 0.000000e+00 0.000000e+00 -2.570639e-05 -1.019172e-04 0.000000e+00 -1.019172e-04 1.305496e-05 0.000000e+00 0.000000e+00 0.000000e+00 0.000000e+00 1.275129e-04 -4.853264e-05 0.000000e+00 -4.853264e-05 5.274103e-07 0.000000e+00 0.000000e+00 0.000000e+00 0.000000e+00 1.365363e-04 -5.199171e-05 0.000000e+00 -5.199171e-05 -6.495750e-06 0.000000e+00 0.000000e+00 0.000000e+00 0.000000e+00 1.902648e-04 -6.666642e-05 0.000000e+00 -6.666642e-05 6.754407e-05 0.000000e+00 0.000000e+00 0.000000e+00 0.000000e+00 1.602098e-04 -7.338718e-05 0.000000e+00 -7.338718e-05 8.915916e-05 0.000000e+00 0.000000e+00 0.000000e+00 0.000000e+00 4.840564e-05 5.156084e-05 0.000000e+00 5.156084e-05 -1.461206e-05 0.000000e+00 0.000000e+00 0.000000e+00 0.000000e+00 2.693822e-05 -8.844921e-05 0.000000e+00 -8.844921e-05 -7.547698e-05 0.000000e+00 0.000000e+00 0.000000e+00 0.000000e+00 5.342695e-05 -4.474913e-05 0.000000e+00 -4.474913e-05 -1.561713e-04 0.000000e+00 0.000000e+00 0.000000e+00 0.000000e+00 -5.813349e-05 5.742570e-06 0.000000e+00 5.742570e-06 6.003668e-05 0.000000e+00 0.000000e+00 0.000000e+00 0.000000e+00 7.077388e-05 -3.173817e-05 0.000000e+00 -3.173817e-05 -1.094118e-04 0.000000e+00 0.000000e+00 0.000000e+00 0.000000e+00 2.026962e-05 -1.122295e-04 0.000000e+00 -1.122295e-04 -3.844171e-05 0.000000e+00 0.000000e+00 0.000000e+00 0.000000e+00 6.839730e-05 -2.747448e-05 0.000000e+00 -2.747448e-05 -1.613748e-04 0.000000e+00 0.000000e+00 0.000000e+00 0.000000e+00 6.587703e-05 -1.979764e-05 0.000000e+00 -1.979764e-05 -1.659933e-04 0.000000e+00 0.000000e+00 0.000000e+00 0.000000e+00 7.432338e-05 -2.228102e-05 0.000000e+00 -2.228102e-05 -1.589684e-04 0.000000e+00 0.000000e+00 0.000000e+00 0.000000e+00 7.703479e-05 7.844256e-05 0.000000e+00 7.844256e-05 8.578015e-07 0.000000e+00 0.000000e+00 0.000000e+00 0.000000e+00 7.335528e-05 1.043458e-04 0.000000e+00 1.043458e-04 4.987350e-05 0.000000e+00 0.000000e+00 0.000000e+00 0.000000e+00 5.387979e-05 -8.692031e-05 0.000000e+00 -8.692031e-05 -1.067671e-04 0.000000e+00 0.000000e+00 0.000000e+00 0.000000e+00 9.899204e-05 -3.748668e-05 0.000000e+00 -3.748668e-05 -4.715066e-05 0.000000e+00 0.000000e+00 0.000000e+00 0.000000e+00 8.778038e-05 -3.323529e-05 0.000000e+00 -3.323529e-05 -6.876722e-05 0.000000e+00 0.000000e+00 0.000000e+00 0.000000e+00 1.433108e-04 -5.660059e-05 0.000000e+00 -5.660059e-05 1.466841e-05 0.000000e+00 0.000000e+00 0.000000e+00 0.000000e+00 1.367246e-04 -4.953006e-05 0.000000e+00 -4.953006e-05 9.485503e-06 0.000000e+00 0.000000e+00 0.000000e+00 0.000000e+00 1.458974e-04 -5.104375e-05 0.000000e+00 -5.104375e-05 1.797409e-05 0.000000e+00 0.000000e+00 0.000000e+00 0.000000e+00 -5.308740e-05 -6.721222e-05 0.000000e+00 -6.721222e-05 5.504891e-05 0.000000e+00 0.000000e+00 0.000000e+00 0.000000e+00 6.765547e-05 5.747423e-05 0.000000e+00 5.747423e-05 -1.560366e-05 0.000000e+00 0.000000e+00 0.000000e+00 0.000000e+00 7.460860e-05 9.221162e-05 0.000000e+00 9.221162e-05 2.381187e-05 0.000000e+00 0.000000e+00 0.000000e+00 0.000000e+00 5.747200e-05 8.514614e-05 0.000000e+00 8.514614e-05 2.670026e-05 0.000000e+00 0.000000e+00 0.000000e+00 0.000000e+00 5.119409e-05 7.385763e-05 0.000000e+00 7.385763e-05 9.487458e-06 0.000000e+00 0.000000e+00 0.000000e+00 0.000000e+00 7.491718e-05 -4.449560e-05 0.000000e+00 -4.449560e-05 -1.658043e-04 0.000000e+00 0.000000e+00 0.000000e+00 0.000000e+00 -1.307308e-05 7.548840e-05 0.000000e+00 7.548840e-05 1.334157e-05 0.000000e+00 0.000000e+00 0.000000e+00 0.000000e+00 6.368670e-05 5.046225e-05 0.000000e+00 5.046225e-05 -1.514989e-05 0.000000e+00 0.000000e+00 0.000000e+00 0.000000e+00 1.276201e-04 -6.910718e-05 0.000000e+00 -6.910718e-05 4.324648e-06 0.000000e+00 0.000000e+00 0.000000e+00 0.000000e+00 1.176300e-04 -4.515624e-05 0.000000e+00 -4.515624e-05 -8.657084e-06 0.000000e+00 0.000000e+00 0.000000e+00 0.000000e+00 7.067314e-05 -6.124597e-05 0.000000e+00 -6.124597e-05 -1.470372e-04 0.000000e+00 0.000000e+00 0.000000e+00 0.000000e+00 3.753255e-05 -7.564395e-05 0.000000e+00 -7.564395e-05 -9.889716e-05 0.000000e+00 0.000000e+00 0.000000e+00 0.000000e+00 -7.543063e-06 6.914528e-05 0.000000e+00 6.914528e-05 7.984235e-06 0.000000e+00 0.000000e+00 0.000000e+00 0.000000e+00 5.007183e-05 5.694069e-05 0.000000e+00 5.694069e-05 -1.503923e-05 0.000000e+00 0.000000e+00 0.000000e+00 0.000000e+00 8.878727e-05 -2.770283e-05 0.000000e+00 -2.770283e-05 -1.006170e-04 0.000000e+00 0.000000e+00 0.000000e+00 0.000000e+00 3.747983e-05 -1.165721e-04 0.000000e+00 -1.165721e-04 1.239216e-04 0.000000e+00 0.000000e+00 0.000000e+00 0.000000e+00 7.848795e-05 -2.943515e-05 0.000000e+00 -2.943515e-05 -9.104399e-05 0.000000e+00 0.000000e+00 0.000000e+00 0.000000e+00 1.999034e-05 6.937940e-05 0.000000e+00 6.937940e-05 2.818005e-06 0.000000e+00 0.000000e+00 0.000000e+00 0.000000e+00 1.627786e-04 -7.142960e-05 0.000000e+00 -7.142960e-05 5.292758e-05 0.000000e+00 0.000000e+00 0.000000e+00 0.000000e+00 -4.442301e-05 4.510819e-05 0.000000e+00 4.510819e-05 7.991372e-05 0.000000e+00 0.000000e+00 0.000000e+00 0.000000e+00 8.287354e-05 -1.230571e-05 0.000000e+00 -1.230571e-05 -2.489868e-04 0.000000e+00 0.000000e+00 0.000000e+00 0.000000e+00 1.645893e-04 -6.581278e-05 0.000000e+00 -6.581278e-05 6.752101e-05 0.000000e+00 0.000000e+00 0.000000e+00 0.000000e+00 2.694058e-06 7.616376e-05 0.000000e+00 7.616376e-05 9.081339e-06 0.000000e+00 0.000000e+00 0.000000e+00 0.000000e+00 -2.956934e-05 6.120273e-05 0.000000e+00 6.120273e-05 4.260110e-05 0.000000e+00 0.000000e+00 0.000000e+00 0.000000e+00 -1.053157e-05 6.816276e-05 0.000000e+00 6.816276e-05 4.048048e-05 0.000000e+00 0.000000e+00 0.000000e+00 0.000000e+00 1.718528e-04 -6.510369e-05 0.000000e+00 -6.510369e-05 5.431039e-05 0.000000e+00 0.000000e+00 0.000000e+00 0.000000e+00 8.139935e-05 -1.858105e-05 0.000000e+00 -1.858105e-05 -2.524272e-04 0.000000e+00 0.000000e+00 0.000000e+00 0.000000e+00 -9.951600e-08 6.836675e-05 0.000000e+00 6.836675e-05 9.197689e-06 0.000000e+00 0.000000e+00 0.000000e+00 0.000000e+00 1.695974e-04 -9.050386e-05 0.000000e+00 -9.050386e-05 8.411123e-05 0.000000e+00 0.000000e+00 0.000000e+00 0.000000e+00 1.453836e-04 -6.006875e-05 0.000000e+00 -6.006875e-05 4.553091e-05 0.000000e+00 0.000000e+00 0.000000e+00 0.000000e+00 5.607413e-05 -1.061915e-04 0.000000e+00 -1.061915e-04 7.475052e-05 0.000000e+00 0.000000e+00 0.000000e+00 0.000000e+00 7.364598e-06 -8.919948e-05 0.000000e+00 -8.919948e-05 1.820242e-04 0.000000e+00 0.000000e+00 0.000000e+00 0.000000e+00 -5.838110e-05 9.769341e-06 0.000000e+00 9.769341e-06 1.093270e-04 0.000000e+00 0.000000e+00 0.000000e+00 0.000000e+00 -3.465597e-05 3.786060e-05 0.000000e+00 3.786060e-05 6.627232e-05 0.000000e+00 0.000000e+00 0.000000e+00 0.000000e+00 -5.182601e-05 -5.830165e-06 0.000000e+00 -5.830165e-06 8.252190e-05 0.000000e+00 0.000000e+00 0.000000e+00 0.000000e+00 6.558046e-05 -7.629282e-05 0.000000e+00 -7.629282e-05 -1.268636e-04 0.000000e+00 0.000000e+00 0.000000e+00 0.000000e+00 7.401022e-05 -3.156966e-05 0.000000e+00 -3.156966e-05 -2.968512e-04 0.000000e+00 0.000000e+00 0.000000e+00 0.000000e+00 -5.111665e-05 -4.913437e-05 0.000000e+00 -4.913437e-05 8.118553e-05 0.000000e+00 0.000000e+00 0.000000e+00 0.000000e+00 1.215436e-04 -6.229868e-05 0.000000e+00 -6.229868e-05 1.041645e-05 0.000000e+00 0.000000e+00 0.000000e+00 0.000000e+00 1.293192e-04 -7.091499e-05 0.000000e+00 -7.091499e-05 1.855910e-05 0.000000e+00 0.000000e+00 0.000000e+00 0.000000e+00 7.923321e-05 -3.586201e-05 0.000000e+00 -3.586201e-05 -1.286723e-04 0.000000e+00 0.000000e+00 0.000000e+00 0.000000e+00 4.521540e-05 1.361432e-04 0.000000e+00 1.361432e-04 1.596050e-04 0.000000e+00 0.000000e+00 0.000000e+00 0.000000e+00 3.515268e-05 1.030958e-04 0.000000e+00 1.030958e-04 1.243888e-04 0.000000e+00 0.000000e+00 0.000000e+00 0.000000e+00 8.788206e-06 7.797037e-05 0.000000e+00 7.797037e-05 1.682675e-05 0.000000e+00 0.000000e+00 0.000000e+00 0.000000e+00 2.576045e-05 7.189605e-06 0.000000e+00 7.189605e-06 3.546954e-04 0.000000e+00 0.000000e+00 0.000000e+00 0.000000e+00 5.023681e-05 -5.565289e-05 0.000000e+00 -5.565289e-05 -1.270289e-04 0.000000e+00 0.000000e+00 0.000000e+00 0.000000e+00 1.528337e-04 -8.256714e-05 0.000000e+00 -8.256714e-05 4.809111e-05 0.000000e+00 0.000000e+00 0.000000e+00 0.000000e+00 9.579400e-05 -3.245241e-05 0.000000e+00 -3.245241e-05 -7.655175e-05 0.000000e+00 0.000000e+00 0.000000e+00 0.000000e+00 1.590389e-04 -1.144310e-04 0.000000e+00 -1.144310e-04 3.272931e-04 0.000000e+00 0.000000e+00 0.000000e+00 0.000000e+00 7.765112e-05 -8.867619e-05 0.000000e+00 -8.867619e-05 4.024525e-04 0.000000e+00 0.000000e+00 0.000000e+00 0.000000e+00 1.047552e-04 -5.414069e-05 0.000000e+00 -5.414069e-05 -4.801260e-05 0.000000e+00 0.000000e+00 0.000000e+00 0.000000e+00 1.907450e-04 -1.263697e-04 0.000000e+00 -1.263697e-04 2.702873e-04 0.000000e+00 0.000000e+00 0.000000e+00 0.000000e+00 1.118933e-04 -9.931570e-05 0.000000e+00 -9.931570e-05 3.225111e-04 0.000000e+00 0.000000e+00 0.000000e+00 0.000000e+00 4.236841e-05 6.556105e-05 0.000000e+00 6.556105e-05 -6.210148e-06 0.000000e+00 0.000000e+00 0.000000e+00 0.000000e+00 2.881275e-05 7.755547e-05 0.000000e+00 7.755547e-05 6.935814e-06 0.000000e+00 0.000000e+00 0.000000e+00 0.000000e+00 5.283261e-06 3.861047e-05 0.000000e+00 3.861047e-05 4.036854e-04 0.000000e+00 0.000000e+00 0.000000e+00 0.000000e+00 5.709328e-05 -9.118747e-05 0.000000e+00 -9.118747e-05 -9.258057e-05 0.000000e+00 0.000000e+00 0.000000e+00 0.000000e+00 8.602688e-06 8.475202e-05 0.000000e+00 8.475202e-05 3.329170e-04 0.000000e+00 0.000000e+00 0.000000e+00 0.000000e+00 -2.735990e-06 -1.113142e-04 0.000000e+00 -1.113142e-04 -7.642195e-06 0.000000e+00 0.000000e+00 0.000000e+00 0.000000e+00 1.457166e-04 -1.068689e-04 0.000000e+00 -1.068689e-04 2.626811e-04 0.000000e+00 0.000000e+00 0.000000e+00 0.000000e+00 1.352961e-05 -1.021862e-04 0.000000e+00 -1.021862e-04 -3.223368e-05 0.000000e+00 0.000000e+00 0.000000e+00 0.000000e+00 8.113479e-05 -3.782469e-05 0.000000e+00 -3.782469e-05 -1.069250e-04 0.000000e+00 0.000000e+00 0.000000e+00 0.000000e+00 1.543162e-04 -1.214716e-04 0.000000e+00 -1.214716e-04 1.813343e-04 0.000000e+00 0.000000e+00 0.000000e+00 0.000000e+00 -4.841755e-06 -1.041600e-04 0.000000e+00 -1.041600e-04 -7.919953e-06 0.000000e+00 0.000000e+00 0.000000e+00 0.000000e+00 4.031378e-05 -1.058279e-04 0.000000e+00 -1.058279e-04 -6.543448e-05 0.000000e+00 0.000000e+00 0.000000e+00 0.000000e+00 1.051132e-04 -5.649511e-05 0.000000e+00 -5.649511e-05 -2.363927e-05 0.000000e+00 0.000000e+00 0.000000e+00 0.000000e+00 7.264522e-05 1.045011e-04 0.000000e+00 1.045011e-04 4.989149e-05 0.000000e+00 0.000000e+00 0.000000e+00 0.000000e+00 7.530949e-05 6.608036e-05 0.000000e+00 6.608036e-05 -1.093278e-05 0.000000e+00 0.000000e+00 0.000000e+00 0.000000e+00 -2.285129e-06 7.367751e-05 0.000000e+00 7.367751e-05 1.888337e-05 0.000000e+00 0.000000e+00 0.000000e+00 0.000000e+00 5.522202e-05 6.820193e-05 0.000000e+00 6.820193e-05 -3.922348e-06 0.000000e+00 0.000000e+00 0.000000e+00 0.000000e+00 8.671864e-05 -4.771432e-05 0.000000e+00 -4.771432e-05 -8.297059e-05 0.000000e+00 0.000000e+00 0.000000e+00 0.000000e+00 1.256698e-04 -6.385613e-05 0.000000e+00 -6.385613e-05 -9.152278e-06 0.000000e+00 0.000000e+00 0.000000e+00 0.000000e+00 1.143254e-04 -6.037932e-05 0.000000e+00 -6.037932e-05 -1.046832e-06 0.000000e+00 0.000000e+00 0.000000e+00 0.000000e+00 -5.182637e-05 -7.512397e-05 0.000000e+00 -7.512397e-05 9.786987e-05 0.000000e+00 0.000000e+00 0.000000e+00 0.000000e+00 1.585004e-04 -1.048747e-04 0.000000e+00 -1.048747e-04 1.249239e-04 0.000000e+00 0.000000e+00 0.000000e+00 0.000000e+00 5.529293e-05 -4.083155e-05 0.000000e+00 -4.083155e-05 -1.477167e-04 0.000000e+00 0.000000e+00 0.000000e+00 0.000000e+00 1.623349e-04 -8.868221e-05 0.000000e+00 -8.868221e-05 1.396727e-04 0.000000e+00 0.000000e+00 0.000000e+00 0.000000e+00 -4.826774e-05 -8.548194e-05 0.000000e+00 -8.548194e-05 3.723634e-05 0.000000e+00 0.000000e+00 0.000000e+00 0.000000e+00 -2.543518e-05 -9.868576e-05 0.000000e+00 -9.868576e-05 1.502099e-05 0.000000e+00 0.000000e+00 0.000000e+00 0.000000e+00 1.054550e-04 -5.871891e-05 0.000000e+00 -5.871891e-05 -3.550624e-05 0.000000e+00 0.000000e+00 0.000000e+00 0.000000e+00 1.079073e-04 -5.320696e-05 0.000000e+00 -5.320696e-05 -3.187418e-05 0.000000e+00 0.000000e+00 0.000000e+00 0.000000e+00 1.408471e-04 -8.401548e-05 0.000000e+00 -8.401548e-05 8.264825e-05 0.000000e+00 0.000000e+00 0.000000e+00 0.000000e+00 6.416242e-05 -2.807554e-05 0.000000e+00 -2.807554e-05 -1.395448e-04 0.000000e+00 0.000000e+00 0.000000e+00 0.000000e+00 7.646154e-05 -2.871469e-05 0.000000e+00 -2.871469e-05 -1.396044e-04 0.000000e+00 0.000000e+00 0.000000e+00 0.000000e+00 -2.173676e-05 -1.100738e-04 0.000000e+00 -1.100738e-04 3.148809e-05 0.000000e+00 0.000000e+00 0.000000e+00 0.000000e+00 1.326753e-04 -8.765474e-05 0.000000e+00 -8.765474e-05 1.134440e-04 0.000000e+00 0.000000e+00 0.000000e+00 0.000000e+00 6.641184e-05 -3.931898e-05 0.000000e+00 -3.931898e-05 -1.157440e-04 0.000000e+00 0.000000e+00 0.000000e+00 0.000000e+00 7.891559e-05 -4.453211e-05 0.000000e+00 -4.453211e-05 -1.148521e-04 0.000000e+00 0.000000e+00 0.000000e+00 0.000000e+00 3.232971e-05 -8.962495e-05 0.000000e+00 -8.962495e-05 -6.430854e-05 0.000000e+00 0.000000e+00 0.000000e+00 0.000000e+00 7.352882e-05 -3.413083e-05 0.000000e+00 -3.413083e-05 -1.465687e-04 0.000000e+00 0.000000e+00 0.000000e+00 0.000000e+00 8.433349e-05 -4.784563e-05 0.000000e+00 -4.784563e-05 -6.892115e-05 0.000000e+00 0.000000e+00 0.000000e+00 0.000000e+00 9.504392e-05 -5.150947e-05 0.000000e+00 -5.150947e-05 -3.969351e-05 0.000000e+00 0.000000e+00 0.000000e+00 0.000000e+00 8.465342e-06 7.917710e-05 0.000000e+00 7.917710e-05 2.378679e-04 0.000000e+00 0.000000e+00 0.000000e+00 0.000000e+00 1.314314e-05 1.037759e-04 0.000000e+00 1.037759e-04 2.549840e-04 0.000000e+00 0.000000e+00 0.000000e+00 0.000000e+00 1.143241e-04 -9.629062e-05 0.000000e+00 -9.629062e-05 2.056592e-04 0.000000e+00 0.000000e+00 0.000000e+00 0.000000e+00 1.442414e-04 -1.250115e-04 0.000000e+00 -1.250115e-04 2.332307e-04 0.000000e+00 0.000000e+00 0.000000e+00 0.000000e+00 4.045430e-05 -1.023547e-04 0.000000e+00 -1.023547e-04 2.910850e-05 0.000000e+00 0.000000e+00 0.000000e+00 0.000000e+00 1.197941e-04 -5.825813e-05 0.000000e+00 -5.825813e-05 -2.354155e-05 0.000000e+00 0.000000e+00 0.000000e+00 0.000000e+00 8.647026e-05 -4.198488e-05 0.000000e+00 -4.198488e-05 -7.720765e-05 0.000000e+00 0.000000e+00 0.000000e+00 0.000000e+00 -4.572080e-05 -9.436712e-05 0.000000e+00 -9.436712e-05 5.702143e-05 0.000000e+00 0.000000e+00 0.000000e+00 0.000000e+00 5.973643e-05 -3.108200e-05 0.000000e+00 -3.108200e-05 -1.471430e-04 0.000000e+00 0.000000e+00 0.000000e+00 0.000000e+00 1.032739e-04 -4.546521e-05 0.000000e+00 -4.546521e-05 -5.966631e-05 0.000000e+00 0.000000e+00 0.000000e+00 0.000000e+00 9.109725e-05 -4.656876e-05 0.000000e+00 -4.656876e-05 -5.976300e-05 0.000000e+00 0.000000e+00 0.000000e+00 0.000000e+00 8.891129e-05 -4.899105e-05 0.000000e+00 -4.899105e-05 -4.920565e-05 0.000000e+00 0.000000e+00 0.000000e+00 0.000000e+00 9.561039e-05 -4.389584e-05 0.000000e+00 -4.389584e-05 -6.766658e-05 0.000000e+00 0.000000e+00 0.000000e+00 0.000000e+00 -3.643328e-05 -8.375338e-05 0.000000e+00 -8.375338e-05 6.432794e-05 0.000000e+00 0.000000e+00 0.000000e+00 0.000000e+00 6.304848e-05 -7.415815e-05 0.000000e+00 -7.415815e-05 -1.110589e-04 0.000000e+00 0.000000e+00 0.000000e+00 0.000000e+00 4.279467e-06 5.307920e-05 0.000000e+00 5.307920e-05 2.992453e-04 0.000000e+00 0.000000e+00 0.000000e+00 0.000000e+00 9.872613e-05 -6.952230e-05 0.000000e+00 -6.952230e-05 -3.908082e-05 0.000000e+00 0.000000e+00 0.000000e+00 0.000000e+00 2.544326e-05 -1.156621e-04 0.000000e+00 -1.156621e-04 -2.360761e-05 0.000000e+00 0.000000e+00 0.000000e+00 0.000000e+00 1.075740e-06 6.793325e-05 0.000000e+00 6.793325e-05 1.713427e-05 0.000000e+00 0.000000e+00 0.000000e+00 0.000000e+00 4.696350e-05 -8.835722e-05 0.000000e+00 -8.835722e-05 -7.603580e-05 0.000000e+00 0.000000e+00 0.000000e+00 0.000000e+00 6.027164e-05 -6.768133e-05 0.000000e+00 -6.768133e-05 -1.057717e-04 0.000000e+00 0.000000e+00 0.000000e+00 0.000000e+00 1.473021e-04 -8.671937e-05 0.000000e+00 -8.671937e-05 6.970929e-05 0.000000e+00 0.000000e+00 0.000000e+00 0.000000e+00 7.478852e-05 -3.406630e-05 0.000000e+00 -3.406630e-05 -9.877965e-05 0.000000e+00 0.000000e+00 0.000000e+00 0.000000e+00 -1.091139e-05 -4.609046e-05 0.000000e+00 -4.609046e-05 1.924228e-04 0.000000e+00 0.000000e+00 0.000000e+00 0.000000e+00 4.460795e-07 -1.171096e-04 0.000000e+00 -1.171096e-04 4.960895e-06 0.000000e+00 0.000000e+00 0.000000e+00 0.000000e+00 -2.109971e-05 -1.028753e-04 0.000000e+00 -1.028753e-04 3.072326e-05 0.000000e+00 0.000000e+00 0.000000e+00 0.000000e+00 -2.184467e-06 -1.096733e-04 0.000000e+00 -1.096733e-04 1.058045e-05 0.000000e+00 0.000000e+00 0.000000e+00 0.000000e+00 5.853735e-05 -3.195132e-05 0.000000e+00 -3.195132e-05 -1.573816e-04 0.000000e+00 0.000000e+00 0.000000e+00 0.000000e+00 1.516366e-04 -6.931293e-05 0.000000e+00 -6.931293e-05 2.930038e-05 0.000000e+00 0.000000e+00 0.000000e+00 0.000000e+00 1.333114e-04 -6.914021e-05 0.000000e+00 -6.914021e-05 2.930153e-05 0.000000e+00 0.000000e+00 0.000000e+00 0.000000e+00 1.269278e-04 -7.534677e-05 0.000000e+00 -7.534677e-05 4.629727e-05 0.000000e+00 0.000000e+00 0.000000e+00 0.000000e+00 3.184237e-05 9.885623e-05 0.000000e+00 9.885623e-05 1.031046e-04 0.000000e+00 0.000000e+00 0.000000e+00 0.000000e+00 5.508951e-05 5.904492e-05 0.000000e+00 5.904492e-05 -1.281897e-05 0.000000e+00 0.000000e+00 0.000000e+00 0.000000e+00 -1.359224e-05 7.605020e-05 0.000000e+00 7.605020e-05 2.178740e-05 0.000000e+00 0.000000e+00 0.000000e+00 0.000000e+00 1.680360e-04 -9.842132e-05 0.000000e+00 -9.842132e-05 1.264995e-04 0.000000e+00 0.000000e+00 0.000000e+00 0.000000e+00 7.038490e-05 -5.623549e-05 0.000000e+00 -5.623549e-05 -1.365628e-04 0.000000e+00 0.000000e+00 0.000000e+00 0.000000e+00 1.225633e-04 -8.375727e-05 0.000000e+00 -8.375727e-05 6.947908e-05 0.000000e+00 0.000000e+00 0.000000e+00 0.000000e+00 1.572916e-06 -6.662036e-06 0.000000e+00 -6.662036e-06 3.464404e-04 0.000000e+00 0.000000e+00 0.000000e+00 0.000000e+00 1.148426e-04 -1.035184e-04 0.000000e+00 -1.035184e-04 1.031505e-04 0.000000e+00 0.000000e+00 0.000000e+00 0.000000e+00 5.181448e-05 7.173790e-05 0.000000e+00 7.173790e-05 -4.751358e-06 0.000000e+00 0.000000e+00 0.000000e+00 0.000000e+00 1.304749e-04 -9.833095e-05 0.000000e+00 -9.833095e-05 6.484795e-05 0.000000e+00 0.000000e+00 0.000000e+00 0.000000e+00 -5.136042e-05 -5.186273e-05 0.000000e+00 -5.186273e-05 1.340798e-04 0.000000e+00 0.000000e+00 0.000000e+00 0.000000e+00 6.607721e-05 -3.475183e-05 0.000000e+00 -3.475183e-05 -1.283493e-04 0.000000e+00 0.000000e+00 0.000000e+00 0.000000e+00 1.212624e-04 -1.024508e-04 0.000000e+00 -1.024508e-04 1.708584e-04 0.000000e+00 0.000000e+00 0.000000e+00 0.000000e+00 1.344062e-04 -4.396257e-05 0.000000e+00 -4.396257e-05 -1.894961e-05 0.000000e+00 0.000000e+00 0.000000e+00 0.000000e+00 7.512822e-05 -3.981952e-05 0.000000e+00 -3.981952e-05 -1.553406e-04 0.000000e+00 0.000000e+00 0.000000e+00 0.000000e+00 1.368523e-04 -1.023493e-04 0.000000e+00 -1.023493e-04 1.028446e-04 0.000000e+00 0.000000e+00 0.000000e+00 0.000000e+00 -1.026122e-05 6.629656e-05 0.000000e+00 6.629656e-05 5.187421e-05 0.000000e+00 0.000000e+00 0.000000e+00 0.000000e+00 3.713540e-05 -5.880914e-05 0.000000e+00 -5.880914e-05 3.786907e-04 0.000000e+00 0.000000e+00 0.000000e+00 0.000000e+00 2.644690e-05 -2.758499e-05 0.000000e+00 -2.758499e-05 2.901788e-04 0.000000e+00 0.000000e+00 0.000000e+00 0.000000e+00 1.234061e-04 -1.156697e-04 0.000000e+00 -1.156697e-04 1.556795e-04 0.000000e+00 0.000000e+00 0.000000e+00 0.000000e+00 4.220524e-05 -1.061047e-04 0.000000e+00 -1.061047e-04 -4.570823e-05 0.000000e+00 0.000000e+00 0.000000e+00 0.000000e+00 7.543560e-05 -6.329358e-05 0.000000e+00 -6.329358e-05 -6.793887e-05 0.000000e+00 0.000000e+00 0.000000e+00 0.000000e+00 6.819543e-05 -3.020665e-05 0.000000e+00 -3.020665e-05 -1.384191e-04 0.000000e+00 0.000000e+00 0.000000e+00 0.000000e+00 6.716226e-05 -4.660417e-05 0.000000e+00 -4.660417e-05 -1.294554e-04 0.000000e+00 0.000000e+00 0.000000e+00 0.000000e+00 1.170618e-04 -8.617455e-05 0.000000e+00 -8.617455e-05 2.155379e-05 0.000000e+00 0.000000e+00 0.000000e+00 0.000000e+00 5.279129e-05 -8.488817e-05 0.000000e+00 -8.488817e-05 -7.527525e-05 0.000000e+00 0.000000e+00 0.000000e+00 0.000000e+00 7.444296e-05 -4.149504e-05 0.000000e+00 -4.149504e-05 -8.500151e-05 0.000000e+00 0.000000e+00 0.000000e+00 0.000000e+00 -1.953837e-06 1.093334e-05 0.000000e+00 1.093334e-05 2.591667e-04 0.000000e+00 0.000000e+00 0.000000e+00 0.000000e+00 1.058801e-04 -9.137720e-05 0.000000e+00 -9.137720e-05 8.690717e-05 0.000000e+00 0.000000e+00 0.000000e+00 0.000000e+00 -3.793728e-05 -9.078169e-05 0.000000e+00 -9.078169e-05 4.053567e-05 0.000000e+00 0.000000e+00 0.000000e+00 0.000000e+00 9.212140e-05 -1.035275e-04 0.000000e+00 -1.035275e-04 1.512281e-04 0.000000e+00 0.000000e+00 0.000000e+00 0.000000e+00 9.301719e-05 -1.120037e-04 0.000000e+00 -1.120037e-04 1.337269e-04 0.000000e+00 0.000000e+00 0.000000e+00 0.000000e+00 8.780265e-05 -6.547840e-05 0.000000e+00 -6.547840e-05 -2.885505e-05 0.000000e+00 0.000000e+00 0.000000e+00 0.000000e+00 9.927792e-05 -7.473541e-05 0.000000e+00 -7.473541e-05 -2.298833e-05 0.000000e+00 0.000000e+00 0.000000e+00 0.000000e+00 6.102375e-05 -3.645902e-05 0.000000e+00 -3.645902e-05 -1.409179e-04 0.000000e+00 0.000000e+00 0.000000e+00 0.000000e+00 8.008731e-05 -5.780095e-05 0.000000e+00 -5.780095e-05 -5.544482e-05 0.000000e+00 0.000000e+00 0.000000e+00 0.000000e+00 9.872192e-05 -5.874109e-05 0.000000e+00 -5.874109e-05 -5.545730e-05 0.000000e+00 0.000000e+00 0.000000e+00 0.000000e+00 8.505900e-06 8.087824e-05 0.000000e+00 8.087824e-05 1.727019e-04 0.000000e+00 0.000000e+00 0.000000e+00 0.000000e+00 5.467464e-05 -1.174282e-04 0.000000e+00 -1.174282e-04 7.454326e-05 0.000000e+00 0.000000e+00 0.000000e+00 0.000000e+00 -3.642168e-05 -8.932166e-05 0.000000e+00 -8.932166e-05 1.052791e-04 0.000000e+00 0.000000e+00 0.000000e+00 0.000000e+00 1.085323e-05 7.962215e-05 0.000000e+00 7.962215e-05 2.477948e-05 0.000000e+00 0.000000e+00 0.000000e+00 0.000000e+00 2.717278e-05 6.974654e-05 0.000000e+00 6.974654e-05 6.409059e-06 0.000000e+00 0.000000e+00 0.000000e+00 0.000000e+00 1.483747e-04 -1.058319e-04 0.000000e+00 -1.058319e-04 2.331730e-04 0.000000e+00 0.000000e+00 0.000000e+00 0.000000e+00 5.574062e-05 6.885949e-05 0.000000e+00 6.885949e-05 -4.235945e-06 0.000000e+00 0.000000e+00 0.000000e+00 0.000000e+00 8.170204e-05 -6.175538e-05 0.000000e+00 -6.175538e-05 -4.193939e-05 0.000000e+00 0.000000e+00 0.000000e+00 0.000000e+00 5.662836e-05 -4.964607e-05 0.000000e+00 -4.964607e-05 -1.236027e-04 0.000000e+00 0.000000e+00 0.000000e+00 0.000000e+00 -1.288892e-05 2.767754e-05 0.000000e+00 2.767754e-05 2.924805e-04 0.000000e+00 0.000000e+00 0.000000e+00 0.000000e+00 1.066614e-04 -5.501390e-05 0.000000e+00 -5.501390e-05 -1.259933e-05 0.000000e+00 0.000000e+00 0.000000e+00 0.000000e+00 -2.294122e-05 6.503508e-05 0.000000e+00 6.503508e-05 1.694490e-05 0.000000e+00 0.000000e+00 0.000000e+00 0.000000e+00 1.351324e-04 -8.314170e-05 0.000000e+00 -8.314170e-05 3.744393e-05 0.000000e+00 0.000000e+00 0.000000e+00 0.000000e+00 1.348163e-04 -6.515335e-05 0.000000e+00 -6.515335e-05 2.009308e-05 0.000000e+00 0.000000e+00 0.000000e+00 0.000000e+00 -3.641268e-05 -6.691223e-05 0.000000e+00 -6.691223e-05 9.247883e-05 0.000000e+00 0.000000e+00 0.000000e+00 0.000000e+00 7.140483e-05 -6.398388e-05 0.000000e+00 -6.398388e-05 -8.501611e-05 0.000000e+00 0.000000e+00 0.000000e+00 0.000000e+00 2.342500e-05 8.079622e-05 0.000000e+00 8.079622e-05 2.419401e-05 0.000000e+00 0.000000e+00 0.000000e+00 0.000000e+00 3.669409e-05 8.102407e-05 0.000000e+00 8.102407e-05 1.691608e-05 0.000000e+00 0.000000e+00 0.000000e+00 0.000000e+00 -3.591692e-05 -9.976728e-05 0.000000e+00 -9.976728e-05 7.102093e-05 0.000000e+00 0.000000e+00 0.000000e+00 0.000000e+00 2.547752e-05 7.311388e-05 0.000000e+00 7.311388e-05 1.912784e-05 0.000000e+00 0.000000e+00 0.000000e+00 0.000000e+00 -3.364662e-05 4.770240e-05 0.000000e+00 4.770240e-05 1.155148e-04 0.000000e+00 0.000000e+00 0.000000e+00 0.000000e+00 9.022776e-05 -5.972656e-05 0.000000e+00 -5.972656e-05 -6.715189e-05 0.000000e+00 0.000000e+00 0.000000e+00 0.000000e+00 4.458008e-05 9.000538e-05 0.000000e+00 9.000538e-05 3.389406e-05 0.000000e+00 0.000000e+00 0.000000e+00 0.000000e+00 2.522603e-05 8.279585e-05 0.000000e+00 8.279585e-05 6.598197e-05 0.000000e+00 0.000000e+00 0.000000e+00 0.000000e+00 -1.500739e-05 -1.095644e-04 0.000000e+00 -1.095644e-04 3.669260e-05 0.000000e+00 0.000000e+00 0.000000e+00 0.000000e+00 1.057187e-04 -9.112287e-05 0.000000e+00 -9.112287e-05 6.280069e-05 0.000000e+00 0.000000e+00 0.000000e+00 0.000000e+00 3.753783e-05 9.668291e-05 0.000000e+00 9.668291e-05 6.734055e-05 0.000000e+00 0.000000e+00 0.000000e+00 0.000000e+00 9.266144e-05 -2.113369e-05 0.000000e+00 -2.113369e-05 -2.499952e-04 0.000000e+00 0.000000e+00 0.000000e+00 0.000000e+00 7.488529e-05 -4.530458e-05 0.000000e+00 -4.530458e-05 -1.292377e-04 0.000000e+00 0.000000e+00 0.000000e+00 0.000000e+00 7.537590e-05 -2.851250e-05 0.000000e+00 -2.851250e-05 -1.771139e-04 0.000000e+00 0.000000e+00 0.000000e+00 0.000000e+00 -9.786302e-06 5.801595e-05 0.000000e+00 5.801595e-05 6.860939e-05 0.000000e+00 0.000000e+00 0.000000e+00 0.000000e+00 1.145274e-04 -8.187879e-05 0.000000e+00 -8.187879e-05 6.088956e-06 0.000000e+00 0.000000e+00 0.000000e+00 0.000000e+00 1.023577e-04 -7.538276e-05 0.000000e+00 -7.538276e-05 1.373968e-05 0.000000e+00 0.000000e+00 0.000000e+00 0.000000e+00 -5.187341e-05 -1.843786e-06 0.000000e+00 -1.843786e-06 1.393770e-04 0.000000e+00 0.000000e+00 0.000000e+00 0.000000e+00 -3.435741e-05 2.723571e-05 0.000000e+00 2.723571e-05 9.463390e-05 0.000000e+00 0.000000e+00 0.000000e+00 0.000000e+00 -4.628782e-05 -2.360458e-05 0.000000e+00 -2.360458e-05 1.046588e-04 0.000000e+00 0.000000e+00 0.000000e+00 0.000000e+00 8.610861e-05 -1.270583e-05 0.000000e+00 -1.270583e-05 -2.577612e-04 0.000000e+00 0.000000e+00 0.000000e+00 0.000000e+00 8.163049e-05 -5.701553e-05 0.000000e+00 -5.701553e-05 -8.123258e-05 0.000000e+00 0.000000e+00 0.000000e+00 0.000000e+00 5.170354e-05 -9.463419e-05 0.000000e+00 -9.463419e-05 -5.046325e-05 0.000000e+00 0.000000e+00 0.000000e+00 0.000000e+00 1.107250e-04 -1.119654e-04 0.000000e+00 -1.119654e-04 3.058818e-04 0.000000e+00 0.000000e+00 0.000000e+00 0.000000e+00 -2.327298e-07 -4.074292e-05 0.000000e+00 -4.074292e-05 2.944941e-04 0.000000e+00 0.000000e+00 0.000000e+00 0.000000e+00 1.024834e-04 -1.124734e-04 0.000000e+00 -1.124734e-04 8.807231e-05 0.000000e+00 0.000000e+00 0.000000e+00 0.000000e+00 7.059958e-05 -9.749343e-05 0.000000e+00 -9.749343e-05 1.243775e-04 0.000000e+00 0.000000e+00 0.000000e+00 0.000000e+00 9.483698e-05 -6.811915e-05 0.000000e+00 -6.811915e-05 -1.665529e-05 0.000000e+00 0.000000e+00 0.000000e+00 0.000000e+00 9.084868e-05 -8.584290e-05 0.000000e+00 -8.584290e-05 -2.613504e-05 0.000000e+00 0.000000e+00 0.000000e+00 0.000000e+00 6.225227e-05 -5.710160e-05 0.000000e+00 -5.710160e-05 3.389202e-04 0.000000e+00 0.000000e+00 0.000000e+00 0.000000e+00 -1.594839e-05 -9.261039e-05 0.000000e+00 -9.261039e-05 6.894635e-05 0.000000e+00 0.000000e+00 0.000000e+00 0.000000e+00 1.115125e-04 -9.477052e-05 0.000000e+00 -9.477052e-05 4.803801e-05 0.000000e+00 0.000000e+00 0.000000e+00 0.000000e+00 5.766825e-05 -7.531095e-05 0.000000e+00 -7.531095e-05 -8.101403e-05 0.000000e+00 0.000000e+00 0.000000e+00 0.000000e+00 8.353435e-05 -1.001849e-04 0.000000e+00 -1.001849e-04 3.007778e-04 0.000000e+00 0.000000e+00 0.000000e+00 0.000000e+00 7.858126e-05 -5.041851e-05 0.000000e+00 -5.041851e-05 -9.910683e-05 0.000000e+00 0.000000e+00 0.000000e+00 0.000000e+00 6.888795e-05 -4.259878e-05 0.000000e+00 -4.259878e-05 -1.037682e-04 0.000000e+00 0.000000e+00 0.000000e+00 0.000000e+00 8.482901e-05 -4.513980e-05 0.000000e+00 -4.513980e-05 -9.588882e-05 0.000000e+00 0.000000e+00 0.000000e+00 0.000000e+00 9.148246e-06 -1.202368e-04 0.000000e+00 -1.202368e-04 1.892425e-05 0.000000e+00 0.000000e+00 0.000000e+00 0.000000e+00 1.191311e-04 -8.481753e-05 0.000000e+00 -8.481753e-05 3.751684e-05 0.000000e+00 0.000000e+00 0.000000e+00 0.000000e+00 1.179295e-04 -7.801467e-05 0.000000e+00 -7.801467e-05 2.453223e-05 0.000000e+00 0.000000e+00 0.000000e+00 0.000000e+00 9.107612e-05 -7.549568e-05 0.000000e+00 -7.549568e-05 -4.772211e-05 0.000000e+00 0.000000e+00 0.000000e+00 0.000000e+00 7.067720e-05 -6.974890e-05 0.000000e+00 -6.974890e-05 -4.906418e-05 0.000000e+00 0.000000e+00 0.000000e+00 0.000000e+00 3.524433e-05 1.025571e-04 0.000000e+00 1.025571e-04 1.049517e-04 0.000000e+00 0.000000e+00 0.000000e+00 0.000000e+00 9.760466e-05 -1.206163e-04 0.000000e+00 -1.206163e-04 2.349750e-04 0.000000e+00 0.000000e+00 0.000000e+00 0.000000e+00 9.795469e-05 -9.976167e-05 0.000000e+00 -9.976167e-05 4.756664e-05 0.000000e+00 0.000000e+00 0.000000e+00 0.000000e+00 7.256760e-05 -9.476144e-05 0.000000e+00 -9.476144e-05 2.083293e-04 0.000000e+00 0.000000e+00 0.000000e+00 0.000000e+00 7.116308e-05 -1.036101e-04 0.000000e+00 -1.036101e-04 1.868523e-04 0.000000e+00 0.000000e+00 0.000000e+00 0.000000e+00 7.653945e-05 -7.888172e-05 0.000000e+00 -7.888172e-05 2.460945e-04 0.000000e+00 0.000000e+00 0.000000e+00 0.000000e+00 -3.694102e-05 -6.977153e-05 0.000000e+00 -6.977153e-05 1.494819e-04 0.000000e+00 0.000000e+00 0.000000e+00 0.000000e+00 -1.316039e-05 3.812869e-05 0.000000e+00 3.812869e-05 2.314528e-04 0.000000e+00 0.000000e+00 0.000000e+00 0.000000e+00 2.046263e-05 -1.124828e-04 0.000000e+00 -1.124828e-04 -7.000549e-06 0.000000e+00 0.000000e+00 0.000000e+00 0.000000e+00 4.217098e-05 -9.960780e-05 0.000000e+00 -9.960780e-05 -4.328738e-05 0.000000e+00 0.000000e+00 0.000000e+00 0.000000e+00 4.109205e-05 -1.084635e-04 0.000000e+00 -1.084635e-04 -1.597243e-05 0.000000e+00 0.000000e+00 0.000000e+00 0.000000e+00 5.702461e-05 -8.941463e-05 0.000000e+00 -8.941463e-05 -4.965929e-05 0.000000e+00 0.000000e+00 0.000000e+00 0.000000e+00 -3.200863e-06 7.602386e-05 0.000000e+00 7.602386e-05 1.151602e-04 0.000000e+00 0.000000e+00 0.000000e+00 0.000000e+00 -1.087361e-05 5.980588e-05 0.000000e+00 5.980588e-05 1.072366e-04 0.000000e+00 0.000000e+00 0.000000e+00 0.000000e+00 -6.994261e-06 7.405405e-05 0.000000e+00 7.405405e-05 1.567110e-04 0.000000e+00 0.000000e+00 0.000000e+00 0.000000e+00 -3.364914e-05 3.507412e-05 0.000000e+00 3.507412e-05 1.543727e-04 0.000000e+00 0.000000e+00 0.000000e+00 0.000000e+00 1.041974e-04 -7.020625e-05 0.000000e+00 -7.020625e-05 -4.359276e-06 0.000000e+00 0.000000e+00 0.000000e+00 0.000000e+00 8.000666e-05 -1.020394e-04 0.000000e+00 -1.020394e-04 8.323393e-05 0.000000e+00 0.000000e+00 0.000000e+00 0.000000e+00 3.464454e-05 -9.239193e-05 0.000000e+00 -9.239193e-05 1.253152e-04 0.000000e+00 0.000000e+00 0.000000e+00 0.000000e+00 4.825628e-05 -9.774271e-05 0.000000e+00 -9.774271e-05 1.866761e-04 0.000000e+00 0.000000e+00 0.000000e+00 0.000000e+00 7.408770e-05 -7.517719e-05 0.000000e+00 -7.517719e-05 -3.203553e-05 0.000000e+00 0.000000e+00 0.000000e+00 0.000000e+00 7.262228e-05 -6.049095e-05 0.000000e+00 -6.049095e-05 -1.067685e-04 0.000000e+00 0.000000e+00 0.000000e+00 0.000000e+00 1.101173e-04 -7.845112e-05 0.000000e+00 -7.845112e-05 -1.031560e-05 0.000000e+00 0.000000e+00 0.000000e+00 0.000000e+00 3.523446e-05 -8.060307e-05 0.000000e+00 -8.060307e-05 3.095597e-04 0.000000e+00 0.000000e+00 0.000000e+00 0.000000e+00 -3.188059e-05 -4.719897e-05 0.000000e+00 -4.719897e-05 1.237557e-04 0.000000e+00 0.000000e+00 0.000000e+00 0.000000e+00 6.864993e-05 -7.335182e-05 0.000000e+00 -7.335182e-05 -8.068025e-05 0.000000e+00 0.000000e+00 0.000000e+00 0.000000e+00 9.216305e-05 -9.324609e-05 0.000000e+00 -9.324609e-05 -5.603971e-06 0.000000e+00 0.000000e+00 0.000000e+00 0.000000e+00 8.725964e-05 -4.128404e-05 0.000000e+00 -4.128404e-05 -9.576928e-05 0.000000e+00 0.000000e+00 0.000000e+00 0.000000e+00 7.696983e-05 -8.060367e-05 0.000000e+00 -8.060367e-05 -1.526525e-05 0.000000e+00 0.000000e+00 0.000000e+00 0.000000e+00 1.098701e-04 -1.100027e-05 0.000000e+00 -1.100027e-05 -3.139004e-04 0.000000e+00 0.000000e+00 0.000000e+00 0.000000e+00 -1.518715e-05 -1.036007e-04 0.000000e+00 -1.036007e-04 4.707191e-05 0.000000e+00 0.000000e+00 0.000000e+00 0.000000e+00 6.140886e-05 -4.825734e-05 0.000000e+00 -4.825734e-05 -1.110923e-04 0.000000e+00 0.000000e+00 0.000000e+00 0.000000e+00 -1.005702e-05 -9.159291e-05 0.000000e+00 -9.159291e-05 9.695299e-05 0.000000e+00 0.000000e+00 0.000000e+00 0.000000e+00 -1.702374e-05 -9.511518e-05 0.000000e+00 -9.511518e-05 1.015574e-04 0.000000e+00 0.000000e+00 0.000000e+00 0.000000e+00 8.851328e-05 -8.796046e-05 0.000000e+00 -8.796046e-05 3.363408e-05 0.000000e+00 0.000000e+00 0.000000e+00 0.000000e+00 2.447219e-05 -8.205527e-05 0.000000e+00 -8.205527e-05 2.519189e-04 0.000000e+00 0.000000e+00 0.000000e+00 0.000000e+00 2.023700e-05 7.434509e-05 0.000000e+00 7.434509e-05 3.879347e-05 0.000000e+00 0.000000e+00 0.000000e+00 0.000000e+00 -4.649142e-05 -2.235018e-05 0.000000e+00 -2.235018e-05 1.743679e-04 0.000000e+00 0.000000e+00 0.000000e+00 0.000000e+00 6.630435e-06 -1.099909e-04 0.000000e+00 -1.099909e-04 2.480077e-05 0.000000e+00 0.000000e+00 0.000000e+00 0.000000e+00 2.927538e-05 -1.155359e-04 0.000000e+00 -1.155359e-04 -6.092762e-06 0.000000e+00 0.000000e+00 0.000000e+00 0.000000e+00 -2.518034e-06 -2.812080e-05 0.000000e+00 -2.812080e-05 2.276077e-04 0.000000e+00 0.000000e+00 0.000000e+00 0.000000e+00 -2.056247e-05 -1.876272e-05 0.000000e+00 -1.876272e-05 2.574008e-04 0.000000e+00 0.000000e+00 0.000000e+00 0.000000e+00 2.641969e-05 -1.173091e-04 0.000000e+00 -1.173091e-04 1.828591e-05 0.000000e+00 0.000000e+00 0.000000e+00 0.000000e+00 4.909319e-05 -1.068077e-04 0.000000e+00 -1.068077e-04 -1.602677e-05 0.000000e+00 0.000000e+00 0.000000e+00 0.000000e+00 6.767046e-05 -6.444445e-05 0.000000e+00 -6.444445e-05 -1.089318e-04 0.000000e+00 0.000000e+00 0.000000e+00 0.000000e+00 8.290704e-05 -1.075863e-04 0.000000e+00 -1.075863e-04 6.800268e-05 0.000000e+00 0.000000e+00 0.000000e+00 0.000000e+00 -3.189583e-05 -4.819034e-05 0.000000e+00 -4.819034e-05 1.860293e-04 0.000000e+00 0.000000e+00 0.000000e+00 0.000000e+00 8.641320e-05 -8.347616e-05 0.000000e+00 -8.347616e-05 6.094488e-07 0.000000e+00 0.000000e+00 0.000000e+00 0.000000e+00 7.563670e-05 -5.771159e-05 0.000000e+00 -5.771159e-05 -1.070358e-04 0.000000e+00 0.000000e+00 0.000000e+00 0.000000e+00 8.151562e-05 -7.958142e-05 0.000000e+00 -7.958142e-05 -6.065188e-05 0.000000e+00 0.000000e+00 0.000000e+00 0.000000e+00 6.864485e-05 -1.146929e-04 0.000000e+00 -1.146929e-04 1.204063e-04 0.000000e+00 0.000000e+00 0.000000e+00 0.000000e+00 7.719923e-05 -1.078247e-04 0.000000e+00 -1.078247e-04 1.730481e-05 0.000000e+00 0.000000e+00 0.000000e+00 0.000000e+00 6.073985e-05 -7.822717e-05 0.000000e+00 -7.822717e-05 -4.031348e-05 0.000000e+00 0.000000e+00 0.000000e+00 0.000000e+00 5.950005e-05 -9.967743e-05 0.000000e+00 -9.967743e-05 -2.916827e-05 0.000000e+00 0.000000e+00 0.000000e+00 0.000000e+00 8.036340e-05 -9.144287e-05 0.000000e+00 -9.144287e-05 -3.276599e-05 0.000000e+00 0.000000e+00 0.000000e+00 0.000000e+00 8.242004e-05 -1.108420e-04 0.000000e+00 -1.108420e-04 4.210341e-05 0.000000e+00 0.000000e+00 0.000000e+00 0.000000e+00 6.478981e-05 -9.586449e-05 0.000000e+00 -9.586449e-05 6.103502e-05 0.000000e+00 0.000000e+00 0.000000e+00 0.000000e+00 2.389206e-05 -7.627472e-05 0.000000e+00 -7.627472e-05 1.981411e-04 0.000000e+00 0.000000e+00 0.000000e+00 0.000000e+00 -5.732855e-06 -6.237552e-05 0.000000e+00 -6.237552e-05 2.436331e-04 0.000000e+00 0.000000e+00 0.000000e+00 0.000000e+00 -1.402826e-05 2.638582e-05 0.000000e+00 2.638582e-05 1.992716e-04 0.000000e+00 0.000000e+00 0.000000e+00 0.000000e+00 -3.263472e-05 1.469905e-05 0.000000e+00 1.469905e-05 1.286411e-04 0.000000e+00 0.000000e+00 0.000000e+00 0.000000e+00 4.824072e-05 -1.038410e-04 0.000000e+00 -1.038410e-04 1.650139e-04 0.000000e+00 0.000000e+00 0.000000e+00 0.000000e+00 3.346820e-05 -9.338252e-05 0.000000e+00 -9.338252e-05 1.584291e-04 0.000000e+00 0.000000e+00 0.000000e+00 0.000000e+00 8.797530e-06 -8.124939e-05 0.000000e+00 -8.124939e-05 2.051101e-04 0.000000e+00 0.000000e+00 0.000000e+00 0.000000e+00 -9.019962e-06 -1.162349e-04 0.000000e+00 -1.162349e-04 6.615219e-05 0.000000e+00 0.000000e+00 0.000000e+00 0.000000e+00 8.045452e-05 -1.005081e-04 0.000000e+00 -1.005081e-04 -1.142845e-05 0.000000e+00 0.000000e+00 0.000000e+00 0.000000e+00 6.271348e-05 -8.965847e-05 0.000000e+00 -8.965847e-05 -1.714205e-05 0.000000e+00 0.000000e+00 0.000000e+00 0.000000e+00 6.133949e-05 -9.333092e-05 0.000000e+00 -9.333092e-05 4.794608e-06 0.000000e+00 0.000000e+00 0.000000e+00 0.000000e+00 -7.950579e-06 7.384007e-05 0.000000e+00 7.384007e-05 2.144850e-04 0.000000e+00 0.000000e+00 0.000000e+00 0.000000e+00 -3.006347e-05 1.349726e-05 0.000000e+00 1.349726e-05 2.257173e-04 0.000000e+00 0.000000e+00 0.000000e+00 0.000000e+00 -2.756471e-06 -1.037638e-04 0.000000e+00 -1.037638e-04 5.440067e-05 0.000000e+00 0.000000e+00 0.000000e+00 0.000000e+00 1.652938e-05 -1.222941e-04 0.000000e+00 -1.222941e-04 3.663573e-05 0.000000e+00 0.000000e+00 0.000000e+00 0.000000e+00 6.173711e-05 -1.141495e-04 0.000000e+00 -1.141495e-04 7.383202e-06 0.000000e+00 0.000000e+00 0.000000e+00 0.000000e+00 -2.645886e-05 -4.395000e-05 0.000000e+00 -4.395000e-05 1.738745e-04 0.000000e+00 0.000000e+00 0.000000e+00 0.000000e+00 -9.507221e-06 5.830703e-05 0.000000e+00 5.830703e-05 1.449629e-04 0.000000e+00 0.000000e+00 0.000000e+00 0.000000e+00 6.176327e-05 -7.657601e-05 0.000000e+00 -7.657601e-05 -6.094389e-05 0.000000e+00 0.000000e+00 0.000000e+00 0.000000e+00 4.500194e-06 8.363443e-05 0.000000e+00 8.363443e-05 7.151029e-05 0.000000e+00 0.000000e+00 0.000000e+00 0.000000e+00 5.535624e-05 -1.125180e-04 0.000000e+00 -1.125180e-04 1.027672e-04 0.000000e+00 0.000000e+00 0.000000e+00 0.000000e+00 5.172405e-05 -9.842844e-05 0.000000e+00 -9.842844e-05 1.047739e-04 0.000000e+00 0.000000e+00 0.000000e+00 0.000000e+00 9.978808e-06 -1.189103e-04 0.000000e+00 -1.189103e-04 7.070239e-05 0.000000e+00 0.000000e+00 0.000000e+00 0.000000e+00 -2.289573e-05 -6.536120e-06 0.000000e+00 -6.536120e-06 1.940466e-04 0.000000e+00 0.000000e+00 0.000000e+00 0.000000e+00 2.360450e-05 -1.067455e-04 0.000000e+00 -1.067455e-04 2.075942e-05 0.000000e+00 0.000000e+00 0.000000e+00 0.000000e+00 6.633794e-05 -9.547340e-05 0.000000e+00 -9.547340e-05 2.820546e-05 0.000000e+00 0.000000e+00 0.000000e+00 0.000000e+00 1.070124e-04 -9.557505e-05 0.000000e+00 -9.557505e-05 1.506780e-05 0.000000e+00 0.000000e+00 0.000000e+00 0.000000e+00 2.897937e-05 -5.874819e-05 0.000000e+00 -5.874819e-05 2.351899e-04 0.000000e+00 0.000000e+00 0.000000e+00 0.000000e+00 -2.671725e-05 -4.244337e-05 0.000000e+00 -4.244337e-05 2.203756e-04 0.000000e+00 0.000000e+00 0.000000e+00 0.000000e+00 2.737622e-07 -8.164292e-05 0.000000e+00 -8.164292e-05 1.249068e-04 0.000000e+00 0.000000e+00 0.000000e+00 0.000000e+00 6.913358e-05 -9.771930e-05 0.000000e+00 -9.771930e-05 -2.906142e-05 0.000000e+00 0.000000e+00 0.000000e+00 0.000000e+00 9.071867e-05 -9.183096e-05 0.000000e+00 -9.183096e-05 1.421973e-05 0.000000e+00 0.000000e+00 0.000000e+00 0.000000e+00 1.535488e-05 -1.014497e-04 0.000000e+00 -1.014497e-04 5.799156e-05 0.000000e+00 0.000000e+00 0.000000e+00 0.000000e+00 -1.072926e-05 -9.391541e-05 0.000000e+00 -9.391541e-05 1.395075e-04 0.000000e+00 0.000000e+00 0.000000e+00 0.000000e+00 3.369363e-05 -1.239141e-04 0.000000e+00 -1.239141e-04 4.686484e-05 0.000000e+00 0.000000e+00 0.000000e+00 0.000000e+00 -1.654866e-08 -8.239897e-05 0.000000e+00 -8.239897e-05 1.761627e-04 0.000000e+00 0.000000e+00 0.000000e+00 0.000000e+00 2.482701e-05 -1.190933e-04 0.000000e+00 -1.190933e-04 8.762361e-05 0.000000e+00 0.000000e+00 0.000000e+00 0.000000e+00 6.628987e-05 -5.490131e-05 0.000000e+00 -5.490131e-05 -9.161469e-05 0.000000e+00 0.000000e+00 0.000000e+00 0.000000e+00 4.462465e-05 -1.033663e-04 0.000000e+00 -1.033663e-04 1.573483e-06 0.000000e+00 0.000000e+00 0.000000e+00 0.000000e+00 -3.263186e-05 2.095458e-05 0.000000e+00 2.095458e-05 1.935570e-04 0.000000e+00 0.000000e+00 0.000000e+00 0.000000e+00   </DataArray>
  <DataArray type="Float64" Name="IST_PrincStressVector1" NumberOfComponents="3" format="ascii">9.983816e-01 -5.686924e-02 0.000000e+00 9.996477e-01 -2.654215e-02 0.000000e+00 9.997867e-01 -2.065471e-02 0.000000e+00 9.998007e-01 -1.996563e-02 0.000000e+00 9.997700e-01 -2.144411e-02 0.000000e+00 9.997174e-01 -2.377020e-02 0.000000e+00 9.997099e-01 -2.408457e-02 0.000000e+00 9.996441e-01 -2.667877e-02 0.000000e+00 9.995625e-01 -2.957646e-02 0.000000e+00 9.994552e-01 -3.300507e-02 0.000000e+00 9.993027e-01 -3.733678e-02 0.000000e+00 9.992348e-01 -3.911283e-02 0.000000e+00 9.990503e-01 -4.357133e-02 0.000000e+00 9.988706e-01 -4.751309e-02 0.000000e+00 9.987259e-01 -5.046359e-02 0.000000e+00 9.983131e-01 -5.805958e-02 0.000000e+00 9.977150e-01 -6.756353e-02 0.000000e+00 9.971408e-01 -7.556570e-02 0.000000e+00 9.968785e-01 -7.895157e-02 0.000000e+00 9.944634e-01 -1.050831e-01 0.000000e+00 9.909720e-01 -1.340693e-01 0.000000e+00 9.852330e-01 -1.712191e-01 0.000000e+00 9.654672e-01 -2.605246e-01 0.000000e+00 9.002880e-01 -4.352948e-01 0.000000e+00 6.911815e-01 -7.226812e-01 0.000000e+00 9.985825e-01 5.322665e-02 0.000000e+00 9.978205e-01 6.598702e-02 0.000000e+00 9.934847e-01 1.139659e-01 0.000000e+00 9.594375e-01 2.819215e-01 0.000000e+00 9.578633e-01 2.872243e-01 0.000000e+00 9.327660e-01 3.604824e-01 0.000000e+00 9.731838e-01 2.300290e-01 0.000000e+00 9.186342e-01 3.951090e-01 0.000000e+00 2.247741e-01 9.744109e-01 0.000000e+00 1.804105e-01 -9.835914e-01 0.000000e+00 7.177168e-01 -6.963351e-01 0.000000e+00 9.661163e-01 -2.581073e-01 0.000000e+00 9.910846e-01 1.332343e-01 0.000000e+00 6.347443e-01 7.727223e-01 0.000000e+00 9.813797e-02 9.951728e-01 0.000000e+00 2.435268e-01 -9.698942e-01 0.000000e+00 5.867605e-01 -8.097605e-01 0.000000e+00 6.345193e-01 -7.729071e-01 0.000000e+00 8.742268e-01 -4.855177e-01 0.000000e+00 9.825294e-01 -1.861074e-01 0.000000e+00 9.995927e-01 2.853931e-02 0.000000e+00 5.850730e-01 8.109807e-01 0.000000e+00 2.219338e-01 9.750617e-01 0.000000e+00 1.132571e-01 9.935657e-01 0.000000e+00 4.027245e-02 9.991887e-01 0.000000e+00 1.115358e-01 -9.937604e-01 0.000000e+00 3.247429e-01 -9.458023e-01 0.000000e+00 6.727030e-01 -7.399127e-01 0.000000e+00 4.134095e-01 -9.105452e-01 0.000000e+00 7.223933e-01 -6.914824e-01 0.000000e+00 9.304694e-01 -3.663696e-01 0.000000e+00 8.852763e-01 4.650655e-01 0.000000e+00 9.733048e-01 2.295163e-01 0.000000e+00 9.974414e-01 -7.148819e-02 0.000000e+00 9.178465e-01 -3.969356e-01 0.000000e+00 5.370639e-01 -8.435415e-01 0.000000e+00 1.843407e-01 9.828624e-01 0.000000e+00 4.585876e-01 8.886492e-01 0.000000e+00 5.959946e-01 8.029884e-01 0.000000e+00 6.657910e-01 7.461383e-01 0.000000e+00 7.438104e-01 6.683907e-01 0.000000e+00 7.804970e-01 6.251596e-01 0.000000e+00 7.991154e-01 6.011776e-01 0.000000e+00 7.994032e-01 6.007950e-01 0.000000e+00 7.775888e-01 6.287732e-01 0.000000e+00 7.370692e-01 6.758173e-01 0.000000e+00 6.913589e-01 7.225115e-01 0.000000e+00 6.823631e-01 7.310134e-01 0.000000e+00 7.064618e-01 7.077511e-01 0.000000e+00 7.506546e-01 6.606948e-01 0.000000e+00 7.993542e-01 6.008601e-01 0.000000e+00 8.463247e-01 5.326673e-01 0.000000e+00 9.023661e-01 4.309703e-01 0.000000e+00 9.542769e-01 2.989239e-01 0.000000e+00 9.912802e-01 1.317707e-01 0.000000e+00 9.861306e-01 1.659714e-01 0.000000e+00 7.856732e-01 6.186417e-01 0.000000e+00 7.447922e-01 6.672965e-01 0.000000e+00 8.026593e-01 5.964378e-01 0.000000e+00 8.336734e-01 -5.522577e-01 0.000000e+00 9.986091e-01 -5.272538e-02 0.000000e+00 9.993375e-01 -3.639375e-02 0.000000e+00 9.996913e-01 -2.484729e-02 0.000000e+00 9.999459e-01 -1.040420e-02 0.000000e+00 9.997522e-01 -2.226006e-02 0.000000e+00 9.999990e-01 -1.389600e-03 0.000000e+00 9.997924e-01 -2.037777e-02 0.000000e+00 9.997913e-01 -2.042894e-02 0.000000e+00 9.997241e-01 -2.349066e-02 0.000000e+00 1.000000e+00 1.844331e-04 0.000000e+00 9.999996e-01 -9.471603e-04 0.000000e+00 9.997182e-01 -2.373793e-02 0.000000e+00 9.996852e-01 -2.509079e-02 0.000000e+00 9.995989e-01 -2.832147e-02 0.000000e+00 9.994976e-01 -3.169377e-02 0.000000e+00 9.999662e-01 -8.220426e-03 0.000000e+00 9.999449e-01 -1.050124e-02 0.000000e+00 9.993793e-01 -3.522820e-02 0.000000e+00 9.992742e-01 -3.809421e-02 0.000000e+00 9.991584e-01 -4.101706e-02 0.000000e+00 9.998616e-01 -1.663707e-02 0.000000e+00 9.998374e-01 -1.803467e-02 0.000000e+00 9.989741e-01 -4.528592e-02 0.000000e+00 9.988199e-01 -4.856806e-02 0.000000e+00 9.985383e-01 -5.404928e-02 0.000000e+00 9.996878e-01 -2.498656e-02 0.000000e+00 9.996939e-01 -2.474263e-02 0.000000e+00 9.980310e-01 -6.272228e-02 0.000000e+00 9.995129e-01 -3.120874e-02 0.000000e+00 9.974253e-01 -7.171297e-02 0.000000e+00 9.969546e-01 -7.798429e-02 0.000000e+00 9.963720e-01 -8.510438e-02 0.000000e+00 9.991135e-01 -4.209695e-02 0.000000e+00 9.988307e-01 -4.834509e-02 0.000000e+00 9.929514e-01 -1.185222e-01 0.000000e+00 9.884712e-01 -1.514089e-01 0.000000e+00 9.792672e-01 -2.025728e-01 0.000000e+00 9.401396e-01 -3.407895e-01 0.000000e+00 9.675048e-01 -2.528526e-01 0.000000e+00 9.016522e-01 -4.324618e-01 0.000000e+00 8.300297e-01 -5.577192e-01 0.000000e+00 9.997198e-01 2.367257e-02 0.000000e+00 9.999767e-01 6.832655e-03 0.000000e+00 9.987870e-01 4.923978e-02 0.000000e+00 9.962111e-01 8.696857e-02 0.000000e+00 9.866974e-01 1.625677e-01 0.000000e+00 9.333632e-01 3.589335e-01 0.000000e+00 9.561004e-01 2.930393e-01 0.000000e+00 9.193778e-01 3.933758e-01 0.000000e+00 9.700392e-01 2.429485e-01 0.000000e+00 6.012711e-01 7.990451e-01 0.000000e+00 6.695043e-01 7.428082e-01 0.000000e+00 2.078853e-01 -9.781532e-01 0.000000e+00 4.197792e-03 9.999912e-01 0.000000e+00 3.904318e-01 -9.206319e-01 0.000000e+00 9.538703e-01 -3.002192e-01 0.000000e+00 9.988038e-01 -4.889779e-02 0.000000e+00 9.997917e-01 -2.041147e-02 0.000000e+00 9.377503e-01 3.473101e-01 0.000000e+00 2.687795e-01 9.632017e-01 0.000000e+00 3.951621e-02 -9.992189e-01 0.000000e+00 2.292888e-01 9.733584e-01 0.000000e+00 1.556670e-01 9.878096e-01 0.000000e+00 8.253947e-01 -5.645562e-01 0.000000e+00 5.843280e-01 8.115176e-01 0.000000e+00 9.346237e-01 3.556382e-01 0.000000e+00 4.114935e-01 9.114127e-01 0.000000e+00 3.394335e-01 9.406300e-01 0.000000e+00 1.714776e-01 9.851880e-01 0.000000e+00 7.574545e-02 9.971272e-01 0.000000e+00 1.631000e-01 -9.866095e-01 0.000000e+00 2.026266e-02 -9.997947e-01 0.000000e+00 2.414686e-01 -9.704086e-01 0.000000e+00 9.602629e-01 2.790972e-01 0.000000e+00 8.605792e-01 5.093167e-01 0.000000e+00 9.985058e-01 -5.464526e-02 0.000000e+00 9.137548e-01 -4.062661e-01 0.000000e+00 6.973594e-01 -7.167216e-01 0.000000e+00 2.181234e-01 -9.759212e-01 0.000000e+00 2.658528e-01 9.640136e-01 0.000000e+00 4.940288e-01 8.694455e-01 0.000000e+00 6.378663e-01 7.701471e-01 0.000000e+00 7.174271e-01 6.966336e-01 0.000000e+00 7.694500e-01 6.387071e-01 0.000000e+00 7.916180e-01 6.110163e-01 0.000000e+00 7.932359e-01 6.089145e-01 0.000000e+00 7.775146e-01 6.288649e-01 0.000000e+00 7.489954e-01 6.625752e-01 0.000000e+00 7.130907e-01 7.010718e-01 0.000000e+00 6.933233e-01 7.206267e-01 0.000000e+00 7.006547e-01 7.135005e-01 0.000000e+00 7.277959e-01 6.857938e-01 0.000000e+00 7.674546e-01 6.411033e-01 0.000000e+00 8.145375e-01 5.801110e-01 0.000000e+00 8.762406e-01 4.818739e-01 0.000000e+00 9.390950e-01 3.436577e-01 0.000000e+00 9.850953e-01 1.720095e-01 0.000000e+00 9.996196e-01 -2.757894e-02 0.000000e+00 9.996777e-01 2.538661e-02 0.000000e+00 7.721709e-01 6.354149e-01 0.000000e+00 7.675274e-01 6.410161e-01 0.000000e+00 7.319437e-02 9.973177e-01 0.000000e+00 9.999889e-01 -4.703463e-03 0.000000e+00 9.999997e-01 7.391900e-04 0.000000e+00 9.999995e-01 9.653784e-04 0.000000e+00 9.999939e-01 -3.484457e-03 0.000000e+00 9.999985e-01 -1.712272e-03 0.000000e+00 9.999908e-01 -4.287576e-03 0.000000e+00 9.999834e-01 -5.757344e-03 0.000000e+00 9.999330e-01 -1.157443e-02 0.000000e+00 9.999474e-01 -1.025686e-02 0.000000e+00 9.998941e-01 -1.454979e-02 0.000000e+00 9.998091e-01 -1.954002e-02 0.000000e+00 9.998153e-01 -1.921697e-02 0.000000e+00 9.997842e-01 -2.077520e-02 0.000000e+00 9.996458e-01 -2.661244e-02 0.000000e+00 9.993445e-01 -3.620206e-02 0.000000e+00 9.994149e-01 -3.420222e-02 0.000000e+00 9.977524e-01 -6.700917e-02 0.000000e+00 9.983162e-01 -5.800734e-02 0.000000e+00 9.969865e-01 -7.757493e-02 0.000000e+00 9.940193e-01 -1.092049e-01 0.000000e+00 3.706885e-01 -9.287573e-01 0.000000e+00 6.946444e-01 -7.193533e-01 0.000000e+00 9.985768e-01 5.333320e-02 0.000000e+00 9.969750e-01 7.772314e-02 0.000000e+00 9.918985e-01 1.270329e-01 0.000000e+00 9.711333e-01 2.385373e-01 0.000000e+00 9.352709e-01 3.539326e-01 0.000000e+00 5.099855e-02 -9.986987e-01 0.000000e+00 3.837965e-01 -9.234177e-01 0.000000e+00 9.643534e-01 2.646178e-01 0.000000e+00 7.071698e-01 7.070438e-01 0.000000e+00 3.378038e-03 -9.999943e-01 0.000000e+00 3.405956e-01 9.402099e-01 0.000000e+00 1.226689e-01 9.924477e-01 0.000000e+00 2.705977e-03 -9.999963e-01 0.000000e+00 9.657561e-01 -2.594517e-01 0.000000e+00 9.999741e-01 -7.195881e-03 0.000000e+00 9.865750e-01 -1.633091e-01 0.000000e+00 9.952241e-01 9.761640e-02 0.000000e+00 9.860286e-01 1.665763e-01 0.000000e+00 3.683043e-01 -9.297053e-01 0.000000e+00 1.000000e+00 2.461371e-04 0.000000e+00 9.999990e-01 1.448996e-03 0.000000e+00 9.999935e-01 -3.598225e-03 0.000000e+00 9.998723e-01 -1.598291e-02 0.000000e+00 9.997097e-01 -2.409587e-02 0.000000e+00 9.993999e-01 -3.463881e-02 0.000000e+00 9.993030e-01 -3.733034e-02 0.000000e+00 9.966249e-01 -8.208991e-02 0.000000e+00 9.978519e-01 6.550951e-02 0.000000e+00 9.648257e-01 2.628905e-01 0.000000e+00 3.356816e-01 9.419755e-01 0.000000e+00 8.563318e-01 5.164261e-01 0.000000e+00 2.815112e-01 9.595579e-01 0.000000e+00 7.066020e-02 9.975004e-01 0.000000e+00 9.992193e-01 -3.950759e-02 0.000000e+00 9.991766e-01 -4.057158e-02 0.000000e+00 9.983114e-01 -5.808933e-02 0.000000e+00 9.986401e-01 -5.213480e-02 0.000000e+00 9.991962e-01 -4.008610e-02 0.000000e+00 9.998732e-01 -1.592629e-02 0.000000e+00 9.985216e-01 -5.435644e-02 0.000000e+00 9.994905e-01 -3.191706e-02 0.000000e+00 9.994012e-01 -3.460259e-02 0.000000e+00 9.986636e-01 -5.168272e-02 0.000000e+00 9.995652e-01 -2.948745e-02 0.000000e+00 9.956447e-01 -9.322923e-02 0.000000e+00 9.961358e-01 -8.782631e-02 0.000000e+00 8.954135e-01 -4.452355e-01 0.000000e+00 9.958541e-01 -9.096512e-02 0.000000e+00 9.980090e-01 -6.307213e-02 0.000000e+00 9.976094e-01 -6.910525e-02 0.000000e+00 9.966270e-01 -8.206490e-02 0.000000e+00 9.981754e-01 -6.038023e-02 0.000000e+00 9.930549e-01 -1.176518e-01 0.000000e+00 9.925726e-01 -1.216537e-01 0.000000e+00 9.927902e-01 -1.198653e-01 0.000000e+00 9.956982e-01 -9.265620e-02 0.000000e+00 9.957632e-01 -9.195505e-02 0.000000e+00 9.937417e-01 -1.117026e-01 0.000000e+00 9.961827e-01 -8.729294e-02 0.000000e+00 9.884782e-01 -1.513630e-01 0.000000e+00 9.799308e-01 -1.993381e-01 0.000000e+00 9.846467e-01 -1.745590e-01 0.000000e+00 9.804071e-01 -1.969822e-01 0.000000e+00 9.880800e-01 -1.539415e-01 0.000000e+00 9.301272e-01 -3.672374e-01 0.000000e+00 9.527048e-01 -3.038973e-01 0.000000e+00 9.822104e-01 -1.877838e-01 0.000000e+00 9.887501e-01 -1.495768e-01 0.000000e+00 9.878845e-01 -1.551912e-01 0.000000e+00 9.408687e-01 -3.387715e-01 0.000000e+00 9.555913e-01 -2.946951e-01 0.000000e+00 9.471390e-01 -3.208236e-01 0.000000e+00 9.639265e-01 -2.661685e-01 0.000000e+00 9.650330e-01 -2.621284e-01 0.000000e+00 9.189724e-01 -3.943219e-01 0.000000e+00 9.428128e-01 -3.333228e-01 0.000000e+00 8.780573e-01 -4.785556e-01 0.000000e+00 9.814116e-01 1.919148e-01 0.000000e+00 4.443670e-01 -8.958448e-01 0.000000e+00 9.764037e-01 2.159534e-01 0.000000e+00 9.767447e-01 2.144058e-01 0.000000e+00 9.836234e-01 1.802360e-01 0.000000e+00 9.598707e-01 2.804431e-01 0.000000e+00 9.787594e-01 2.050122e-01 0.000000e+00 6.561771e-01 -7.546069e-01 0.000000e+00 2.532836e-01 -9.673921e-01 0.000000e+00 9.799569e-01 1.992098e-01 0.000000e+00 9.798261e-01 1.998519e-01 0.000000e+00 9.985943e-01 -5.300447e-02 0.000000e+00 8.606159e-01 5.092546e-01 0.000000e+00 9.606311e-01 2.778269e-01 0.000000e+00 8.910678e-01 4.538703e-01 0.000000e+00 8.902648e-01 4.554432e-01 0.000000e+00 3.830499e-01 -9.237276e-01 0.000000e+00 9.654766e-01 2.604896e-01 0.000000e+00 7.841473e-01 6.205748e-01 0.000000e+00 4.605095e-01 8.876548e-01 0.000000e+00 9.537748e-01 3.005223e-01 0.000000e+00 2.268474e-01 -9.739303e-01 0.000000e+00 5.386568e-01 -8.425253e-01 0.000000e+00 6.449103e-01 -7.642583e-01 0.000000e+00 9.989622e-01 -4.554768e-02 0.000000e+00 9.337092e-01 -3.580324e-01 0.000000e+00 9.997931e-01 -2.034159e-02 0.000000e+00 9.443171e-01 -3.290369e-01 0.000000e+00 9.732772e-01 2.296335e-01 0.000000e+00 4.808266e-01 8.768157e-01 0.000000e+00 5.707967e-03 -9.999837e-01 0.000000e+00 7.410002e-01 6.715048e-01 0.000000e+00 9.930105e-01 1.180261e-01 0.000000e+00 8.168260e-01 5.768841e-01 0.000000e+00 5.740502e-01 8.188201e-01 0.000000e+00 3.976196e-01 9.175504e-01 0.000000e+00 5.887020e-01 -8.083501e-01 0.000000e+00 9.605439e-01 -2.781284e-01 0.000000e+00 9.907108e-01 -1.359854e-01 0.000000e+00 2.301631e-01 9.731521e-01 0.000000e+00 1.944689e-01 -9.809087e-01 0.000000e+00 7.011648e-01 7.129992e-01 0.000000e+00 5.962622e-01 8.027897e-01 0.000000e+00 3.189979e-01 9.477554e-01 0.000000e+00 4.412392e-01 8.973895e-01 0.000000e+00 3.685637e-01 9.296025e-01 0.000000e+00 3.996328e-01 -9.166753e-01 0.000000e+00 8.805954e-01 -4.738690e-01 0.000000e+00 6.046851e-01 -7.964647e-01 0.000000e+00 9.036676e-01 -4.282347e-01 0.000000e+00 9.991801e-01 -4.048562e-02 0.000000e+00 9.997577e-01 -2.201066e-02 0.000000e+00 9.998751e-01 -1.580275e-02 0.000000e+00 9.866471e-01 -1.628724e-01 0.000000e+00 9.922132e-01 -1.245510e-01 0.000000e+00 9.904957e-01 -1.375440e-01 0.000000e+00 1.036770e-01 9.946110e-01 0.000000e+00 8.832140e-01 4.689702e-01 0.000000e+00 7.021189e-01 7.120597e-01 0.000000e+00 6.460383e-01 7.633050e-01 0.000000e+00 9.915380e-01 -1.298164e-01 0.000000e+00 9.220296e-01 3.871193e-01 0.000000e+00 9.978908e-01 -6.491502e-02 0.000000e+00 9.594873e-01 -2.817520e-01 0.000000e+00 7.999355e-01 -6.000860e-01 0.000000e+00 1.219725e-01 -9.925335e-01 0.000000e+00 4.590250e-01 8.884234e-01 0.000000e+00 7.000897e-01 7.140549e-01 0.000000e+00 7.483188e-01 6.633393e-01 0.000000e+00 7.835539e-01 6.213238e-01 0.000000e+00 8.141763e-01 5.806177e-01 0.000000e+00 7.548974e-01 6.558430e-01 0.000000e+00 6.653164e-01 7.465615e-01 0.000000e+00 6.658788e-01 7.460599e-01 0.000000e+00 6.951827e-01 7.188331e-01 0.000000e+00 7.349221e-01 6.781515e-01 0.000000e+00 8.375504e-01 5.463600e-01 0.000000e+00 8.977775e-01 4.404493e-01 0.000000e+00 9.498706e-01 3.126434e-01 0.000000e+00 8.517490e-01 5.239501e-01 0.000000e+00 7.255138e-01 6.882076e-01 0.000000e+00 9.599501e-01 2.801711e-01 0.000000e+00 9.151231e-01 4.031745e-01 0.000000e+00 9.572466e-01 2.892732e-01 0.000000e+00 7.853383e-01 -6.190668e-01 0.000000e+00 9.454123e-01 -3.258766e-01 0.000000e+00 7.737290e-01 6.335168e-01 0.000000e+00 9.966821e-01 -8.139304e-02 0.000000e+00 8.539170e-01 5.204093e-01 0.000000e+00 9.998740e-01 -1.587136e-02 0.000000e+00 9.989149e-01 -4.657234e-02 0.000000e+00 9.973505e-01 -7.274644e-02 0.000000e+00 9.950756e-01 -9.911874e-02 0.000000e+00 9.980580e-01 -6.229194e-02 0.000000e+00 7.949264e-01 -6.067059e-01 0.000000e+00 9.949552e-01 -1.003201e-01 0.000000e+00 9.916062e-01 -1.292948e-01 0.000000e+00 9.993727e-01 -3.541350e-02 0.000000e+00 9.875473e-01 -1.573224e-01 0.000000e+00 9.795747e-01 -2.010807e-01 0.000000e+00 3.086087e-01 9.511891e-01 0.000000e+00 9.829253e-01 1.840049e-01 0.000000e+00 1.352321e-02 9.999086e-01 0.000000e+00 9.753350e-01 2.207299e-01 0.000000e+00 9.700581e-01 2.428728e-01 0.000000e+00 8.996371e-01 4.366384e-01 0.000000e+00 7.975994e-01 -6.031875e-01 0.000000e+00 8.427137e-01 -5.383620e-01 0.000000e+00 9.705392e-01 2.409432e-01 0.000000e+00 9.224270e-01 3.861716e-01 0.000000e+00 2.817729e-01 9.594811e-01 0.000000e+00 1.219026e-01 9.925421e-01 0.000000e+00 9.587746e-01 2.841676e-01 0.000000e+00 9.430353e-01 3.326927e-01 0.000000e+00 7.730077e-01 6.343966e-01 0.000000e+00 5.483541e-01 8.362463e-01 0.000000e+00 1.759945e-01 9.843912e-01 0.000000e+00 2.877713e-02 -9.995859e-01 0.000000e+00 6.696092e-01 -7.427136e-01 0.000000e+00 9.736242e-01 -2.281576e-01 0.000000e+00 9.230409e-01 -3.847018e-01 0.000000e+00 5.107036e-01 8.597568e-01 0.000000e+00 9.990930e-01 -4.258202e-02 0.000000e+00 2.654420e-01 -9.641268e-01 0.000000e+00 7.616532e-01 6.479849e-01 0.000000e+00 9.998289e-01 -1.849804e-02 0.000000e+00 8.695124e-01 -4.939111e-01 0.000000e+00 9.997833e-01 -2.081734e-02 0.000000e+00 5.396894e-01 -8.418642e-01 0.000000e+00 7.411273e-01 -6.713645e-01 0.000000e+00 9.879273e-01 -1.549180e-01 0.000000e+00 8.316329e-01 5.553258e-01 0.000000e+00 9.990624e-01 -4.329440e-02 0.000000e+00 9.975799e-01 -6.952966e-02 0.000000e+00 6.952920e-01 7.187274e-01 0.000000e+00 7.533797e-01 6.575857e-01 0.000000e+00 7.293150e-01 6.841781e-01 0.000000e+00 9.913719e-01 1.310792e-01 0.000000e+00 9.733455e-01 2.293435e-01 0.000000e+00 9.436261e-01 3.310132e-01 0.000000e+00 8.776241e-01 4.793496e-01 0.000000e+00 7.446206e-01 6.674879e-01 0.000000e+00 7.800956e-01 6.256603e-01 0.000000e+00 7.035749e-01 7.106212e-01 0.000000e+00 6.691420e-01 7.431345e-01 0.000000e+00 6.807834e-01 7.324848e-01 0.000000e+00 6.724694e-01 7.401250e-01 0.000000e+00 7.215635e-01 6.923483e-01 0.000000e+00 7.012826e-01 7.128834e-01 0.000000e+00 7.925714e-01 6.097792e-01 0.000000e+00 7.953704e-01 6.061237e-01 0.000000e+00 8.097664e-01 5.867524e-01 0.000000e+00 8.084661e-01 5.885428e-01 0.000000e+00 7.848428e-01 6.196949e-01 0.000000e+00 7.230827e-01 6.907615e-01 0.000000e+00 4.481162e-01 8.939753e-01 0.000000e+00 6.290452e-01 7.773687e-01 0.000000e+00 5.987886e-01 8.009072e-01 0.000000e+00 2.277766e-02 -9.997406e-01 0.000000e+00 8.018325e-01 -5.975488e-01 0.000000e+00 6.922512e-01 -7.216567e-01 0.000000e+00 9.923261e-01 1.236483e-01 0.000000e+00 9.990535e-01 -4.349817e-02 0.000000e+00 6.373658e-01 7.705614e-01 0.000000e+00 8.103377e-01 5.859631e-01 0.000000e+00 7.615146e-01 6.481477e-01 0.000000e+00 6.872546e-01 7.264166e-01 0.000000e+00 8.033228e-01 5.955438e-01 0.000000e+00 9.990674e-01 -4.317795e-02 0.000000e+00 9.968204e-01 7.968063e-02 0.000000e+00 9.984183e-01 -5.622161e-02 0.000000e+00 9.991360e-01 -4.156032e-02 0.000000e+00 9.995854e-01 -2.879277e-02 0.000000e+00 9.987395e-01 -5.019351e-02 0.000000e+00 9.997242e-01 -2.348352e-02 0.000000e+00 9.996489e-01 -2.649562e-02 0.000000e+00 9.971515e-01 -7.542428e-02 0.000000e+00 9.986707e-01 -5.154406e-02 0.000000e+00 9.983825e-01 -5.685483e-02 0.000000e+00 9.943651e-01 -1.060093e-01 0.000000e+00 9.967749e-01 -8.024802e-02 0.000000e+00 9.964281e-01 -8.444544e-02 0.000000e+00 9.903323e-01 -1.387154e-01 0.000000e+00 9.940929e-01 -1.085327e-01 0.000000e+00 9.933391e-01 -1.152274e-01 0.000000e+00 9.749278e-01 -2.225216e-01 0.000000e+00 9.805669e-01 -1.961848e-01 0.000000e+00 9.734921e-01 -2.287207e-01 0.000000e+00 7.703012e-01 -6.376802e-01 0.000000e+00 6.675697e-01 -7.445473e-01 0.000000e+00 4.786639e-01 -8.779982e-01 0.000000e+00 6.032454e-01 7.975556e-01 0.000000e+00 6.479813e-01 7.616562e-01 0.000000e+00 3.749404e-02 -9.992969e-01 0.000000e+00 9.817262e-01 -1.902990e-01 0.000000e+00 9.997586e-01 -2.197224e-02 0.000000e+00 9.716236e-01 -2.365323e-01 0.000000e+00 3.122305e-01 9.500064e-01 0.000000e+00 1.618321e-01 9.868183e-01 0.000000e+00 7.806553e-01 6.249618e-01 0.000000e+00 8.167286e-01 -5.770220e-01 0.000000e+00 9.740240e-01 -2.264448e-01 0.000000e+00 9.492151e-01 -3.146278e-01 0.000000e+00 9.326902e-01 -3.606785e-01 0.000000e+00 9.483302e-01 -3.172850e-01 0.000000e+00 9.712859e-01 -2.379152e-01 0.000000e+00 9.854078e-01 -1.702103e-01 0.000000e+00 7.974804e-01 6.033448e-01 0.000000e+00 9.984177e-01 -5.623328e-02 0.000000e+00 9.902609e-01 -1.392238e-01 0.000000e+00 7.957797e-01 -6.055862e-01 0.000000e+00 9.083472e-01 -4.182169e-01 0.000000e+00 9.820738e-01 -1.884967e-01 0.000000e+00 1.235634e-01 9.923367e-01 0.000000e+00 9.439856e-01 -3.299866e-01 0.000000e+00 9.486676e-01 3.162749e-01 0.000000e+00 9.946689e-01 -1.031203e-01 0.000000e+00 9.383473e-01 3.456940e-01 0.000000e+00 9.456518e-01 3.251808e-01 0.000000e+00 8.894033e-01 4.571233e-01 0.000000e+00 9.538309e-01 3.003441e-01 0.000000e+00 1.451110e-01 9.894154e-01 0.000000e+00 9.548410e-01 2.971174e-01 0.000000e+00 9.504629e-01 3.108381e-01 0.000000e+00 9.500528e-01 3.120892e-01 0.000000e+00 9.150347e-01 4.033752e-01 0.000000e+00 9.331270e-01 3.595468e-01 0.000000e+00 2.958900e-01 -9.552220e-01 0.000000e+00 9.442169e-03 -9.999554e-01 0.000000e+00 9.519874e-01 3.061372e-01 0.000000e+00 9.509107e-01 3.094655e-01 0.000000e+00 7.998576e-01 6.001898e-01 0.000000e+00 5.882031e-01 8.087133e-01 0.000000e+00 2.115607e-01 -9.773649e-01 0.000000e+00 6.198236e-01 7.847412e-01 0.000000e+00 2.807414e-01 9.597834e-01 0.000000e+00 8.727994e-01 -4.880791e-01 0.000000e+00 2.807377e-01 9.597845e-01 0.000000e+00 9.976587e-01 -6.838886e-02 0.000000e+00 5.538548e-01 8.326133e-01 0.000000e+00 9.596606e-01 -2.811612e-01 0.000000e+00 9.965026e-01 -8.356235e-02 0.000000e+00 5.532434e-01 -8.330196e-01 0.000000e+00 9.971193e-01 7.584894e-02 0.000000e+00 4.102946e-01 -9.119531e-01 0.000000e+00 8.351403e-01 5.500370e-01 0.000000e+00 8.405776e-01 5.416911e-01 0.000000e+00 8.180800e-01 5.751044e-01 0.000000e+00 8.980470e-01 4.398995e-01 0.000000e+00 8.598180e-01 5.106006e-01 0.000000e+00 8.956562e-01 4.447471e-01 0.000000e+00 5.555698e-01 -8.314699e-01 0.000000e+00 7.555800e-01 6.550564e-01 0.000000e+00 6.595283e-01 7.516798e-01 0.000000e+00 7.789925e-01 6.270333e-01 0.000000e+00 6.361467e-01 -7.715682e-01 0.000000e+00 8.326486e-01 -5.538017e-01 0.000000e+00 9.256544e-01 -3.783702e-01 0.000000e+00 6.993272e-01 -7.148017e-01 0.000000e+00 6.551140e-01 -7.555301e-01 0.000000e+00 7.601667e-01 -6.497281e-01 0.000000e+00 8.339501e-01 5.518398e-01 0.000000e+00 8.186734e-01 5.742595e-01 0.000000e+00 7.169694e-01 6.971047e-01 0.000000e+00 7.338613e-01 6.792994e-01 0.000000e+00 6.876461e-01 7.260460e-01 0.000000e+00 6.290607e-01 7.773562e-01 0.000000e+00 6.375418e-01 7.704158e-01 0.000000e+00 6.376050e-01 7.703635e-01 0.000000e+00 6.365461e-01 7.712386e-01 0.000000e+00 7.057182e-01 7.084926e-01 0.000000e+00 8.249338e-01 5.652294e-01 0.000000e+00 8.883192e-01 4.592264e-01 0.000000e+00 6.068515e-01 -7.948152e-01 0.000000e+00 9.699264e-01 -2.433983e-01 0.000000e+00 7.070173e-01 7.071963e-01 0.000000e+00 9.404004e-01 -3.400692e-01 0.000000e+00 3.894892e-01 -9.210311e-01 0.000000e+00 3.881000e-01 -9.216173e-01 0.000000e+00 5.520717e-01 -8.337966e-01 0.000000e+00 9.995242e-01 -3.084473e-02 0.000000e+00 9.983111e-01 -5.809516e-02 0.000000e+00 9.709629e-01 -2.392301e-01 0.000000e+00 9.920185e-01 -1.260922e-01 0.000000e+00 9.937213e-01 -1.118836e-01 0.000000e+00 9.957577e-01 -9.201360e-02 0.000000e+00 9.971819e-01 -7.502148e-02 0.000000e+00 9.883382e-01 -1.522749e-01 0.000000e+00 9.506176e-01 -3.103645e-01 0.000000e+00 9.593903e-01 -2.820821e-01 0.000000e+00 9.334545e-01 -3.586957e-01 0.000000e+00 9.070228e-01 -4.210816e-01 0.000000e+00 3.576352e-01 9.338614e-01 0.000000e+00 5.328025e-01 -8.462396e-01 0.000000e+00 2.272197e-01 -9.738435e-01 0.000000e+00 9.281168e-01 3.722891e-01 0.000000e+00 8.482283e-01 -5.296307e-01 0.000000e+00 9.804858e-01 -1.965899e-01 0.000000e+00 9.583689e-01 -2.855328e-01 0.000000e+00 9.604504e-01 -2.784513e-01 0.000000e+00 8.788971e-01 4.770115e-01 0.000000e+00 9.893776e-01 -1.453681e-01 0.000000e+00 9.918907e-01 -1.270938e-01 0.000000e+00 8.579730e-01 -5.136947e-01 0.000000e+00 9.500359e-01 3.121407e-01 0.000000e+00 1.069773e-02 9.999428e-01 0.000000e+00 6.683662e-01 7.438324e-01 0.000000e+00 9.994363e-01 -3.357197e-02 0.000000e+00 9.981318e-01 -6.109735e-02 0.000000e+00 7.064647e-01 7.077483e-01 0.000000e+00 8.810388e-01 -4.730440e-01 0.000000e+00 8.783012e-01 -4.781078e-01 0.000000e+00 4.748360e-01 8.800743e-01 0.000000e+00 8.479943e-01 -5.300053e-01 0.000000e+00 5.885009e-01 8.084966e-01 0.000000e+00 9.988698e-01 -4.753060e-02 0.000000e+00 9.969732e-01 -7.774555e-02 0.000000e+00 9.643024e-01 -2.648033e-01 0.000000e+00 9.681250e-01 -2.504674e-01 0.000000e+00 9.814261e-01 1.918407e-01 0.000000e+00 8.210382e-01 5.708732e-01 0.000000e+00 9.483709e-01 -3.171634e-01 0.000000e+00 9.580808e-01 -2.864982e-01 0.000000e+00 9.594972e-01 -2.817183e-01 0.000000e+00 8.682827e-01 -4.960697e-01 0.000000e+00 8.483849e-01 5.293799e-01 0.000000e+00 8.558538e-01 5.172178e-01 0.000000e+00 8.342726e-01 5.513522e-01 0.000000e+00 6.949166e-01 7.190904e-01 0.000000e+00 3.934316e-01 9.193539e-01 0.000000e+00 9.842045e-01 -1.770352e-01 0.000000e+00 9.870072e-01 -1.606762e-01 0.000000e+00 9.680337e-01 -2.508201e-01 0.000000e+00 9.756626e-01 -2.192772e-01 0.000000e+00 9.739054e-01 -2.269541e-01 0.000000e+00 6.547872e-01 7.558133e-01 0.000000e+00 6.041202e-01 7.968932e-01 0.000000e+00 9.981960e-01 -6.003967e-02 0.000000e+00 9.965624e-01 -8.284554e-02 0.000000e+00 9.986551e-01 -5.184528e-02 0.000000e+00 9.942130e-01 -1.074272e-01 0.000000e+00 9.965000e-01 -8.359249e-02 0.000000e+00 9.981912e-01 -6.011927e-02 0.000000e+00 9.983345e-01 -5.769139e-02 0.000000e+00 7.210780e-01 6.928539e-01 0.000000e+00 6.638579e-01 7.478587e-01 0.000000e+00 7.808672e-01 6.246970e-01 0.000000e+00 9.296668e-01 3.684014e-01 0.000000e+00 7.822645e-01 6.229464e-01 0.000000e+00 7.225918e-02 -9.973859e-01 0.000000e+00 1.347979e-01 9.908731e-01 0.000000e+00 1.564625e-01 -9.876839e-01 0.000000e+00 9.991930e-01 -4.016662e-02 0.000000e+00 9.860553e-01 -1.664181e-01 0.000000e+00 9.797457e-01 -2.002456e-01 0.000000e+00 6.875451e-01 -7.261416e-01 0.000000e+00 7.671609e-01 -6.414547e-01 0.000000e+00 7.524278e-01 6.586747e-01 0.000000e+00 7.636967e-01 6.455753e-01 0.000000e+00 9.996471e-01 -2.656514e-02 0.000000e+00 9.993650e-01 -3.563078e-02 0.000000e+00 9.976505e-01 -6.850942e-02 0.000000e+00 6.991807e-01 7.149450e-01 0.000000e+00 6.972265e-01 7.168509e-01 0.000000e+00 9.945608e-01 -1.041579e-01 0.000000e+00 5.945770e-01 8.040387e-01 0.000000e+00 7.644531e-01 -6.446793e-01 0.000000e+00 9.985965e-01 -5.296276e-02 0.000000e+00 9.995978e-01 -2.836057e-02 0.000000e+00 8.837979e-01 4.678689e-01 0.000000e+00 9.616416e-01 2.743090e-01 0.000000e+00 9.809644e-01 -1.941876e-01 0.000000e+00 9.981601e-01 -6.063282e-02 0.000000e+00 9.993131e-01 -3.705715e-02 0.000000e+00 9.993480e-01 -3.610560e-02 0.000000e+00 9.966195e-01 -8.215556e-02 0.000000e+00 9.864879e-01 -1.638341e-01 0.000000e+00 9.804230e-01 -1.969027e-01 0.000000e+00 9.933524e-01 -1.151133e-01 0.000000e+00 9.891792e-01 -1.467121e-01 0.000000e+00 9.966563e-01 -8.170831e-02 0.000000e+00 6.658091e-01 7.461222e-01 0.000000e+00 5.727153e-01 8.197543e-01 0.000000e+00 5.768141e-01 8.168754e-01 0.000000e+00 4.844833e-01 8.748005e-01 0.000000e+00 9.899624e-01 -1.413312e-01 0.000000e+00 2.947126e-01 9.555859e-01 0.000000e+00 9.281045e-01 -3.723198e-01 0.000000e+00 9.560571e-01 -2.931807e-01 0.000000e+00 9.936689e-01 -1.123482e-01 0.000000e+00 9.078840e-01 4.192215e-01 0.000000e+00 9.882954e-01 -1.525522e-01 0.000000e+00 9.965305e-01 -8.322820e-02 0.000000e+00 9.911593e-01 -1.326772e-01 0.000000e+00 9.981913e-01 6.011792e-02 0.000000e+00 9.982587e-01 -5.898712e-02 0.000000e+00 9.967326e-01 -8.077160e-02 0.000000e+00 9.977574e-01 -6.693390e-02 0.000000e+00 9.939544e-01 -1.097935e-01 0.000000e+00 9.988906e-01 -4.709200e-02 0.000000e+00 9.999591e-01 -9.041463e-03 0.000000e+00 9.982129e-01 -5.975761e-02 0.000000e+00 9.998779e-01 1.562564e-02 0.000000e+00 9.864231e-01 -1.642237e-01 0.000000e+00 9.822342e-01 -1.876590e-01 0.000000e+00 9.905777e-01 -1.369517e-01 0.000000e+00 9.996884e-01 -2.496111e-02 0.000000e+00 9.991893e-01 -4.025775e-02 0.000000e+00 9.933944e-01 -1.147496e-01 0.000000e+00 9.962486e-01 -8.653784e-02 0.000000e+00 9.944022e-01 -1.056607e-01 0.000000e+00 9.864161e-01 -1.642661e-01 0.000000e+00 9.899293e-01 -1.415624e-01 0.000000e+00 9.882924e-01 -1.525714e-01 0.000000e+00 8.543918e-01 -5.196293e-01 0.000000e+00 3.073933e-01 9.515826e-01 0.000000e+00 9.902078e-01 -1.396013e-01 0.000000e+00 8.902945e-01 -4.553852e-01 0.000000e+00 9.759533e-01 -2.179796e-01 0.000000e+00 9.796601e-01 -2.006641e-01 0.000000e+00 9.771497e-01 -2.125523e-01 0.000000e+00 8.396694e-01 -5.430979e-01 0.000000e+00 6.738557e-01 -7.388629e-01 0.000000e+00 5.602420e-01 -8.283290e-01 0.000000e+00 4.109139e-01 -9.116742e-01 0.000000e+00 9.094358e-01 4.158444e-01 0.000000e+00 8.943073e-01 4.474532e-01 0.000000e+00 8.754940e-01 -4.832289e-01 0.000000e+00 5.679003e-01 -8.230974e-01 0.000000e+00 9.850880e-01 -1.720511e-01 0.000000e+00 9.994131e-01 -3.425641e-02 0.000000e+00 9.101416e-01 4.142973e-01 0.000000e+00 6.216406e-01 7.833026e-01 0.000000e+00 8.001154e-02 9.967939e-01 0.000000e+00 5.278948e-01 8.493098e-01 0.000000e+00 4.482243e-01 8.939211e-01 0.000000e+00 8.470798e-01 -5.314658e-01 0.000000e+00 8.066612e-01 -5.910142e-01 0.000000e+00 7.348259e-01 -6.782557e-01 0.000000e+00 3.984154e-01 9.172051e-01 0.000000e+00 8.394624e-01 5.434178e-01 0.000000e+00 9.974178e-01 -7.181765e-02 0.000000e+00 6.332832e-01 7.739202e-01 0.000000e+00 9.936332e-01 -1.126638e-01 0.000000e+00 9.999908e-01 -4.286833e-03 0.000000e+00 9.994504e-01 -3.315046e-02 0.000000e+00 8.257270e-01 5.640699e-01 0.000000e+00 4.800375e-01 8.772480e-01 0.000000e+00 8.009864e-01 5.986826e-01 0.000000e+00 9.969060e-01 -7.860270e-02 0.000000e+00 9.458046e-01 3.247363e-01 0.000000e+00 9.958338e-01 -9.118650e-02 0.000000e+00 9.915439e-01 -1.297720e-01 0.000000e+00 6.535247e-01 -7.569052e-01 0.000000e+00 7.315441e-01 -6.817942e-01 0.000000e+00 9.990527e-01 -4.351757e-02 0.000000e+00 7.165764e-01 6.975086e-01 0.000000e+00 9.974698e-01 -7.109202e-02 0.000000e+00 4.101108e-01 9.120357e-01 0.000000e+00 1.707043e-01 9.853223e-01 0.000000e+00 7.947201e-01 6.069761e-01 0.000000e+00 8.025285e-01 5.966138e-01 0.000000e+00 9.911442e-01 -1.327902e-01 0.000000e+00 8.914195e-01 4.531791e-01 0.000000e+00 8.889195e-01 4.580635e-01 0.000000e+00 9.932964e-01 -1.155951e-01 0.000000e+00 6.088572e-01 7.932799e-01 0.000000e+00 9.775679e-01 -2.106204e-01 0.000000e+00 9.993926e-01 -3.484958e-02 0.000000e+00 9.978177e-01 -6.602923e-02 0.000000e+00 5.451352e-01 8.383482e-01 0.000000e+00 5.309183e-01 8.474230e-01 0.000000e+00 9.921067e-01 -1.253965e-01 0.000000e+00 9.882211e-01 -1.530330e-01 0.000000e+00 3.675151e-01 9.300176e-01 0.000000e+00 8.709069e-01 -4.914480e-01 0.000000e+00 8.159711e-01 -5.780927e-01 0.000000e+00 3.501574e-01 9.366909e-01 0.000000e+00 2.676164e-01 9.635255e-01 0.000000e+00 4.283534e-01 9.036113e-01 0.000000e+00 9.173132e-01 -3.981664e-01 0.000000e+00 9.400448e-01 -3.410511e-01 0.000000e+00 2.248676e-01 -9.743893e-01 0.000000e+00 5.137298e-02 -9.986795e-01 0.000000e+00 9.785776e-01 -2.058783e-01 0.000000e+00 9.251981e-01 -3.794846e-01 0.000000e+00 8.425410e-01 5.386322e-01 0.000000e+00 8.650206e-01 5.017364e-01 0.000000e+00 8.592029e-01 5.116350e-01 0.000000e+00 8.068388e-01 5.907716e-01 0.000000e+00 9.817393e-01 -1.902313e-01 0.000000e+00 9.822437e-01 -1.876097e-01 0.000000e+00 4.905921e-01 8.713893e-01 0.000000e+00 7.374361e-01 6.754169e-01 0.000000e+00 7.307293e-01 6.826673e-01 0.000000e+00 9.297460e-01 3.682015e-01 0.000000e+00 7.359581e-01 -6.770271e-01 0.000000e+00 6.473880e-01 -7.621606e-01 0.000000e+00 7.077913e-01 -7.064216e-01 0.000000e+00 5.202441e-01 8.540176e-01 0.000000e+00 9.231029e-01 3.845531e-01 0.000000e+00 8.705694e-01 4.920457e-01 0.000000e+00 5.377995e-01 8.430728e-01 0.000000e+00 9.974083e-01 -7.194932e-02 0.000000e+00 5.865913e-01 8.098831e-01 0.000000e+00 7.831267e-01 -6.218622e-01 0.000000e+00 6.977486e-01 -7.163427e-01 0.000000e+00 8.089523e-01 -5.878743e-01 0.000000e+00 9.973063e-01 -7.335013e-02 0.000000e+00 9.986880e-01 -5.120854e-02 0.000000e+00 9.612015e-01 -2.758473e-01 0.000000e+00 8.651626e-01 5.014914e-01 0.000000e+00 9.319206e-01 -3.626623e-01 0.000000e+00 9.214519e-01 -3.884925e-01 0.000000e+00 9.988378e-01 -4.819839e-02 0.000000e+00 9.829144e-01 -1.840634e-01 0.000000e+00 9.846264e-01 -1.746737e-01 0.000000e+00 9.971042e-01 -7.604786e-02 0.000000e+00 9.932263e-01 -1.161958e-01 0.000000e+00 9.668482e-01 -2.553517e-01 0.000000e+00 9.925226e-01 -1.220609e-01 0.000000e+00 6.860606e-01 -7.275444e-01 0.000000e+00 9.124286e-01 4.092360e-01 0.000000e+00 9.841877e-01 -1.771288e-01 0.000000e+00 9.882055e-01 -1.531333e-01 0.000000e+00 9.168716e-01 3.991822e-01 0.000000e+00 9.945851e-01 -1.039253e-01 0.000000e+00 9.953502e-01 -9.632212e-02 0.000000e+00 9.949581e-01 -1.002917e-01 0.000000e+00 9.082297e-01 4.184720e-01 0.000000e+00 1.264401e-01 -9.919743e-01 0.000000e+00 9.622946e-01 -2.720094e-01 0.000000e+00 9.701304e-01 -2.425840e-01 0.000000e+00 9.699370e-01 -2.433560e-01 0.000000e+00 9.979577e-01 -6.387766e-02 0.000000e+00 9.327465e-01 3.605329e-01 0.000000e+00 7.372740e-01 6.755939e-01 0.000000e+00 9.994306e-01 -3.374066e-02 0.000000e+00 9.911160e-01 -1.330003e-01 0.000000e+00 8.738649e-01 4.861688e-01 0.000000e+00 9.951177e-01 -9.869482e-02 0.000000e+00 8.178839e-01 -5.753833e-01 0.000000e+00 8.308846e-01 -5.564448e-01 0.000000e+00 9.666064e-02 9.953174e-01 0.000000e+00 9.978563e-01 -6.544378e-02 0.000000e+00 9.926721e-01 -1.208393e-01 0.000000e+00 9.949254e-01 -1.006152e-01 0.000000e+00 9.685106e-01 -2.489725e-01 0.000000e+00 9.605632e-01 -2.780619e-01 0.000000e+00 8.164923e-01 5.773564e-01 0.000000e+00 2.563877e-01 -9.665740e-01 0.000000e+00 7.454280e-01 6.665862e-01 0.000000e+00 7.197012e-01 -6.942839e-01 0.000000e+00 9.729712e-01 -2.309263e-01 0.000000e+00 9.606550e-01 -2.777446e-01 0.000000e+00 9.993850e-01 3.506471e-02 0.000000e+00 3.377963e-01 -9.412193e-01 0.000000e+00 9.751851e-01 -2.213912e-01 0.000000e+00 9.728424e-01 -2.314686e-01 0.000000e+00 1.994991e-01 -9.798980e-01 0.000000e+00 9.143932e-01 4.048271e-01 0.000000e+00 9.915476e-01 -1.297433e-01 0.000000e+00 9.934717e-01 -1.140792e-01 0.000000e+00 9.897622e-01 -1.427264e-01 0.000000e+00 6.376467e-01 -7.703289e-01 0.000000e+00 9.472282e-01 -3.205601e-01 0.000000e+00 9.510109e-01 -3.091574e-01 0.000000e+00 9.157564e-01 -4.017340e-01 0.000000e+00 8.472644e-01 -5.311714e-01 0.000000e+00 8.721936e-01 4.891608e-01 0.000000e+00 8.663248e-01 -4.994810e-01 0.000000e+00 9.797111e-01 -2.004148e-01 0.000000e+00 4.842466e-02 9.988268e-01 0.000000e+00 9.856939e-01 -1.685452e-01 0.000000e+00 7.915348e-01 -6.111241e-01 0.000000e+00 9.931202e-01 -1.170991e-01 0.000000e+00 9.964264e-01 -8.446591e-02 0.000000e+00 9.955504e-01 -9.423031e-02 0.000000e+00 8.475821e-01 5.306642e-01 0.000000e+00 7.455915e-01 6.664032e-01 0.000000e+00 9.161570e-01 -4.008195e-01 0.000000e+00 9.720461e-01 -2.347900e-01 0.000000e+00 9.799139e-01 -1.994212e-01 0.000000e+00 9.356082e-01 -3.530401e-01 0.000000e+00 9.457966e-01 -3.247596e-01 0.000000e+00 9.438265e-01 -3.304416e-01 0.000000e+00 4.319711e-01 -9.018875e-01 0.000000e+00 8.906753e-01 4.546400e-01 0.000000e+00 7.954706e-01 6.059922e-01 0.000000e+00 7.674046e-01 6.411631e-01 0.000000e+00 7.974089e-01 6.034394e-01 0.000000e+00 9.843673e-01 -1.761280e-01 0.000000e+00 6.432960e-01 7.656176e-01 0.000000e+00 8.987748e-01 4.384106e-01 0.000000e+00 9.126019e-01 -4.088493e-01 0.000000e+00 9.522096e-01 -3.054455e-01 0.000000e+00 9.673480e-01 -2.534517e-01 0.000000e+00 9.137008e-01 -4.063876e-01 0.000000e+00 6.664911e-01 7.455129e-01 0.000000e+00 8.649699e-01 5.018238e-01 0.000000e+00 9.898934e-01 -1.418132e-01 0.000000e+00 5.711219e-01 -8.208653e-01 0.000000e+00 9.860692e-01 -1.663356e-01 0.000000e+00 7.492729e-01 6.622614e-01 0.000000e+00 8.970978e-01 -4.418320e-01 0.000000e+00 3.087176e-01 9.511537e-01 0.000000e+00 9.993151e-01 -3.700477e-02 0.000000e+00 8.926142e-01 -4.508213e-01 0.000000e+00 6.921364e-01 7.217667e-01 0.000000e+00 4.960372e-01 8.683013e-01 0.000000e+00 5.698856e-01 8.217240e-01 0.000000e+00 9.138065e-01 -4.061499e-01 0.000000e+00 9.984640e-01 -5.540418e-02 0.000000e+00 6.827011e-01 7.306978e-01 0.000000e+00 8.447036e-01 -5.352344e-01 0.000000e+00 9.053160e-01 -4.247386e-01 0.000000e+00 6.754261e-01 -7.374277e-01 0.000000e+00 3.875704e-01 -9.218401e-01 0.000000e+00 5.795813e-02 9.983190e-01 0.000000e+00 3.163029e-01 9.486583e-01 0.000000e+00 4.327403e-02 -9.990632e-01 0.000000e+00 9.443468e-01 -3.289516e-01 0.000000e+00 9.964474e-01 -8.421692e-02 0.000000e+00 3.140213e-01 -9.494159e-01 0.000000e+00 9.125827e-01 -4.088923e-01 0.000000e+00 8.987464e-01 -4.384688e-01 0.000000e+00 9.862372e-01 -1.653368e-01 0.000000e+00 5.534813e-01 8.328616e-01 0.000000e+00 5.490073e-01 8.358175e-01 0.000000e+00 6.886652e-01 7.250794e-01 0.000000e+00 2.184158e-02 9.997614e-01 0.000000e+00 9.609608e-01 -2.766846e-01 0.000000e+00 8.762497e-01 -4.818573e-01 0.000000e+00 9.838285e-01 -1.791130e-01 0.000000e+00 4.514812e-01 -8.922806e-01 0.000000e+00 2.473035e-01 -9.689381e-01 0.000000e+00 9.528499e-01 -3.034419e-01 0.000000e+00 5.915217e-01 -8.062891e-01 0.000000e+00 3.691171e-01 -9.293829e-01 0.000000e+00 8.207946e-01 5.712235e-01 0.000000e+00 7.548703e-01 6.558741e-01 0.000000e+00 9.558020e-02 9.954217e-01 0.000000e+00 9.039911e-01 -4.275512e-01 0.000000e+00 2.384825e-01 9.711468e-01 0.000000e+00 7.148539e-01 -6.992738e-01 0.000000e+00 5.098752e-01 -8.602484e-01 0.000000e+00 7.805479e-01 -6.250960e-01 0.000000e+00 9.817717e-01 -1.900642e-01 0.000000e+00 6.668844e-01 -7.451612e-01 0.000000e+00 7.123113e-01 -7.018637e-01 0.000000e+00 8.505716e-01 -5.258592e-01 0.000000e+00 9.358461e-01 -3.524089e-01 0.000000e+00 7.443886e-01 6.677466e-01 0.000000e+00 8.793441e-01 4.761868e-01 0.000000e+00 6.549058e-01 7.557105e-01 0.000000e+00 8.360058e-01 5.487206e-01 0.000000e+00 9.673735e-01 -2.533547e-01 0.000000e+00 9.289753e-01 -3.701418e-01 0.000000e+00 9.194556e-01 -3.931938e-01 0.000000e+00 3.835329e-01 -9.235272e-01 0.000000e+00 7.609424e-01 -6.488194e-01 0.000000e+00 9.817717e-01 -1.900642e-01 0.000000e+00 7.505804e-01 -6.607791e-01 0.000000e+00 5.256870e-01 -8.506780e-01 0.000000e+00 6.321393e-01 -7.748548e-01 0.000000e+00 9.402929e-01 -3.403664e-01 0.000000e+00 9.475411e-01 -3.196340e-01 0.000000e+00 8.146419e-01 -5.799643e-01 0.000000e+00 9.909707e-01 -1.340783e-01 0.000000e+00 9.915756e-01 -1.295296e-01 0.000000e+00 6.184665e-01 -7.858112e-01 0.000000e+00 7.446627e-01 -6.674410e-01 0.000000e+00 9.793108e-01 -2.023618e-01 0.000000e+00 9.768862e-01 -2.137602e-01 0.000000e+00 8.586481e-01 -5.125656e-01 0.000000e+00 9.887160e-01 -1.498020e-01 0.000000e+00 9.613088e-01 -2.754730e-01 0.000000e+00 9.472070e-01 -3.206227e-01 0.000000e+00 2.975158e-01 9.547169e-01 0.000000e+00 3.472362e-01 9.377777e-01 0.000000e+00 5.345480e-01 -8.451381e-01 0.000000e+00 5.764901e-01 -8.171041e-01 0.000000e+00 7.264086e-01 -6.872630e-01 0.000000e+00 9.423284e-01 -3.346897e-01 0.000000e+00 9.720458e-01 -2.347914e-01 0.000000e+00 5.108222e-01 -8.596864e-01 0.000000e+00 9.893681e-01 -1.454328e-01 0.000000e+00 9.677880e-01 -2.517665e-01 0.000000e+00 9.620034e-01 -2.730375e-01 0.000000e+00 9.527876e-01 -3.036375e-01 0.000000e+00 9.697309e-01 -2.441760e-01 0.000000e+00 4.922079e-01 -8.704777e-01 0.000000e+00 9.384129e-01 -3.455159e-01 0.000000e+00 1.718762e-01 9.851186e-01 0.000000e+00 9.230218e-01 -3.847475e-01 0.000000e+00 7.769916e-01 -6.295110e-01 0.000000e+00 6.643130e-01 7.474545e-01 0.000000e+00 8.863622e-01 -4.629926e-01 0.000000e+00 9.420932e-01 -3.353511e-01 0.000000e+00 8.391584e-01 -5.438871e-01 0.000000e+00 9.825609e-01 -1.859413e-01 0.000000e+00 2.112141e-01 -9.774398e-01 0.000000e+00 7.002598e-01 -7.138881e-01 0.000000e+00 6.147176e-01 -7.887473e-01 0.000000e+00 6.862591e-01 -7.273572e-01 0.000000e+00 9.896683e-01 -1.433757e-01 0.000000e+00 9.115043e-01 -4.112906e-01 0.000000e+00 8.947366e-01 -4.465942e-01 0.000000e+00 8.578389e-01 -5.139187e-01 0.000000e+00 5.748563e-01 8.182544e-01 0.000000e+00 8.655948e-01 5.007451e-01 0.000000e+00 6.218686e-01 7.831216e-01 0.000000e+00 7.766812e-01 -6.298938e-01 0.000000e+00 9.691815e-01 -2.463478e-01 0.000000e+00 8.068729e-01 -5.907251e-01 0.000000e+00 1.930687e-02 -9.998136e-01 0.000000e+00 7.267682e-01 -6.868829e-01 0.000000e+00 8.266733e-01 5.626822e-01 0.000000e+00 8.113398e-01 -5.845749e-01 0.000000e+00 2.522412e-01 -9.676644e-01 0.000000e+00 9.853023e-01 -1.708197e-01 0.000000e+00 6.183630e-01 -7.858926e-01 0.000000e+00 9.663146e-01 -2.573638e-01 0.000000e+00 9.861951e-01 -1.655874e-01 0.000000e+00 7.628530e-01 -6.465720e-01 0.000000e+00 5.365001e-01 8.439003e-01 0.000000e+00 1.650623e-01 -9.862832e-01 0.000000e+00 1.029254e-01 -9.946891e-01 0.000000e+00 6.564415e-01 -7.543769e-01 0.000000e+00 8.314846e-01 -5.555478e-01 0.000000e+00 9.353153e-01 -3.538152e-01 0.000000e+00 9.899019e-01 -1.417541e-01 0.000000e+00 9.756041e-01 -2.195372e-01 0.000000e+00 8.615991e-01 -5.075894e-01 0.000000e+00 8.950440e-01 -4.459778e-01 0.000000e+00 9.713488e-01 -2.376584e-01 0.000000e+00 4.176122e-02 9.991276e-01 0.000000e+00 7.427185e-01 -6.696038e-01 0.000000e+00 5.492100e-01 -8.356844e-01 0.000000e+00 6.022880e-01 -7.982788e-01 0.000000e+00 6.407789e-01 -7.677255e-01 0.000000e+00 9.124596e-01 -4.091668e-01 0.000000e+00 9.036456e-01 -4.282810e-01 0.000000e+00 9.850284e-01 -1.723922e-01 0.000000e+00 9.383047e-01 -3.458097e-01 0.000000e+00 9.474706e-01 -3.198428e-01 0.000000e+00 3.792235e-01 9.253051e-01 0.000000e+00 6.766469e-01 -7.363076e-01 0.000000e+00 4.350611e-01 -9.004009e-01 0.000000e+00 6.756036e-01 7.372651e-01 0.000000e+00 7.573735e-01 6.529819e-01 0.000000e+00 5.604048e-01 -8.282189e-01 0.000000e+00 8.364445e-01 5.480516e-01 0.000000e+00 9.239807e-01 -3.824392e-01 0.000000e+00 9.684722e-01 -2.491215e-01 0.000000e+00 8.954253e-02 9.959830e-01 0.000000e+00 9.313927e-01 -3.640160e-01 0.000000e+00 5.944846e-01 8.041070e-01 0.000000e+00 8.679106e-01 -4.967205e-01 0.000000e+00 9.112632e-01 -4.118245e-01 0.000000e+00 3.913392e-01 -9.202465e-01 0.000000e+00 9.418038e-01 -3.361630e-01 0.000000e+00 7.054222e-01 7.087873e-01 0.000000e+00 7.487160e-01 6.628909e-01 0.000000e+00 5.136275e-01 -8.580133e-01 0.000000e+00 7.222819e-01 6.915988e-01 0.000000e+00 2.806943e-01 9.597972e-01 0.000000e+00 9.477713e-01 -3.189506e-01 0.000000e+00 7.277564e-01 6.858357e-01 0.000000e+00 6.168505e-01 7.870803e-01 0.000000e+00 6.206329e-01 -7.841013e-01 0.000000e+00 7.839723e-01 -6.207959e-01 0.000000e+00 6.510271e-01 7.590545e-01 0.000000e+00 9.981177e-01 -6.132750e-02 0.000000e+00 9.782632e-01 -2.073670e-01 0.000000e+00 9.938389e-01 -1.108338e-01 0.000000e+00 4.691287e-01 8.831298e-01 0.000000e+00 8.809407e-01 -4.732267e-01 0.000000e+00 8.679669e-01 -4.966221e-01 0.000000e+00 9.639343e-03 -9.999535e-01 0.000000e+00 1.984591e-01 9.801092e-01 0.000000e+00 1.509786e-01 -9.885370e-01 0.000000e+00 9.993199e-01 -3.687413e-02 0.000000e+00 9.537212e-01 -3.006923e-01 0.000000e+00 8.587816e-01 -5.123419e-01 0.000000e+00 4.141190e-01 -9.102228e-01 0.000000e+00 1.344619e-01 -9.909188e-01 0.000000e+00 7.293605e-01 -6.841296e-01 0.000000e+00 6.058564e-01 -7.955740e-01 0.000000e+00 9.036928e-01 -4.281814e-01 0.000000e+00 8.840506e-01 -4.673911e-01 0.000000e+00 1.944903e-01 -9.809044e-01 0.000000e+00 5.400637e-01 -8.416241e-01 0.000000e+00 8.116502e-01 -5.841438e-01 0.000000e+00 9.157914e-01 -4.016542e-01 0.000000e+00 3.639521e-01 -9.314177e-01 0.000000e+00 9.668798e-01 -2.552321e-01 0.000000e+00 9.738490e-01 -2.271964e-01 0.000000e+00 9.732893e-01 -2.295820e-01 0.000000e+00 6.925967e-01 -7.213250e-01 0.000000e+00 8.466253e-01 -5.321894e-01 0.000000e+00 8.699438e-01 -4.931509e-01 0.000000e+00 9.156298e-01 -4.020224e-01 0.000000e+00 9.086611e-01 -4.175344e-01 0.000000e+00 5.823346e-01 8.129492e-01 0.000000e+00 5.025717e-01 -8.645355e-01 0.000000e+00 7.889407e-01 -6.144694e-01 0.000000e+00 4.569790e-01 -8.894775e-01 0.000000e+00 5.062278e-01 -8.623998e-01 0.000000e+00 3.659882e-01 -9.306195e-01 0.000000e+00 3.157810e-01 -9.488321e-01 0.000000e+00 1.505250e-01 9.886062e-01 0.000000e+00 7.487248e-01 -6.628810e-01 0.000000e+00 8.349347e-01 -5.503490e-01 0.000000e+00 7.919606e-01 -6.105722e-01 0.000000e+00 8.695767e-01 -4.937979e-01 0.000000e+00 4.391643e-01 8.984068e-01 0.000000e+00 3.855994e-01 9.226663e-01 0.000000e+00 3.594790e-01 9.331532e-01 0.000000e+00 1.775985e-01 9.841030e-01 0.000000e+00 8.976763e-01 -4.406556e-01 0.000000e+00 7.014942e-01 -7.126752e-01 0.000000e+00 5.289087e-01 -8.486787e-01 0.000000e+00 4.594120e-01 -8.882233e-01 0.000000e+00 8.878766e-01 -4.600817e-01 0.000000e+00 9.563152e-01 -2.923374e-01 0.000000e+00 8.969061e-01 -4.422211e-01 0.000000e+00 2.625298e-01 -9.649239e-01 0.000000e+00 2.692394e-01 -9.630733e-01 0.000000e+00 9.255681e-01 -3.785813e-01 0.000000e+00 8.556598e-01 -5.175386e-01 0.000000e+00 9.776346e-01 -2.103106e-01 0.000000e+00 8.650469e-01 -5.016911e-01 0.000000e+00 9.996637e-01 -2.593188e-02 0.000000e+00 5.967553e-01 -8.024233e-01 0.000000e+00 9.676496e-01 -2.522981e-01 0.000000e+00 4.977931e-01 -8.672958e-01 0.000000e+00 4.852860e-01 -8.743555e-01 0.000000e+00 8.055433e-01 -5.925370e-01 0.000000e+00 3.074541e-01 -9.515629e-01 0.000000e+00 6.618766e-01 7.496128e-01 0.000000e+00 9.968185e-02 -9.950194e-01 0.000000e+00 6.773777e-01 -7.356354e-01 0.000000e+00 7.587157e-01 -6.514218e-01 0.000000e+00 1.195616e-01 -9.928268e-01 0.000000e+00 6.704475e-02 -9.977500e-01 0.000000e+00 7.192522e-01 -6.947491e-01 0.000000e+00 8.036163e-01 -5.951477e-01 0.000000e+00 9.507244e-01 -3.100372e-01 0.000000e+00 7.311298e-01 -6.822384e-01 0.000000e+00 2.067006e-01 -9.784042e-01 0.000000e+00 8.535532e-01 -5.210058e-01 0.000000e+00 9.605681e-01 -2.780447e-01 0.000000e+00 9.127339e-01 -4.085545e-01 0.000000e+00 6.244527e-01 -7.810626e-01 0.000000e+00 7.961187e-01 -6.051405e-01 0.000000e+00 8.782263e-01 -4.782452e-01 0.000000e+00 8.385677e-01 -5.447974e-01 0.000000e+00 8.735178e-01 -4.867921e-01 0.000000e+00 7.677664e-01 -6.407299e-01 0.000000e+00 7.139958e-01 -7.001500e-01 0.000000e+00 3.518506e-01 -9.360562e-01 0.000000e+00 2.298592e-01 -9.732239e-01 0.000000e+00 1.209708e-01 9.926561e-01 0.000000e+00 9.003042e-02 9.959390e-01 0.000000e+00 5.049216e-01 -8.631652e-01 0.000000e+00 4.711219e-01 -8.820681e-01 0.000000e+00 3.388729e-01 -9.408322e-01 0.000000e+00 5.883549e-01 -8.086028e-01 0.000000e+00 8.413447e-01 -5.404990e-01 0.000000e+00 8.386940e-01 -5.446029e-01 0.000000e+00 8.030930e-01 -5.958537e-01 0.000000e+00 2.888739e-01 9.573671e-01 0.000000e+00 5.255002e-02 9.986183e-01 0.000000e+00 6.059982e-01 -7.954660e-01 0.000000e+00 6.775217e-01 -7.355028e-01 0.000000e+00 7.847319e-01 -6.198353e-01 0.000000e+00 2.052679e-01 -9.787058e-01 0.000000e+00 3.177203e-01 9.481845e-01 0.000000e+00 9.014631e-01 -4.328560e-01 0.000000e+00 5.604100e-01 8.282153e-01 0.000000e+00 6.300174e-01 -7.765810e-01 0.000000e+00 6.081933e-01 -7.937890e-01 0.000000e+00 6.134345e-01 -7.897456e-01 0.000000e+00 3.008744e-02 -9.995473e-01 0.000000e+00 7.118024e-01 -7.023798e-01 0.000000e+00 7.732513e-01 -6.340997e-01 0.000000e+00 8.466017e-01 -5.322270e-01 0.000000e+00 2.560700e-01 -9.666582e-01 0.000000e+00 1.647011e-01 -9.863435e-01 0.000000e+00 4.434324e-01 -8.963078e-01 0.000000e+00 8.511618e-01 -5.249035e-01 0.000000e+00 8.320157e-01 -5.547520e-01 0.000000e+00 6.302199e-01 -7.764167e-01 0.000000e+00 4.332296e-01 -9.012836e-01 0.000000e+00 6.880873e-01 -7.256279e-01 0.000000e+00 3.672177e-01 -9.301350e-01 0.000000e+00 6.103551e-01 -7.921279e-01 0.000000e+00 9.542045e-01 -2.991550e-01 0.000000e+00 7.758453e-01 -6.309231e-01 0.000000e+00 9.147507e-02 9.958074e-01 0.000000e+00   </DataArray>
</PointData>
</Piece>
</UnstructuredGrid>
</VTKFile>
