<!-- TimeStep 10 Computed 2021-08-30 at 9:26:12 -->
<VTKFile type="UnstructuredGrid" version="0.1" byte_order="LittleEndian">
<UnstructuredGrid>
<Piece NumberOfPoints="658" NumberOfCells="1187">
<Points>
 <DataArray type="Float64" NumberOfComponents="3" format="ascii"> 3.225000e-02 1.380000e-02 0.000000e+00 3.850000e-02 2.000000e-03 0.000000e+00 1.790000e-02 2.000000e-03 0.000000e+00 3.850000e-02 3.000000e-02 0.000000e+00 1.610000e-02 5.000000e-04 0.000000e+00 -2.400000e-02 3.000000e-02 0.000000e+00 0.000000e+00 0.000000e+00 0.000000e+00 -2.400000e-02 0.000000e+00 0.000000e+00 3.209060e-02 1.520260e-02 0.000000e+00 3.166140e-02 1.644790e-02 0.000000e+00 3.086510e-02 1.772340e-02 0.000000e+00 2.972250e-02 1.882050e-02 0.000000e+00 2.860520e-02 1.948120e-02 0.000000e+00 2.719700e-02 1.993430e-02 0.000000e+00 2.590380e-02 2.004930e-02 0.000000e+00 2.457020e-02 1.988430e-02 0.000000e+00 2.332460e-02 1.944840e-02 0.000000e+00 2.208010e-02 1.866800e-02 0.000000e+00 2.105550e-02 1.762290e-02 0.000000e+00 2.030070e-02 1.636520e-02 0.000000e+00 1.988720e-02 1.510250e-02 0.000000e+00 1.975010e-02 1.376650e-02 0.000000e+00 1.990830e-02 1.240220e-02 0.000000e+00 2.036540e-02 1.109550e-02 0.000000e+00 2.111820e-02 9.897330e-03 0.000000e+00 2.206020e-02 8.948140e-03 0.000000e+00 2.327140e-02 8.177090e-03 0.000000e+00 2.473380e-02 7.679600e-03 0.000000e+00 2.609570e-02 7.550730e-03 0.000000e+00 2.739940e-02 7.708680e-03 0.000000e+00 2.878200e-02 8.203300e-03 0.000000e+00 2.990320e-02 8.918690e-03 0.000000e+00 3.088920e-02 9.906670e-03 0.000000e+00 3.160900e-02 1.104290e-02 0.000000e+00 3.210220e-02 1.244870e-02 0.000000e+00 -2.400000e-02 2.335620e-02 0.000000e+00 -2.400000e-02 1.701100e-02 0.000000e+00 -2.400000e-02 1.072240e-02 0.000000e+00 -2.400000e-02 4.857510e-03 0.000000e+00 2.555380e-03 7.935950e-05 0.000000e+00 4.875910e-03 1.514260e-04 0.000000e+00 6.963700e-03 2.162640e-04 0.000000e+00 8.859870e-03 2.751510e-04 0.000000e+00 1.057630e-02 3.284580e-04 0.000000e+00 1.216970e-02 3.779410e-04 0.000000e+00 1.361520e-02 4.228320e-04 0.000000e+00 1.491400e-02 4.631670e-04 0.000000e+00 3.513720e-02 3.000000e-02 0.000000e+00 3.240430e-02 3.000000e-02 0.000000e+00 2.925060e-02 3.000000e-02 0.000000e+00 2.634890e-02 3.000000e-02 0.000000e+00 2.370540e-02 3.000000e-02 0.000000e+00 2.076670e-02 3.000000e-02 0.000000e+00 1.724780e-02 3.000000e-02 0.000000e+00 1.387080e-02 3.000000e-02 0.000000e+00 1.012770e-02 3.000000e-02 0.000000e+00 5.994200e-03 3.000000e-02 0.000000e+00 1.449760e-03 3.000000e-02 0.000000e+00 -3.587440e-03 3.000000e-02 0.000000e+00 -1.004840e-02 3.000000e-02 0.000000e+00 -1.697880e-02 3.000000e-02 0.000000e+00 1.699120e-02 1.242700e-03 0.000000e+00 3.850000e-02 5.026050e-03 0.000000e+00 3.850000e-02 7.576210e-03 0.000000e+00 3.850000e-02 9.994300e-03 0.000000e+00 3.850000e-02 1.226100e-02 0.000000e+00 3.850000e-02 1.414740e-02 0.000000e+00 3.850000e-02 1.624580e-02 0.000000e+00 3.850000e-02 1.834310e-02 0.000000e+00 3.850000e-02 2.066490e-02 0.000000e+00 3.850000e-02 2.323650e-02 0.000000e+00 3.850000e-02 2.633950e-02 0.000000e+00 1.914730e-02 2.000000e-03 0.000000e+00 2.068130e-02 2.000000e-03 0.000000e+00 2.253900e-02 2.000000e-03 0.000000e+00 2.480250e-02 2.000000e-03 0.000000e+00 2.727520e-02 2.000000e-03 0.000000e+00 3.001300e-02 2.000000e-03 0.000000e+00 3.284600e-02 2.000000e-03 0.000000e+00 3.556410e-02 2.000000e-03 0.000000e+00 -2.352000e-02 0.000000e+00 0.000000e+00 -2.304000e-02 0.000000e+00 0.000000e+00 -2.256000e-02 0.000000e+00 0.000000e+00 -2.208000e-02 0.000000e+00 0.000000e+00 -2.160000e-02 0.000000e+00 0.000000e+00 -2.112000e-02 0.000000e+00 0.000000e+00 -2.064000e-02 0.000000e+00 0.000000e+00 -2.016000e-02 0.000000e+00 0.000000e+00 -1.968000e-02 0.000000e+00 0.000000e+00 -1.920000e-02 0.000000e+00 0.000000e+00 -1.872000e-02 0.000000e+00 0.000000e+00 -1.824000e-02 0.000000e+00 0.000000e+00 -1.776000e-02 0.000000e+00 0.000000e+00 -1.728000e-02 0.000000e+00 0.000000e+00 -1.680000e-02 0.000000e+00 0.000000e+00 -1.632000e-02 0.000000e+00 0.000000e+00 -1.584000e-02 0.000000e+00 0.000000e+00 -1.536000e-02 0.000000e+00 0.000000e+00 -1.488000e-02 0.000000e+00 0.000000e+00 -1.440000e-02 0.000000e+00 0.000000e+00 -1.392000e-02 0.000000e+00 0.000000e+00 -1.344000e-02 0.000000e+00 0.000000e+00 -1.296000e-02 0.000000e+00 0.000000e+00 -1.248000e-02 0.000000e+00 0.000000e+00 -1.200000e-02 0.000000e+00 0.000000e+00 -1.152000e-02 0.000000e+00 0.000000e+00 -1.104000e-02 0.000000e+00 0.000000e+00 -1.056000e-02 0.000000e+00 0.000000e+00 -1.008000e-02 0.000000e+00 0.000000e+00 -9.600000e-03 0.000000e+00 0.000000e+00 -9.120000e-03 0.000000e+00 0.000000e+00 -8.640000e-03 0.000000e+00 0.000000e+00 -8.160000e-03 0.000000e+00 0.000000e+00 -7.680000e-03 0.000000e+00 0.000000e+00 -7.200000e-03 0.000000e+00 0.000000e+00 -6.720000e-03 0.000000e+00 0.000000e+00 -6.240000e-03 0.000000e+00 0.000000e+00 -5.760000e-03 0.000000e+00 0.000000e+00 -5.280000e-03 0.000000e+00 0.000000e+00 -4.800000e-03 0.000000e+00 0.000000e+00 -4.320000e-03 0.000000e+00 0.000000e+00 -3.840000e-03 0.000000e+00 0.000000e+00 -3.360000e-03 0.000000e+00 0.000000e+00 -2.880000e-03 0.000000e+00 0.000000e+00 -2.400000e-03 0.000000e+00 0.000000e+00 -1.920000e-03 0.000000e+00 0.000000e+00 -1.440000e-03 0.000000e+00 0.000000e+00 -9.600000e-04 0.000000e+00 0.000000e+00 -4.800000e-04 0.000000e+00 0.000000e+00 -2.340000e-02 5.208130e-04 0.000000e+00 -2.232960e-02 4.618260e-04 0.000000e+00 -2.136950e-02 4.810430e-04 0.000000e+00 -2.041540e-02 4.927590e-04 0.000000e+00 -1.945300e-02 4.966680e-04 0.000000e+00 -1.848070e-02 4.958900e-04 0.000000e+00 -1.751710e-02 4.691530e-04 0.000000e+00 -1.656600e-02 4.678350e-04 0.000000e+00 -1.561650e-02 4.775930e-04 0.000000e+00 -1.465390e-02 4.891080e-04 0.000000e+00 -1.370270e-02 4.971550e-04 0.000000e+00 -1.272340e-02 4.842530e-04 0.000000e+00 -1.178010e-02 4.967790e-04 0.000000e+00 -1.080540e-02 4.845440e-04 0.000000e+00 -9.864580e-03 4.765300e-04 0.000000e+00 -8.865750e-03 4.840670e-04 0.000000e+00 -7.905730e-03 5.011730e-04 0.000000e+00 -6.950840e-03 4.922920e-04 0.000000e+00 -6.019280e-03 4.246020e-04 0.000000e+00 -5.025350e-03 4.728720e-04 0.000000e+00 -4.065420e-03 4.835660e-04 0.000000e+00 -3.128960e-03 4.451670e-04 0.000000e+00 -2.171430e-03 4.762830e-04 0.000000e+00 -1.187460e-03 5.232410e-04 0.000000e+00 -1.169200e-04 6.148440e-04 0.000000e+00 5.857940e-03 1.696520e-03 0.000000e+00 9.466970e-03 1.890640e-03 0.000000e+00 1.285950e-02 1.842540e-03 0.000000e+00 1.567970e-02 1.589100e-03 0.000000e+00 1.654450e-02 2.586790e-03 0.000000e+00 1.870650e-02 3.039180e-03 0.000000e+00 2.161510e-02 3.508730e-03 0.000000e+00 2.644280e-02 3.572340e-03 0.000000e+00 3.127720e-02 3.918880e-03 0.000000e+00 3.629790e-02 5.896780e-03 0.000000e+00 3.653930e-02 1.078160e-02 0.000000e+00 3.658270e-02 1.517420e-02 0.000000e+00 3.649690e-02 1.966800e-02 0.000000e+00 3.564140e-02 2.453050e-02 0.000000e+00 3.471780e-02 2.738170e-02 0.000000e+00 3.097490e-02 2.763820e-02 0.000000e+00 2.500050e-02 2.778260e-02 0.000000e+00 1.911390e-02 2.734780e-02 0.000000e+00 1.195580e-02 2.690690e-02 0.000000e+00 3.452650e-03 2.633780e-02 0.000000e+00 -7.324260e-03 2.613160e-02 0.000000e+00 -1.270890e-02 2.610200e-02 0.000000e+00 -1.842590e-02 2.481480e-02 0.000000e+00 -2.078380e-02 2.023790e-02 0.000000e+00 3.351880e-02 1.299650e-02 0.000000e+00 3.321610e-02 1.125410e-02 0.000000e+00 3.240270e-02 9.708370e-03 0.000000e+00 3.124550e-02 8.531210e-03 0.000000e+00 2.994440e-02 7.484320e-03 0.000000e+00 2.846950e-02 6.692040e-03 0.000000e+00 2.682410e-02 6.398290e-03 0.000000e+00 2.522120e-02 6.457060e-03 0.000000e+00 2.358330e-02 6.768300e-03 0.000000e+00 2.202220e-02 7.395140e-03 0.000000e+00 2.065990e-02 8.488800e-03 0.000000e+00 1.961080e-02 9.755280e-03 0.000000e+00 1.888420e-02 1.131290e-02 0.000000e+00 1.849530e-02 1.294410e-02 0.000000e+00 1.849360e-02 1.454180e-02 0.000000e+00 1.881370e-02 1.618350e-02 0.000000e+00 1.956540e-02 1.777080e-02 0.000000e+00 2.064850e-02 1.913430e-02 0.000000e+00 2.199860e-02 2.018520e-02 0.000000e+00 2.351120e-02 2.085000e-02 0.000000e+00 2.512340e-02 2.121420e-02 0.000000e+00 2.667170e-02 2.118690e-02 0.000000e+00 2.831550e-02 2.085570e-02 0.000000e+00 2.991870e-02 2.021780e-02 0.000000e+00 3.132950e-02 1.919600e-02 0.000000e+00 3.236480e-02 1.776990e-02 0.000000e+00 3.311520e-02 1.621600e-02 0.000000e+00 3.347840e-02 1.467100e-02 0.000000e+00 -2.284400e-02 4.893670e-04 0.000000e+00 -2.185120e-02 4.651270e-04 0.000000e+00 -2.087950e-02 4.954800e-04 0.000000e+00 -1.992730e-02 4.905700e-04 0.000000e+00 -1.896440e-02 5.146960e-04 0.000000e+00 -1.799490e-02 4.750100e-04 0.000000e+00 -1.705020e-02 4.652250e-04 0.000000e+00 -1.607800e-02 4.701420e-04 0.000000e+00 -1.512950e-02 4.852050e-04 0.000000e+00 -1.419440e-02 4.972290e-04 0.000000e+00 -1.320410e-02 4.845360e-04 0.000000e+00 -1.225140e-02 4.886650e-04 0.000000e+00 -1.130790e-02 4.924130e-04 0.000000e+00 -1.033120e-02 4.774360e-04 0.000000e+00 -9.365120e-03 4.775410e-04 0.000000e+00 -8.389860e-03 4.925440e-04 0.000000e+00 -7.442720e-03 5.065380e-04 0.000000e+00 -6.466490e-03 4.625650e-04 0.000000e+00 -5.527350e-03 4.204680e-04 0.000000e+00 -4.553670e-03 4.855930e-04 0.000000e+00 -3.599350e-03 4.758930e-04 0.000000e+00 -2.637330e-03 4.397930e-04 0.000000e+00 -1.676010e-03 4.983490e-04 0.000000e+00 -6.774770e-04 5.559640e-04 0.000000e+00 4.116400e-03 1.544720e-03 0.000000e+00 7.691210e-03 1.775840e-03 0.000000e+00 1.126030e-02 1.890640e-03 0.000000e+00 1.429970e-02 1.759220e-03 0.000000e+00 1.756480e-02 3.582850e-03 0.000000e+00 1.998660e-02 3.276390e-03 0.000000e+00 2.393340e-02 3.733490e-03 0.000000e+00 2.887110e-02 3.696960e-03 0.000000e+00 3.388150e-02 4.409110e-03 0.000000e+00 3.644040e-02 8.532590e-03 0.000000e+00 3.666220e-02 1.303330e-02 0.000000e+00 3.624470e-02 1.730480e-02 0.000000e+00 3.612270e-02 2.204020e-02 0.000000e+00 1.561920e-02 2.705730e-02 0.000000e+00 2.783560e-02 2.771860e-02 0.000000e+00 2.222260e-02 2.767250e-02 0.000000e+00 7.971510e-03 2.667810e-02 0.000000e+00 -1.457570e-03 2.572150e-02 0.000000e+00 -2.083080e-02 1.620770e-02 0.000000e+00 -2.114540e-02 1.046000e-03 0.000000e+00 -2.018830e-02 1.019380e-03 0.000000e+00 -1.681430e-02 9.910220e-04 0.000000e+00 -1.776950e-02 9.521010e-04 0.000000e+00 -2.067570e-02 1.052860e-03 0.000000e+00 -1.727630e-02 9.377480e-04 0.000000e+00 -1.823140e-02 1.032910e-03 0.000000e+00 -1.298260e-02 9.876760e-04 0.000000e+00 -1.396810e-02 1.067390e-03 0.000000e+00 -2.457830e-03 9.476930e-04 0.000000e+00 -1.347010e-02 1.016030e-03 0.000000e+00 -1.445740e-02 1.046670e-03 0.000000e+00 -1.107320e-02 1.059790e-03 0.000000e+00 -1.011690e-02 9.539410e-04 0.000000e+00 -1.056780e-02 1.013760e-03 0.000000e+00 -1.157310e-02 1.056340e-03 0.000000e+00 -8.623990e-03 1.038970e-03 0.000000e+00 -6.189430e-03 9.536710e-04 0.000000e+00 -7.664510e-03 1.040370e-03 0.000000e+00 -6.660790e-03 1.046330e-03 0.000000e+00 -3.328320e-03 9.685660e-04 0.000000e+00 -4.327420e-03 1.042660e-03 0.000000e+00 -7.157010e-03 1.050700e-03 0.000000e+00 -3.803170e-03 1.020190e-03 0.000000e+00 -4.831560e-03 1.021450e-03 0.000000e+00 -2.891810e-03 8.524400e-04 0.000000e+00 8.485410e-03 3.432940e-03 0.000000e+00 -3.736620e-04 1.188990e-03 0.000000e+00 1.208400e-02 3.413080e-03 0.000000e+00 6.715380e-03 3.280840e-03 0.000000e+00 4.997270e-03 3.185510e-03 0.000000e+00 -9.151520e-04 1.111380e-03 0.000000e+00 1.030580e-02 3.489760e-03 0.000000e+00 2.705650e-03 1.522090e-03 0.000000e+00 2.039490e-02 4.933730e-03 0.000000e+00 1.519830e-02 3.004380e-03 0.000000e+00 1.884210e-02 4.425300e-03 0.000000e+00 3.358290e-02 2.277120e-02 0.000000e+00 2.225360e-02 5.511080e-03 0.000000e+00 3.485680e-02 1.890660e-02 0.000000e+00 3.491090e-02 1.193930e-02 0.000000e+00 3.000610e-02 5.643160e-03 0.000000e+00 3.235230e-02 5.887860e-03 0.000000e+00 -2.209940e-02 9.181730e-04 0.000000e+00 3.445720e-02 7.084320e-03 0.000000e+00 3.439750e-02 9.622150e-03 0.000000e+00 2.104510e-02 2.526260e-02 0.000000e+00 3.428480e-02 2.067350e-02 0.000000e+00 2.375500e-02 2.570570e-02 0.000000e+00 1.776660e-02 2.436660e-02 0.000000e+00 3.252570e-02 2.530750e-02 0.000000e+00 1.000040e-02 2.369430e-02 0.000000e+00 -5.222370e-03 2.226790e-02 0.000000e+00 2.623900e-02 2.582870e-02 0.000000e+00 1.372330e-02 2.413330e-02 0.000000e+00 -9.640430e-03 2.255880e-02 0.000000e+00 -1.822220e-02 1.811490e-02 0.000000e+00 -1.412820e-02 2.232400e-02 0.000000e+00 -2.161440e-02 9.727400e-04 0.000000e+00 -8.127090e-03 1.038090e-03 0.000000e+00 5.986810e-04 8.564660e-04 0.000000e+00 2.919940e-02 2.548060e-02 0.000000e+00 -2.219370e-02 1.372400e-02 0.000000e+00 -1.584900e-02 9.464230e-04 0.000000e+00 3.277780e-02 8.016360e-03 0.000000e+00 3.130570e-02 7.065650e-03 0.000000e+00 2.773290e-02 5.134820e-03 0.000000e+00 2.416750e-02 5.438660e-03 0.000000e+00 2.051830e-02 6.767480e-03 0.000000e+00 1.794570e-02 9.989900e-03 0.000000e+00 1.698810e-02 1.376450e-02 0.000000e+00 1.769270e-02 1.761110e-02 0.000000e+00 1.884300e-02 1.943280e-02 0.000000e+00 2.041690e-02 2.092300e-02 0.000000e+00 2.214210e-02 2.190840e-02 0.000000e+00 2.592160e-02 2.259040e-02 0.000000e+00 2.774100e-02 2.232700e-02 0.000000e+00 2.968140e-02 2.187400e-02 0.000000e+00 3.309810e-02 1.924490e-02 0.000000e+00 3.412190e-02 1.750290e-02 0.000000e+00 1.570410e-03 8.416660e-04 0.000000e+00 3.243440e-03 3.109830e-03 0.000000e+00 -2.011680e-02 1.340120e-02 0.000000e+00 1.924930e-03 2.296040e-03 0.000000e+00 -2.304690e-02 1.038930e-03 0.000000e+00 -1.921250e-02 1.069290e-03 0.000000e+00 -1.251460e-02 1.011640e-03 0.000000e+00 -1.632520e-02 9.725270e-04 0.000000e+00 -9.608800e-03 9.760010e-04 0.000000e+00 -5.775390e-03 8.260340e-04 0.000000e+00 1.949790e-04 1.244240e-03 0.000000e+00 1.366400e-02 3.254490e-03 0.000000e+00 -1.954400e-03 9.997400e-04 0.000000e+00 5.956210e-03 2.320340e-02 0.000000e+00 1.613680e-02 4.138020e-03 0.000000e+00 -2.159150e-02 1.135960e-02 0.000000e+00 -1.862070e-02 1.532320e-02 0.000000e+00 -1.969900e-02 1.013850e-03 0.000000e+00 -1.429360e-03 2.184690e-02 0.000000e+00 8.938000e-04 1.758100e-03 0.000000e+00 -1.739860e-02 2.105290e-02 0.000000e+00 3.503010e-02 1.390550e-02 0.000000e+00 -1.538560e-02 9.531990e-04 0.000000e+00 3.477560e-02 1.583430e-02 0.000000e+00 3.186090e-02 2.104080e-02 0.000000e+00 2.402810e-02 2.247280e-02 0.000000e+00 2.043580e-02 2.297850e-02 0.000000e+00 1.712150e-02 1.568790e-02 0.000000e+00 1.719890e-02 1.184250e-02 0.000000e+00 1.891820e-02 8.124710e-03 0.000000e+00 2.580970e-02 5.034100e-03 0.000000e+00 -2.258690e-02 9.559390e-04 0.000000e+00 -1.871690e-02 1.070390e-03 0.000000e+00 -1.490240e-02 9.781250e-04 0.000000e+00 -1.203480e-02 1.046550e-03 0.000000e+00 -9.143920e-03 1.022430e-03 0.000000e+00 -5.328750e-03 9.594130e-04 0.000000e+00 -1.443410e-03 1.043280e-03 0.000000e+00 1.969480e-03 2.272860e-02 0.000000e+00 -2.071300e-02 9.788950e-03 0.000000e+00 -1.958230e-02 1.116720e-02 0.000000e+00 -2.215760e-02 9.118380e-03 0.000000e+00 -1.941500e-02 9.053100e-03 0.000000e+00 -2.076380e-02 8.120110e-03 0.000000e+00 -2.092830e-02 1.670000e-03 0.000000e+00 -1.422850e-02 1.696350e-03 0.000000e+00 -4.658650e-03 1.607000e-03 0.000000e+00 -1.132350e-02 1.693630e-03 0.000000e+00 4.262890e-03 1.984380e-02 0.000000e+00 -6.266330e-03 1.609810e-03 0.000000e+00 9.347380e-03 5.186120e-03 0.000000e+00 -1.652640e-02 1.692530e-03 0.000000e+00 7.541480e-03 5.084430e-03 0.000000e+00 1.748270e-02 5.199610e-03 0.000000e+00 1.306590e-02 4.915860e-03 0.000000e+00 2.080530e-05 1.841260e-03 0.000000e+00 1.469850e-02 4.628130e-03 0.000000e+00 5.792460e-03 4.871950e-03 0.000000e+00 -6.440500e-04 1.784460e-03 0.000000e+00 1.127780e-02 5.148840e-03 0.000000e+00 1.085750e-03 2.955270e-03 0.000000e+00 -3.179300e-03 1.891810e-02 0.000000e+00 2.274260e-02 2.375350e-02 0.000000e+00 8.310980e-03 2.037610e-02 0.000000e+00 -1.755530e-02 1.298870e-02 0.000000e+00 -1.950490e-02 1.671430e-03 0.000000e+00 -1.797420e-02 1.554430e-03 0.000000e+00 -1.151340e-02 1.943950e-02 0.000000e+00 1.890250e-02 6.092260e-03 0.000000e+00 4.184220e-03 4.874160e-03 0.000000e+00 2.495010e-02 2.409630e-02 0.000000e+00 1.570090e-02 1.714030e-02 0.000000e+00 1.539290e-02 1.272360e-02 0.000000e+00 -1.622490e-02 1.607980e-02 0.000000e+00 -1.513740e-02 1.901560e-02 0.000000e+00 1.709160e-02 8.657140e-03 0.000000e+00 1.574290e-02 1.018820e-02 0.000000e+00 1.540270e-02 1.492700e-02 0.000000e+00 1.656690e-02 1.939380e-02 0.000000e+00 1.823450e-02 2.152830e-02 0.000000e+00 2.704170e-02 2.404070e-02 0.000000e+00 2.896550e-02 2.347080e-02 0.000000e+00 -1.967140e-02 7.179610e-03 0.000000e+00 -1.783480e-02 1.020500e-02 0.000000e+00 -7.187160e-03 1.861690e-02 0.000000e+00 -2.042350e-02 1.621020e-03 0.000000e+00 -8.891590e-03 1.690860e-03 0.000000e+00 -1.473500e-02 1.624080e-03 0.000000e+00 -1.708810e-02 1.535920e-03 0.000000e+00 -1.280550e-02 1.533350e-03 0.000000e+00 -6.817630e-03 1.658350e-03 0.000000e+00 -5.205250e-03 1.561040e-03 0.000000e+00 -1.185630e-03 1.677410e-03 0.000000e+00 -3.512550e-03 1.587410e-03 0.000000e+00 -1.032760e-02 1.560550e-03 0.000000e+00 -7.360100e-03 1.597090e-03 0.000000e+00 -1.324550e-02 1.468750e-03 0.000000e+00 -2.907030e-03 1.434130e-03 0.000000e+00 -1.996470e-02 1.519740e-03 0.000000e+00 1.931370e-03 3.789880e-03 0.000000e+00 -4.079750e-03 1.619410e-03 0.000000e+00 1.197440e-02 2.104740e-02 0.000000e+00 -1.897920e-02 1.758730e-03 0.000000e+00 -7.886370e-03 1.578040e-03 0.000000e+00 3.103830e-02 2.336140e-02 0.000000e+00 -5.761230e-03 1.376150e-03 0.000000e+00 1.734660e-02 6.968860e-03 0.000000e+00 -1.183840e-02 1.658460e-03 0.000000e+00 -8.375160e-03 1.643890e-03 0.000000e+00 1.398700e-02 1.888430e-02 0.000000e+00 -1.754320e-02 1.377420e-03 0.000000e+00 -2.145750e-02 1.634970e-03 0.000000e+00 -1.560810e-02 1.497140e-03 0.000000e+00 -1.845720e-02 1.726330e-03 0.000000e+00 5.418650e-04 1.925980e-02 0.000000e+00 -9.876720e-03 1.465750e-03 0.000000e+00 -2.303880e-03 1.532840e-03 0.000000e+00 2.755290e-03 5.104590e-03 0.000000e+00 -2.280550e-02 1.623090e-03 0.000000e+00 -1.606410e-02 1.427410e-03 0.000000e+00 -2.188640e-02 1.411010e-03 0.000000e+00 -2.094230e-02 6.373350e-03 0.000000e+00 -2.232220e-02 1.406430e-03 0.000000e+00 -1.081290e-02 1.633740e-03 0.000000e+00 -1.370450e-02 1.654570e-03 0.000000e+00 1.528360e-02 2.157820e-02 0.000000e+00 -2.187280e-02 7.259610e-03 0.000000e+00 -1.815370e-02 8.007390e-03 0.000000e+00 -2.242760e-02 5.441030e-03 0.000000e+00 -2.111880e-02 4.871500e-03 0.000000e+00 -2.197930e-02 4.152140e-03 0.000000e+00 -2.116740e-02 3.600850e-03 0.000000e+00 -2.203540e-02 3.076390e-03 0.000000e+00 -2.023470e-02 4.145160e-03 0.000000e+00 -2.127800e-02 2.452930e-03 0.000000e+00 -2.298410e-02 3.664980e-03 0.000000e+00 -2.270040e-02 2.460280e-03 0.000000e+00 -1.999070e-02 5.511250e-03 0.000000e+00 -2.206850e-02 2.053180e-03 0.000000e+00 -1.517820e-02 1.440220e-03 0.000000e+00 -1.231230e-02 1.598230e-03 0.000000e+00 6.595770e-03 1.685960e-02 0.000000e+00 -1.592540e-02 2.049480e-03 0.000000e+00 -9.423340e-03 1.617440e-03 0.000000e+00 -1.759700e-03 1.588040e-03 0.000000e+00 1.584660e-02 5.852590e-03 0.000000e+00 -1.573680e-02 1.125250e-02 0.000000e+00 1.028020e-02 7.063320e-03 0.000000e+00 -3.487310e-04 2.505800e-03 0.000000e+00 1.069450e-02 1.770910e-02 0.000000e+00 -1.474740e-02 1.397010e-02 0.000000e+00 -3.193340e-03 2.222860e-03 0.000000e+00 3.816860e-04 2.456360e-03 0.000000e+00 1.558350e-02 7.891870e-03 0.000000e+00 -2.062510e-02 2.214170e-03 0.000000e+00 -2.300510e-02 7.309920e-03 0.000000e+00 4.943630e-03 6.312230e-03 0.000000e+00 7.693650e-04 4.169100e-03 0.000000e+00 -2.045950e-02 3.007890e-03 0.000000e+00 -1.320390e-02 1.673890e-02 0.000000e+00 1.362080e-02 1.162150e-02 0.000000e+00 -1.951950e-02 3.249670e-03 0.000000e+00 8.291150e-03 7.213000e-03 0.000000e+00 -1.266920e-02 2.089280e-03 0.000000e+00 1.509320e-03 5.134000e-03 0.000000e+00 -1.527330e-02 2.093450e-03 0.000000e+00 2.634420e-03 1.638980e-02 0.000000e+00 -5.045840e-03 2.218060e-03 0.000000e+00 1.032670e-04 3.309100e-03 0.000000e+00 -7.065010e-03 2.281640e-03 0.000000e+00 -8.640040e-03 2.326170e-03 0.000000e+00 -9.974600e-04 2.426710e-03 0.000000e+00 -1.392370e-02 2.394960e-03 0.000000e+00 6.425320e-03 6.836580e-03 0.000000e+00 1.368060e-02 8.944580e-03 0.000000e+00 -1.324990e-02 2.163790e-03 0.000000e+00 3.459150e-03 6.713730e-03 0.000000e+00 1.420770e-02 6.458950e-03 0.000000e+00 -2.642010e-03 2.036210e-03 0.000000e+00 1.236770e-02 6.799520e-03 0.000000e+00 -2.000000e-02 2.247710e-03 0.000000e+00 -3.838250e-03 2.305580e-03 0.000000e+00 -1.048460e-02 2.166750e-03 0.000000e+00 -7.605190e-03 2.079640e-03 0.000000e+00 -1.458780e-02 2.330800e-03 0.000000e+00 -1.809020e-02 2.261400e-03 0.000000e+00 -1.160560e-02 2.374400e-03 0.000000e+00 -2.345370e-02 1.689690e-03 0.000000e+00 -1.919820e-02 4.653410e-03 0.000000e+00 -1.641330e-02 2.565530e-03 0.000000e+00 -1.756040e-02 1.950690e-03 0.000000e+00 -9.899080e-04 1.629390e-02 0.000000e+00 -1.101460e-02 2.356260e-03 0.000000e+00 1.356170e-02 1.392670e-02 0.000000e+00 -4.430740e-03 2.157270e-03 0.000000e+00 -1.934050e-02 2.352940e-03 0.000000e+00 -9.909980e-03 2.184850e-03 0.000000e+00 -4.350210e-03 1.600370e-02 0.000000e+00 -1.867810e-02 6.202350e-03 0.000000e+00 -1.219210e-02 2.273370e-03 0.000000e+00 -2.181920e-03 1.363960e-02 0.000000e+00 -1.701680e-02 2.237570e-03 0.000000e+00 -9.988580e-03 1.660220e-02 0.000000e+00 -9.258230e-03 2.324560e-03 0.000000e+00 -5.729720e-03 2.037550e-03 0.000000e+00 -1.647890e-02 9.011350e-03 0.000000e+00 -1.573620e-02 2.768090e-03 0.000000e+00 -1.315450e-02 1.204400e-02 0.000000e+00 -1.870420e-02 2.625320e-03 0.000000e+00 9.245580e-03 9.447760e-03 0.000000e+00 4.851590e-03 8.089660e-03 0.000000e+00 -8.097740e-03 2.235490e-03 0.000000e+00 -7.309900e-03 1.525420e-02 0.000000e+00 6.793080e-03 9.005710e-03 0.000000e+00 -1.852220e-02 3.799150e-03 0.000000e+00 1.357970e-02 1.634240e-02 0.000000e+00 -8.909860e-03 3.032160e-03 0.000000e+00 -1.788630e-02 5.150740e-03 0.000000e+00 -1.700150e-02 6.826470e-03 0.000000e+00 1.152840e-02 1.296890e-02 0.000000e+00 -6.360720e-03 2.399370e-03 0.000000e+00 4.561470e-03 1.344060e-02 0.000000e+00 8.747560e-03 1.435930e-02 0.000000e+00 1.156160e-02 1.514880e-02 0.000000e+00 -5.545620e-03 2.829420e-03 0.000000e+00 9.692160e-04 1.365760e-02 0.000000e+00 -5.239460e-03 1.322120e-02 0.000000e+00 -8.202260e-03 2.967140e-03 0.000000e+00 -1.709630e-02 3.087160e-03 0.000000e+00 1.709990e-03 6.891740e-03 0.000000e+00 -8.415540e-04 3.270690e-03 0.000000e+00 -6.923600e-03 3.038420e-03 0.000000e+00 -1.543670e-03 2.192360e-03 0.000000e+00 -1.207480e-02 3.051020e-03 0.000000e+00 -2.100420e-03 2.218900e-03 0.000000e+00 1.160490e-02 1.070880e-02 0.000000e+00 -1.533530e-02 7.875990e-03 0.000000e+00 -4.408490e-04 4.294140e-03 0.000000e+00 -1.183060e-02 1.440060e-02 0.000000e+00 -1.410050e-02 9.592400e-03 0.000000e+00 -3.500260e-03 3.046370e-03 0.000000e+00 -1.045890e-02 2.970590e-03 0.000000e+00 1.140890e-02 8.662630e-03 0.000000e+00 -1.438500e-02 3.322090e-03 0.000000e+00 -9.675450e-03 3.028560e-03 0.000000e+00 -4.540410e-03 2.965630e-03 0.000000e+00 -1.129200e-02 3.131170e-03 0.000000e+00 -1.758150e-02 2.555930e-03 0.000000e+00 -9.492890e-03 1.429740e-02 0.000000e+00 -1.632830e-02 3.443940e-03 0.000000e+00 -1.797410e-02 3.114580e-03 0.000000e+00 -1.347750e-02 3.099040e-03 0.000000e+00 2.259820e-04 5.677470e-03 0.000000e+00 -2.640870e-03 2.795250e-03 0.000000e+00 -1.274080e-02 2.757440e-03 0.000000e+00 -7.886550e-03 1.250410e-02 0.000000e+00 -1.644270e-02 5.346590e-03 0.000000e+00 -1.184280e-02 3.958520e-03 0.000000e+00 -1.174620e-02 1.050750e-02 0.000000e+00 -1.514600e-02 6.326280e-03 0.000000e+00 -6.203070e-03 3.226220e-03 0.000000e+00 -1.506810e-02 2.845480e-03 0.000000e+00 -1.063540e-02 1.246320e-02 0.000000e+00 -7.590500e-03 2.755570e-03 0.000000e+00 2.870920e-03 8.759280e-03 0.000000e+00 -1.725650e-02 4.106950e-03 0.000000e+00 -1.560390e-03 4.085660e-03 0.000000e+00 -5.468920e-03 3.836080e-03 0.000000e+00 -6.703370e-03 3.935240e-03 0.000000e+00 -3.376270e-03 1.124270e-02 0.000000e+00 7.156370e-03 1.158260e-02 0.000000e+00 -1.761550e-03 3.002010e-03 0.000000e+00 -4.089830e-03 3.905360e-03 0.000000e+00 -1.371550e-02 7.524910e-03 0.000000e+00 -1.367380e-02 4.248310e-03 0.000000e+00 -8.368120e-03 3.867030e-03 0.000000e+00 -1.171170e-03 5.217830e-03 0.000000e+00 -4.857990e-03 4.848200e-03 0.000000e+00 -1.090300e-02 4.029160e-03 0.000000e+00 -1.274650e-02 3.669680e-03 0.000000e+00 -5.919780e-03 1.083900e-02 0.000000e+00 9.558640e-03 1.189050e-02 0.000000e+00 -7.574440e-03 3.563860e-03 0.000000e+00 -1.492750e-02 4.771680e-03 0.000000e+00 2.236970e-03 1.119460e-02 0.000000e+00 4.733280e-03 1.045470e-02 0.000000e+00 -9.220580e-03 3.768400e-03 0.000000e+00 -5.148650e-04 1.135420e-02 0.000000e+00 -1.357850e-02 5.818830e-03 0.000000e+00 -2.366500e-03 4.946830e-03 0.000000e+00 -6.228020e-03 4.926570e-03 0.000000e+00 -9.983610e-03 3.980800e-03 0.000000e+00 -1.144050e-02 4.948540e-03 0.000000e+00 -7.759370e-03 1.033500e-02 0.000000e+00 -7.629040e-03 4.640490e-03 0.000000e+00 -1.538870e-02 3.648900e-03 0.000000e+00 -9.628720e-03 1.075910e-02 0.000000e+00 -1.257110e-02 4.731370e-03 0.000000e+00 -2.768930e-03 3.787840e-03 0.000000e+00 -3.622200e-03 4.846620e-03 0.000000e+00 -4.524900e-03 9.105610e-03 0.000000e+00 -8.939800e-04 6.451090e-03 0.000000e+00 -1.215260e-02 8.625950e-03 0.000000e+00 -1.217790e-02 7.025380e-03 0.000000e+00 8.168110e-04 9.212630e-03 0.000000e+00 -1.608840e-02 4.335870e-03 0.000000e+00 -1.711100e-03 9.213210e-03 0.000000e+00 -1.029650e-02 5.049540e-03 0.000000e+00 -6.909270e-03 8.648760e-03 0.000000e+00 -9.007840e-03 4.819760e-03 0.000000e+00 -1.058850e-02 9.286990e-03 0.000000e+00 -2.065190e-03 6.248940e-03 0.000000e+00 -1.039850e-02 7.639190e-03 0.000000e+00 -7.166850e-03 5.639700e-03 0.000000e+00 -3.354030e-03 7.400740e-03 0.000000e+00 -5.409180e-03 5.770720e-03 0.000000e+00 -9.516970e-03 6.165460e-03 0.000000e+00 -1.214120e-02 5.777600e-03 0.000000e+00 -8.233940e-03 5.873880e-03 0.000000e+00 -3.176660e-03 5.893430e-03 0.000000e+00 -8.382550e-05 7.590150e-03 0.000000e+00 -4.307220e-03 6.013980e-03 0.000000e+00 -1.097900e-02 6.151490e-03 0.000000e+00 -1.620360e-03 7.485480e-03 0.000000e+00 -8.906380e-03 8.940680e-03 0.000000e+00 -6.308780e-03 6.070970e-03 0.000000e+00 -5.450560e-03 7.209030e-03 0.000000e+00 -8.549410e-03 7.365900e-03 0.000000e+00 -7.178150e-03 6.864210e-03 0.000000e+00 </DataArray>
</Points>
<Cells>
 <DataArray type="Int32" Name="connectivity" format="ascii"> 80 81 129  82 83 130  84 85 131  86 87 132  88 89 133  90 91 134  92 93 135  94 95 136  96 97 137  98 99 138  100 101 139  102 103 140  104 105 141  106 107 142  108 109 143  110 111 144  112 113 145  114 115 146  116 117 147  118 119 148  120 121 149  122 123 150  124 125 151  126 127 152  128 6 153  40 41 154  42 43 155  44 45 156  46 4 157  4 61 157  61 2 158  2 72 159  73 74 160  75 76 161  77 78 162  79 1 62  62 63 163  64 65 164  66 67 165  68 69 166  70 71 167  71 3 168  167 71 168  3 47 168  47 48 168  48 49 169  50 51 170  52 53 171  54 55 172  56 57 173  58 59 174  59 60 175  60 5 176  175 60 176  5 35 176  35 36 177  0 34 178  34 33 179  33 32 180  32 31 181  31 30 182  30 29 183  29 28 184  28 27 185  27 26 186  26 25 187  25 24 188  24 23 189  23 22 190  22 21 191  21 20 192  20 19 193  19 18 194  18 17 195  17 16 196  16 15 197  15 14 198  14 13 199  13 12 200  12 11 201  11 10 202  10 9 203  9 8 204  8 0 205  79 62 163  7 80 129  81 82 206  129 81 206  82 130 206  83 84 207  84 131 207  85 86 208  87 88 209  89 90 210  133 89 210  90 134 210  91 92 211  93 94 212  95 96 213  97 98 214  137 97 214  98 138 214  99 100 215  101 102 216  103 104 217  140 103 217  104 141 217  105 106 218  107 108 219  109 110 220  143 109 220  110 144 220  111 112 221  112 145 221  113 114 222  115 116 223  117 118 224  147 117 224  118 148 224  119 120 225  121 122 226  123 124 227  125 126 228  151 125 228  126 152 228  127 128 229  40 154 230  39 40 230  41 42 231  43 44 232  45 46 233  157 61 158  158 2 234  2 159 234  72 73 235  74 75 236  75 161 236  77 162 237  76 77 237  78 79 238  163 63 239  63 64 239  64 164 239  65 66 240  67 68 241  69 70 242  171 53 243  53 54 243  168 48 169  169 49 244  49 50 244  50 170 244  51 52 245  54 172 243  55 56 246  58 174 247  57 58 247  59 175 174  178 34 179  0 178 205  33 180 179  32 181 180  31 182 181  30 183 182  29 184 183  28 185 184  27 186 185  26 187 186  25 188 187  24 189 188  23 190 189  22 191 190  21 192 191  20 193 192  19 194 193  18 195 194  17 196 195  16 197 196  15 198 197  14 199 198  13 200 199  12 201 200  11 202 201  10 203 202  9 204 203  8 205 204  649 635 652  130 83 207  131 85 208  132 87 209  211 92 135  134 91 211  135 93 212  136 95 213  215 100 139  138 99 215  139 101 216  218 106 142  141 105 218  142 107 219  144 111 221  145 113 222  146 115 223  225 120 149  148 119 225  149 121 226  150 123 227  229 128 153  152 127 229  154 41 231  155 43 232  156 45 233  159 72 235  160 74 236  161 76 237  162 78 238  164 65 240  165 67 241  166 69 242  170 51 245  172 55 246  173 57 247  177 36 248  213 96 137  227 124 151  232 44 156  233 46 157  242 70 167  209 88 133  208 86 132  212 94 136  216 102 140  219 108 143  223 116 147  222 114 146  226 122 150  231 42 155  235 73 160  241 68 166  240 66 165  245 52 171  246 56 173  131 208 249  132 209 250  212 136 251  211 135 252  208 132 253  132 250 253  135 212 254  252 135 254  212 251 254  134 211 255  211 252 255  216 140 256  215 139 257  227 151 258  139 216 259  257 139 259  216 256 259  138 215 260  215 257 260  218 142 261  219 143 262  142 219 263  261 142 263  219 262 263  141 218 264  218 261 264  144 221 265  223 147 266  145 222 267  146 223 268  223 266 268  226 150 269  225 149 270  222 146 271  267 222 271  146 268 271  149 226 272  270 149 272  226 269 272  148 225 273  225 270 273  150 227 274  269 150 274  227 258 274  231 155 275  229 153 276  232 156 277  154 231 278  231 275 278  230 154 279  154 278 279  152 229 280  229 276 280  155 232 281  232 277 281  39 230 282  235 160 283  233 157 284  159 235 285  235 283 285  242 167 286  157 158 284  160 236 287  241 166 288  164 240 289  237 162 290  162 238 291  238 79 163  130 207 292  163 239 293  239 164 294  293 239 294  164 289 294  245 171 295  166 242 296  288 166 296  242 286 296  165 350 240  170 245 297  171 243 298  167 168 299  286 167 299  168 169 299  172 246 300  247 174 301  244 170 302  170 297 302  243 172 303  298 243 303  172 300 303  174 175 304  177 248 305  175 176 306  35 177 176  207 131 307  292 207 307  131 249 307  221 145 308  265 221 308  145 267 308  153 6 309  169 244 310  299 169 310  244 302 310  248 36 311  178 179 289  213 137 312  180 181 313  181 182 314  182 183 290  183 184 315  185 186 316  186 187 287  187 188 317  189 190 318  191 192 319  193 194 320  194 195 321  195 196 322  196 197 323  198 199 324  199 200 325  200 201 326  202 203 327  203 204 328  39 282 329  282 230 330  230 279 330  238 163 293  248 311 331  329 282 332  129 206 333  160 287 283  208 253 249  133 210 334  256 140 335  140 217 335  136 213 336  238 293 291  262 143 337  143 220 337  136 336 251  266 147 338  147 224 338  153 309 339  275 155 281  153 339 276  277 156 340  156 233 340  282 330 332  258 151 341  151 228 341  233 284 340  159 285 234  300 246 342  246 173 342  284 158 343  158 234 343  287 236 316  245 295 297  161 237 315  237 290 315  162 291 290  331 311 344  248 331 345  171 298 295  209 133 346  247 301 347  329 332 348  250 209 346  305 248 345  133 334 346  175 306 304  176 177 349  36 37 311  205 178 350  312 137 351  137 214 351  328 204 352  204 205 352  327 203 328  326 201 353  201 202 353  325 200 326  324 199 325  323 197 354  197 198 354  196 323 322  355 322 323  321 195 322  320 194 321  319 192 356  192 193 356  318 190 357  190 191 357  317 188 358  188 189 358  287 187 317  316 186 287  315 184 359  161 315 359  184 185 359  290 183 315  313 181 314  306 176 349  289 179 294  213 312 336  185 316 359  189 318 358  191 319 357  193 320 356  198 324 354  202 327 353  179 180 294  206 130 360  333 206 360  130 292 360  210 134 361  334 210 361  134 255 361  214 138 362  351 214 362  138 260 362  217 141 363  335 217 363  141 264 363  220 144 364  337 220 364  144 265 364  224 148 365  338 224 365  148 273 365  228 152 366  341 228 366  152 280 366  236 161 359  165 241 352  173 247 367  311 37 344  37 370 344  344 368 369  339 309 348  342 173 367  205 350 352  349 177 305  368 344 370  294 180 313  331 344 369  369 368 371  371 368 372  368 370 372  283 287 317  249 253 373  260 257 374  291 293 313  273 270 375  264 261 376  342 367 377  268 266 378  275 281 379  251 336 380  278 275 381  275 379 381  234 285 382  277 340 383  276 339 384  340 284 385  383 340 385  284 343 385  279 278 386  278 381 386  280 276 387  276 384 387  281 277 388  277 383 388  6 39 329  348 332 389  347 301 390  297 295 391  300 342 392  345 331 393  339 348 384  346 334 394  295 298 355  293 294 313  255 252 395  304 306 396  299 433 286  301 174 304  283 317 397  285 283 397  317 358 397  350 178 289  330 279 398  279 386 398  654 655 657  354 324 399  356 320 400  357 319 401  314 182 290  305 345 402  331 369 393  306 349 403  396 306 403  349 305 403  358 318 404  318 357 405  319 356 406  401 319 406  356 400 406  320 321 407  321 322 408  407 321 408  322 355 408  323 354 391  324 325 409  325 326 410  655 637 657  371 372 411  352 241 328  369 371 412  301 304 413  390 301 413  304 396 413  373 253 414  253 250 414  364 265 415  362 260 416  260 374 416  254 251 417  251 380 417  256 335 418  271 268 419  268 378 419  365 273 420  273 375 420  342 377 392  366 280 421  280 387 421  234 382 343  272 269 422  263 262 423  267 271 424  271 419 424  382 285 397  259 256 425  256 418 425  274 258 426  281 388 379  367 247 347  236 359 316  414 250 427  250 346 427  332 330 428  375 270 429  270 272 429  300 392 430  345 393 402  241 288 328  394 334 431  334 361 431  308 267 432  267 424 432  353 286 433  404 318 405  266 338 434  378 266 434  338 365 434  286 353 296  397 358 435  382 397 435  358 404 435  332 428 389  303 300 430  363 264 436  264 376 436  265 308 437  415 265 437  308 432 437  320 407 400  438 400 407  395 252 439  252 254 439  307 249 440  312 351 441  361 255 442  255 395 442  129 333 516  354 399 391  355 323 391  357 401 405  299 310 433  165 352 350  367 347 443  377 367 443  347 390 443  427 346 394  423 262 444  262 337 444  426 258 445  258 341 445  428 330 446  330 398 446  440 249 373  516 333 447  333 360 447  328 288 327  302 297 399  336 312 448  355 298 408  403 305 402  292 307 449  307 440 449  409 325 410  326 353 433  411 372 450  360 292 451  447 360 451  292 449 451  380 336 448  376 261 452  261 263 452  374 257 453  257 259 453  448 312 441  399 297 391  408 298 454  407 408 454  298 303 454  450 372 455  327 288 296  412 371 456  371 411 456  455 372 370  327 296 353  450 455 457  455 484 457  450 457 458  38 464 457  457 459 458  458 459 460  460 459 461  458 460 462  460 461 463  461 459 464  459 457 464  461 464 465  450 458 466  411 450 466  458 462 466  461 465 467  461 467 463  351 362 468  441 351 468  362 416 468  335 363 469  418 335 469  363 436 469  291 313 314  392 377 470  448 441 471  369 412 393  337 364 472  444 337 472  364 415 472  422 269 426  341 366 473  445 341 473  366 421 473  343 382 474  382 435 474  393 412 475  291 314 290  263 423 452  467 465 447  379 388 476  391 295 355  387 384 477  303 430 454  430 392 478  272 422 429  402 393 479  422 426 480  384 348 481  404 405 482  373 414 483  329 348 309  455 370 484  370 37 484  465 464 516  398 386 485  389 428 486  310 302 409  460 463 487  410 326 433  462 460 487  380 448 471  396 403 488  403 402 488  516 447 465  409 302 399  487 463 483  481 348 389  384 481 477  409 399 324  405 401 489  462 487 490  381 379 491  379 476 491  38 457 484  438 407 454  418 469 492  483 463 373  254 417 439  486 428 493  428 446 493  471 441 494  441 468 494  470 377 495  420 375 496  426 269 274  481 389 497  477 481 497  389 486 497  424 419 498  415 437 499  421 387 500  387 477 500  374 453 501  365 420 434  485 386 502  386 381 502  482 405 503  405 489 503  425 418 504  418 492 504  6 329 309  446 398 505  398 485 505  383 385 506  402 479 488  480 426 507  426 445 507  454 430 438  388 383 508  289 240 350  478 392 470  427 394 509  430 478 438  429 422 510  422 480 510  479 393 475  414 427 509  431 361 442  452 423 511  404 482 435  432 424 512  424 498 512  414 509 483  416 374 513  374 501 513  490 487 509  442 395 514  436 376 515  259 425 453  647 657 656  383 506 508  466 462 517  380 471 518  410 433 310  395 439 519  514 395 519  439 417 519  476 388 508  443 390 520  376 452 521  515 376 521  452 511 521  440 373 463  343 474 385  401 406 522  463 467 440  462 490 517  381 491 502  487 483 509  496 375 523  375 429 523  495 377 443  509 394 524  490 509 524  394 431 524  511 423 525  423 444 525  410 310 409  520 390 526  401 522 489  645 647 656  411 466 527  456 411 527  464 38 516  526 390 413  492 469 528  469 436 528  520 526 529  385 474 506  417 380 530  519 417 530  380 518 530  396 488 531  415 499 532  472 415 532  434 420 533  420 496 533  474 435 482  475 412 534  466 517 527  495 443 520  518 471 535  479 475 536  431 442 537  524 431 537  442 514 537  491 476 538  485 502 539  412 456 534  436 515 528  453 425 504  437 432 540  499 437 540  432 512 540  526 413 541  508 506 503  502 491 542  539 502 542  491 538 542  517 490 543  400 438 544  506 474 482  532 499 545  472 532 525  527 517 546  534 456 547  400 544 406  506 482 503  468 416 494  644 655 654  416 513 494  489 522 548  419 378 549  470 495 550  449 440 467  378 434 533  522 406 544  478 470 551  470 550 551  378 533 549  449 467 451  522 544 552  533 496 553  419 549 498  657 642 654  648 643 650  495 520 554  550 495 554  520 529 554  456 527 547  129 516 7  529 526 555  545 499 556  499 540 556  530 518 557  493 446 558  446 505 558  548 522 552  500 477 559  527 546 547  498 549 560  501 453 504  473 421 561  421 500 561  528 515 562  445 473 563  473 561 563  503 489 564  489 548 564  477 497 559  534 547 565  497 486 566  488 479 567  507 445 563  536 475 568  471 494 535  510 480 569  479 536 567  475 534 568  521 511 570  485 539 505  476 508 571  478 551 552  476 571 538  513 501 572  525 532 573  532 545 573  526 541 555  496 523 574  517 543 546  523 429 510  396 531 413  531 488 567  515 521 575  521 570 575  549 533 553  514 519 576  519 530 576  531 567 577  553 496 574  557 518 578  518 535 578  534 565 568  514 576 579  501 504 580  562 515 575  566 486 581  486 493 581  569 480 582  480 507 582  641 645 656  511 525 570  572 501 580  413 531 541  514 579 537  492 528 583  504 492 583  528 562 583  580 504 583  555 541 584  547 546 585  559 497 566  562 575 586  536 568 587  548 552 551  565 547 588  547 585 588  549 553 589  535 494 590  648 640 643  567 536 591  577 567 591  536 587 591  490 537 543  512 498 592  540 512 592  498 560 592  505 539 593  571 508 503  478 552 544  574 523 510  546 543 594  549 589 560  559 566 595  589 553 596  571 503 564  560 589 597  529 555 598  576 530 557  574 510 569  444 472 525  579 543 537  553 574 596  551 550 599  500 559 600  559 595 600  574 569 601  568 565 602  572 580 603  576 557 579  579 557 594  545 556 604  602 565 588  513 572 590  595 566 605  589 596 597  541 531 577  574 601 596  606 596 601  586 575 607  575 570 607  543 579 594  580 583 608  583 562 608  581 493 558  647 642 657  555 584 609  548 551 610  564 548 610  507 563 582  571 564 538  562 586 608  585 546 594  566 581 605  570 525 573  438 478 544  592 560 611  540 592 556  555 609 598  612 624 572  610 551 599  538 564 610  541 577 584  538 610 599  550 554 613  580 608 603  542 538 599  593 539 614  577 591 584  611 560 597  539 542 614  37 38 484  594 557 578  537 490 524  613 614 550  573 545 615  545 604 615  554 529 616  613 554 616  529 598 616  447 451 467  572 603 612  602 588 617  563 561 600  595 605 618  597 596 619  596 606 619  607 570 620  586 607 621  561 500 600  609 584 622  611 597 623  588 585 612  600 582 563  535 590 624  578 535 624  590 572 624  591 587 625  556 592 611  604 556 611  608 586 626  603 608 626  505 593 558  569 582 627  604 611 623  569 627 601  601 627 628  627 582 600  598 609 629  605 581 630  587 568 631  631 568 602  631 602 632  602 617 632  593 614 613  593 613 633  558 593 633  613 616 633  573 615 620  597 619 623  644 650 655  606 601 628  586 621 626  612 585 634  620 570 573  600 595 627  598 629 635  588 612 617  607 620 636  513 590 494  621 607 636  516 38 7  584 591 625  594 578 634  629 609 637  609 622 637  604 623 638  628 627 618  614 542 599  616 598 635  625 587 639  587 631 639  618 605 640  605 630 640  639 631 641  631 632 641  585 594 634  623 619 642  635 629 643  636 620 638  578 624 634  603 626 617  619 606 644  636 638 645  617 626 646  632 617 646  626 621 646  638 623 647  623 642 647  628 618 648  618 640 648  630 581 649  616 635 633  606 628 650  644 606 650  628 648 650  622 584 625  621 636 651  646 621 651  636 645 651  581 558 649  630 649 652  622 625 653  625 639 653  641 651 645  635 643 652  558 633 649  617 612 603  599 550 614  642 619 654  619 644 654  637 622 653  630 652 640  653 639 641  645 638 647  604 638 615  618 627 595  652 643 640  643 629 655  646 651 632  620 615 638  637 653 656  629 637 655  653 641 656  643 655 650  656 657 637  624 612 634  641 632 651  649 633 635  </DataArray>
 <DataArray type="Int32" Name="offsets" format="ascii"> 3 6 9 12 15 18 21 24 27 30 33 36 39 42 45 48 51 54 57 60 63 66 69 72 75 78 81 84 87 90 93 96 99 102 105 108 111 114 117 120 123 126 129 132 135 138 141 144 147 150 153 156 159 162 165 168 171 174 177 180 183 186 189 192 195 198 201 204 207 210 213 216 219 222 225 228 231 234 237 240 243 246 249 252 255 258 261 264 267 270 273 276 279 282 285 288 291 294 297 300 303 306 309 312 315 318 321 324 327 330 333 336 339 342 345 348 351 354 357 360 363 366 369 372 375 378 381 384 387 390 393 396 399 402 405 408 411 414 417 420 423 426 429 432 435 438 441 444 447 450 453 456 459 462 465 468 471 474 477 480 483 486 489 492 495 498 501 504 507 510 513 516 519 522 525 528 531 534 537 540 543 546 549 552 555 558 561 564 567 570 573 576 579 582 585 588 591 594 597 600 603 606 609 612 615 618 621 624 627 630 633 636 639 642 645 648 651 654 657 660 663 666 669 672 675 678 681 684 687 690 693 696 699 702 705 708 711 714 717 720 723 726 729 732 735 738 741 744 747 750 753 756 759 762 765 768 771 774 777 780 783 786 789 792 795 798 801 804 807 810 813 816 819 822 825 828 831 834 837 840 843 846 849 852 855 858 861 864 867 870 873 876 879 882 885 888 891 894 897 900 903 906 909 912 915 918 921 924 927 930 933 936 939 942 945 948 951 954 957 960 963 966 969 972 975 978 981 984 987 990 993 996 999 1002 1005 1008 1011 1014 1017 1020 1023 1026 1029 1032 1035 1038 1041 1044 1047 1050 1053 1056 1059 1062 1065 1068 1071 1074 1077 1080 1083 1086 1089 1092 1095 1098 1101 1104 1107 1110 1113 1116 1119 1122 1125 1128 1131 1134 1137 1140 1143 1146 1149 1152 1155 1158 1161 1164 1167 1170 1173 1176 1179 1182 1185 1188 1191 1194 1197 1200 1203 1206 1209 1212 1215 1218 1221 1224 1227 1230 1233 1236 1239 1242 1245 1248 1251 1254 1257 1260 1263 1266 1269 1272 1275 1278 1281 1284 1287 1290 1293 1296 1299 1302 1305 1308 1311 1314 1317 1320 1323 1326 1329 1332 1335 1338 1341 1344 1347 1350 1353 1356 1359 1362 1365 1368 1371 1374 1377 1380 1383 1386 1389 1392 1395 1398 1401 1404 1407 1410 1413 1416 1419 1422 1425 1428 1431 1434 1437 1440 1443 1446 1449 1452 1455 1458 1461 1464 1467 1470 1473 1476 1479 1482 1485 1488 1491 1494 1497 1500 1503 1506 1509 1512 1515 1518 1521 1524 1527 1530 1533 1536 1539 1542 1545 1548 1551 1554 1557 1560 1563 1566 1569 1572 1575 1578 1581 1584 1587 1590 1593 1596 1599 1602 1605 1608 1611 1614 1617 1620 1623 1626 1629 1632 1635 1638 1641 1644 1647 1650 1653 1656 1659 1662 1665 1668 1671 1674 1677 1680 1683 1686 1689 1692 1695 1698 1701 1704 1707 1710 1713 1716 1719 1722 1725 1728 1731 1734 1737 1740 1743 1746 1749 1752 1755 1758 1761 1764 1767 1770 1773 1776 1779 1782 1785 1788 1791 1794 1797 1800 1803 1806 1809 1812 1815 1818 1821 1824 1827 1830 1833 1836 1839 1842 1845 1848 1851 1854 1857 1860 1863 1866 1869 1872 1875 1878 1881 1884 1887 1890 1893 1896 1899 1902 1905 1908 1911 1914 1917 1920 1923 1926 1929 1932 1935 1938 1941 1944 1947 1950 1953 1956 1959 1962 1965 1968 1971 1974 1977 1980 1983 1986 1989 1992 1995 1998 2001 2004 2007 2010 2013 2016 2019 2022 2025 2028 2031 2034 2037 2040 2043 2046 2049 2052 2055 2058 2061 2064 2067 2070 2073 2076 2079 2082 2085 2088 2091 2094 2097 2100 2103 2106 2109 2112 2115 2118 2121 2124 2127 2130 2133 2136 2139 2142 2145 2148 2151 2154 2157 2160 2163 2166 2169 2172 2175 2178 2181 2184 2187 2190 2193 2196 2199 2202 2205 2208 2211 2214 2217 2220 2223 2226 2229 2232 2235 2238 2241 2244 2247 2250 2253 2256 2259 2262 2265 2268 2271 2274 2277 2280 2283 2286 2289 2292 2295 2298 2301 2304 2307 2310 2313 2316 2319 2322 2325 2328 2331 2334 2337 2340 2343 2346 2349 2352 2355 2358 2361 2364 2367 2370 2373 2376 2379 2382 2385 2388 2391 2394 2397 2400 2403 2406 2409 2412 2415 2418 2421 2424 2427 2430 2433 2436 2439 2442 2445 2448 2451 2454 2457 2460 2463 2466 2469 2472 2475 2478 2481 2484 2487 2490 2493 2496 2499 2502 2505 2508 2511 2514 2517 2520 2523 2526 2529 2532 2535 2538 2541 2544 2547 2550 2553 2556 2559 2562 2565 2568 2571 2574 2577 2580 2583 2586 2589 2592 2595 2598 2601 2604 2607 2610 2613 2616 2619 2622 2625 2628 2631 2634 2637 2640 2643 2646 2649 2652 2655 2658 2661 2664 2667 2670 2673 2676 2679 2682 2685 2688 2691 2694 2697 2700 2703 2706 2709 2712 2715 2718 2721 2724 2727 2730 2733 2736 2739 2742 2745 2748 2751 2754 2757 2760 2763 2766 2769 2772 2775 2778 2781 2784 2787 2790 2793 2796 2799 2802 2805 2808 2811 2814 2817 2820 2823 2826 2829 2832 2835 2838 2841 2844 2847 2850 2853 2856 2859 2862 2865 2868 2871 2874 2877 2880 2883 2886 2889 2892 2895 2898 2901 2904 2907 2910 2913 2916 2919 2922 2925 2928 2931 2934 2937 2940 2943 2946 2949 2952 2955 2958 2961 2964 2967 2970 2973 2976 2979 2982 2985 2988 2991 2994 2997 3000 3003 3006 3009 3012 3015 3018 3021 3024 3027 3030 3033 3036 3039 3042 3045 3048 3051 3054 3057 3060 3063 3066 3069 3072 3075 3078 3081 3084 3087 3090 3093 3096 3099 3102 3105 3108 3111 3114 3117 3120 3123 3126 3129 3132 3135 3138 3141 3144 3147 3150 3153 3156 3159 3162 3165 3168 3171 3174 3177 3180 3183 3186 3189 3192 3195 3198 3201 3204 3207 3210 3213 3216 3219 3222 3225 3228 3231 3234 3237 3240 3243 3246 3249 3252 3255 3258 3261 3264 3267 3270 3273 3276 3279 3282 3285 3288 3291 3294 3297 3300 3303 3306 3309 3312 3315 3318 3321 3324 3327 3330 3333 3336 3339 3342 3345 3348 3351 3354 3357 3360 3363 3366 3369 3372 3375 3378 3381 3384 3387 3390 3393 3396 3399 3402 3405 3408 3411 3414 3417 3420 3423 3426 3429 3432 3435 3438 3441 3444 3447 3450 3453 3456 3459 3462 3465 3468 3471 3474 3477 3480 3483 3486 3489 3492 3495 3498 3501 3504 3507 3510 3513 3516 3519 3522 3525 3528 3531 3534 3537 3540 3543 3546 3549 3552 3555 3558 3561 </DataArray>
 <DataArray type="UInt8" Name="types" format="ascii"> 5 5 5 5 5 5 5 5 5 5 5 5 5 5 5 5 5 5 5 5 5 5 5 5 5 5 5 5 5 5 5 5 5 5 5 5 5 5 5 5 5 5 5 5 5 5 5 5 5 5 5 5 5 5 5 5 5 5 5 5 5 5 5 5 5 5 5 5 5 5 5 5 5 5 5 5 5 5 5 5 5 5 5 5 5 5 5 5 5 5 5 5 5 5 5 5 5 5 5 5 5 5 5 5 5 5 5 5 5 5 5 5 5 5 5 5 5 5 5 5 5 5 5 5 5 5 5 5 5 5 5 5 5 5 5 5 5 5 5 5 5 5 5 5 5 5 5 5 5 5 5 5 5 5 5 5 5 5 5 5 5 5 5 5 5 5 5 5 5 5 5 5 5 5 5 5 5 5 5 5 5 5 5 5 5 5 5 5 5 5 5 5 5 5 5 5 5 5 5 5 5 5 5 5 5 5 5 5 5 5 5 5 5 5 5 5 5 5 5 5 5 5 5 5 5 5 5 5 5 5 5 5 5 5 5 5 5 5 5 5 5 5 5 5 5 5 5 5 5 5 5 5 5 5 5 5 5 5 5 5 5 5 5 5 5 5 5 5 5 5 5 5 5 5 5 5 5 5 5 5 5 5 5 5 5 5 5 5 5 5 5 5 5 5 5 5 5 5 5 5 5 5 5 5 5 5 5 5 5 5 5 5 5 5 5 5 5 5 5 5 5 5 5 5 5 5 5 5 5 5 5 5 5 5 5 5 5 5 5 5 5 5 5 5 5 5 5 5 5 5 5 5 5 5 5 5 5 5 5 5 5 5 5 5 5 5 5 5 5 5 5 5 5 5 5 5 5 5 5 5 5 5 5 5 5 5 5 5 5 5 5 5 5 5 5 5 5 5 5 5 5 5 5 5 5 5 5 5 5 5 5 5 5 5 5 5 5 5 5 5 5 5 5 5 5 5 5 5 5 5 5 5 5 5 5 5 5 5 5 5 5 5 5 5 5 5 5 5 5 5 5 5 5 5 5 5 5 5 5 5 5 5 5 5 5 5 5 5 5 5 5 5 5 5 5 5 5 5 5 5 5 5 5 5 5 5 5 5 5 5 5 5 5 5 5 5 5 5 5 5 5 5 5 5 5 5 5 5 5 5 5 5 5 5 5 5 5 5 5 5 5 5 5 5 5 5 5 5 5 5 5 5 5 5 5 5 5 5 5 5 5 5 5 5 5 5 5 5 5 5 5 5 5 5 5 5 5 5 5 5 5 5 5 5 5 5 5 5 5 5 5 5 5 5 5 5 5 5 5 5 5 5 5 5 5 5 5 5 5 5 5 5 5 5 5 5 5 5 5 5 5 5 5 5 5 5 5 5 5 5 5 5 5 5 5 5 5 5 5 5 5 5 5 5 5 5 5 5 5 5 5 5 5 5 5 5 5 5 5 5 5 5 5 5 5 5 5 5 5 5 5 5 5 5 5 5 5 5 5 5 5 5 5 5 5 5 5 5 5 5 5 5 5 5 5 5 5 5 5 5 5 5 5 5 5 5 5 5 5 5 5 5 5 5 5 5 5 5 5 5 5 5 5 5 5 5 5 5 5 5 5 5 5 5 5 5 5 5 5 5 5 5 5 5 5 5 5 5 5 5 5 5 5 5 5 5 5 5 5 5 5 5 5 5 5 5 5 5 5 5 5 5 5 5 5 5 5 5 5 5 5 5 5 5 5 5 5 5 5 5 5 5 5 5 5 5 5 5 5 5 5 5 5 5 5 5 5 5 5 5 5 5 5 5 5 5 5 5 5 5 5 5 5 5 5 5 5 5 5 5 5 5 5 5 5 5 5 5 5 5 5 5 5 5 5 5 5 5 5 5 5 5 5 5 5 5 5 5 5 5 5 5 5 5 5 5 5 5 5 5 5 5 5 5 5 5 5 5 5 5 5 5 5 5 5 5 5 5 5 5 5 5 5 5 5 5 5 5 5 5 5 5 5 5 5 5 5 5 5 5 5 5 5 5 5 5 5 5 5 5 5 5 5 5 5 5 5 5 5 5 5 5 5 5 5 5 5 5 5 5 5 5 5 5 5 5 5 5 5 5 5 5 5 5 5 5 5 5 5 5 5 5 5 5 5 5 5 5 5 5 5 5 5 5 5 5 5 5 5 5 5 5 5 5 5 5 5 5 5 5 5 5 5 5 5 5 5 5 5 5 5 5 5 5 5 5 5 5 5 5 5 5 5 5 5 5 5 5 5 5 5 5 5 5 5 5 5 5 5 5 5 5 5 5 5 5 5 5 5 5 5 5 5 5 5 5 5 5 5 5 5 5 5 5 5 5 5 5 5 5 5 5 5 5 5 5 5 5 5 5 5 5 5 5 5 5 5 5 5 5 5 5 5 5 5 5 5 5 5 5 5 5 5 5 5 5 5 5 5 5 5 5 5 5 5 5 5 5 5 5 5 5 5 5 5 5 5 5 5 5 5 5 5 5 5 5 5 5 5 5 5 5 5 5 5 5 5 5 5 5 5 5 5 5 5 5 5 5 5 5 5 5 5 5 5 5 5 5 5 5 5 5 5 5 5 5 5 5 5 5 5 5 5 5 5 5 5 5 5 5 5 5 5 5 5 5 5 5 5 5 5 5 5 5 5 5 5 5 5 5 5 5 5 5 5 5 5 </DataArray>
</Cells>
<PointData Scalars="" Vectors="DisplacementVector " Tensors="IST_StressTensor IST_StrainTensor " >
 <DataArray type="Float64" Name="DisplacementVector" NumberOfComponents="3" format="ascii"> -1.038081e-05 8.065135e-05 0.000000e+00 1.335956e-05 9.334442e-05 0.000000e+00 1.322758e-05 4.890683e-05 0.000000e+00 -4.327160e-05 9.336579e-05 0.000000e+00 1.607992e-05 4.485863e-05 0.000000e+00 -2.945892e-05 -1.290709e-05 0.000000e+00 1.153742e-05 0.000000e+00 0.000000e+00 0.000000e+00 0.000000e+00 0.000000e+00 -1.309787e-05 8.031086e-05 0.000000e+00 -1.552350e-05 7.943517e-05 0.000000e+00 -1.803370e-05 7.781360e-05 0.000000e+00 -2.023269e-05 7.546579e-05 0.000000e+00 -2.160124e-05 7.312068e-05 0.000000e+00 -2.257739e-05 7.009725e-05 0.000000e+00 -2.287038e-05 6.725232e-05 0.000000e+00 -2.259706e-05 6.425341e-05 0.000000e+00 -2.177822e-05 6.141610e-05 0.000000e+00 -2.027651e-05 5.853261e-05 0.000000e+00 -1.824427e-05 5.611806e-05 0.000000e+00 -1.578505e-05 5.431800e-05 0.000000e+00 -1.329616e-05 5.333005e-05 0.000000e+00 -1.064543e-05 5.301974e-05 0.000000e+00 -7.917679e-06 5.343263e-05 0.000000e+00 -5.274266e-06 5.457344e-05 0.000000e+00 -2.814701e-06 5.642346e-05 0.000000e+00 -8.368264e-07 5.870570e-05 0.000000e+00 7.809374e-07 6.158548e-05 0.000000e+00 1.799617e-06 6.495723e-05 0.000000e+00 2.051128e-06 6.801890e-05 0.000000e+00 1.704547e-06 7.084809e-05 0.000000e+00 6.602908e-07 7.377009e-05 0.000000e+00 -8.048922e-07 7.606345e-05 0.000000e+00 -2.782304e-06 7.803063e-05 0.000000e+00 -5.022333e-06 7.943883e-05 0.000000e+00 -7.763021e-06 8.038466e-05 0.000000e+00 -2.173894e-05 -1.277929e-05 0.000000e+00 -1.365470e-05 -1.177226e-05 0.000000e+00 -6.188462e-06 -8.972906e-06 0.000000e+00 -1.411119e-06 -4.574323e-06 0.000000e+00 1.369250e-05 1.261270e-05 0.000000e+00 1.418568e-05 1.872253e-05 0.000000e+00 1.466591e-05 2.384203e-05 0.000000e+00 1.508205e-05 2.828958e-05 0.000000e+00 1.542732e-05 3.225028e-05 0.000000e+00 1.570385e-05 3.590926e-05 0.000000e+00 1.590627e-05 3.922309e-05 0.000000e+00 1.603400e-05 4.219154e-05 0.000000e+00 -4.328750e-05 8.640921e-05 0.000000e+00 -4.332366e-05 8.073734e-05 0.000000e+00 -4.339504e-05 7.410378e-05 0.000000e+00 -4.343440e-05 6.786302e-05 0.000000e+00 -4.338284e-05 6.204384e-05 0.000000e+00 -4.314677e-05 5.546514e-05 0.000000e+00 -4.254912e-05 4.758324e-05 0.000000e+00 -4.163962e-05 4.017547e-05 0.000000e+00 -4.025475e-05 3.232392e-05 0.000000e+00 -3.835579e-05 2.432528e-05 0.000000e+00 -3.601171e-05 1.654847e-05 0.000000e+00 -3.347406e-05 9.297794e-06 0.000000e+00 -3.088713e-05 1.770960e-06 0.000000e+00 -2.961538e-05 -5.209432e-06 0.000000e+00 1.459180e-05 4.685091e-05 0.000000e+00 7.223700e-06 9.333490e-05 0.000000e+00 2.059380e-06 9.329164e-05 0.000000e+00 -2.800633e-06 9.322179e-05 0.000000e+00 -7.303555e-06 9.315971e-05 0.000000e+00 -1.102330e-05 9.313135e-05 0.000000e+00 -1.516177e-05 9.313763e-05 0.000000e+00 -1.933239e-05 9.317464e-05 0.000000e+00 -2.400821e-05 9.323814e-05 0.000000e+00 -2.926394e-05 9.330331e-05 0.000000e+00 -3.567829e-05 9.335241e-05 0.000000e+00 1.355217e-05 5.187512e-05 0.000000e+00 1.377621e-05 5.549137e-05 0.000000e+00 1.389546e-05 5.982109e-05 0.000000e+00 1.388383e-05 6.497238e-05 0.000000e+00 1.374333e-05 7.041202e-05 0.000000e+00 1.355548e-05 7.617443e-05 0.000000e+00 1.342016e-05 8.194890e-05 0.000000e+00 1.336781e-05 8.742382e-05 0.000000e+00 3.958894e-08 0.000000e+00 0.000000e+00 1.103163e-07 0.000000e+00 0.000000e+00 1.958102e-07 0.000000e+00 0.000000e+00 2.882163e-07 0.000000e+00 0.000000e+00 3.850000e-07 0.000000e+00 0.000000e+00 4.836892e-07 0.000000e+00 0.000000e+00 5.826368e-07 0.000000e+00 0.000000e+00 6.820170e-07 0.000000e+00 0.000000e+00 7.815167e-07 0.000000e+00 0.000000e+00 8.818196e-07 0.000000e+00 0.000000e+00 9.826221e-07 0.000000e+00 0.000000e+00 1.084568e-06 0.000000e+00 0.000000e+00 1.187967e-06 0.000000e+00 0.000000e+00 1.293801e-06 0.000000e+00 0.000000e+00 1.402602e-06 0.000000e+00 0.000000e+00 1.513715e-06 0.000000e+00 0.000000e+00 1.627925e-06 0.000000e+00 0.000000e+00 1.746161e-06 0.000000e+00 0.000000e+00 1.868259e-06 0.000000e+00 0.000000e+00 1.995147e-06 0.000000e+00 0.000000e+00 2.126853e-06 0.000000e+00 0.000000e+00 2.263234e-06 0.000000e+00 0.000000e+00 2.405237e-06 0.000000e+00 0.000000e+00 2.553626e-06 0.000000e+00 0.000000e+00 2.708647e-06 0.000000e+00 0.000000e+00 2.870616e-06 0.000000e+00 0.000000e+00 3.039884e-06 0.000000e+00 0.000000e+00 3.216152e-06 0.000000e+00 0.000000e+00 3.400336e-06 0.000000e+00 0.000000e+00 3.593625e-06 0.000000e+00 0.000000e+00 3.795822e-06 0.000000e+00 0.000000e+00 4.006716e-06 0.000000e+00 0.000000e+00 4.227083e-06 0.000000e+00 0.000000e+00 4.457933e-06 0.000000e+00 0.000000e+00 4.700982e-06 0.000000e+00 0.000000e+00 4.956386e-06 0.000000e+00 0.000000e+00 5.223978e-06 0.000000e+00 0.000000e+00 5.505810e-06 0.000000e+00 0.000000e+00 5.804118e-06 0.000000e+00 0.000000e+00 6.118318e-06 0.000000e+00 0.000000e+00 6.452044e-06 0.000000e+00 0.000000e+00 6.807725e-06 0.000000e+00 0.000000e+00 7.190049e-06 0.000000e+00 0.000000e+00 7.602841e-06 0.000000e+00 0.000000e+00 8.054937e-06 0.000000e+00 0.000000e+00 8.557359e-06 0.000000e+00 0.000000e+00 9.128521e-06 0.000000e+00 0.000000e+00 9.801876e-06 0.000000e+00 0.000000e+00 1.061542e-05 0.000000e+00 0.000000e+00 3.577513e-11 -4.240303e-07 0.000000e+00 2.171354e-07 -3.444677e-07 0.000000e+00 4.148752e-07 -3.248476e-07 0.000000e+00 6.131476e-07 -2.981980e-07 0.000000e+00 8.129647e-07 -2.687145e-07 0.000000e+00 1.017135e-06 -2.375068e-07 0.000000e+00 1.226948e-06 -1.988855e-07 0.000000e+00 1.441678e-06 -1.742488e-07 0.000000e+00 1.666826e-06 -1.550664e-07 0.000000e+00 1.910429e-06 -1.368913e-07 0.000000e+00 2.169305e-06 -1.165115e-07 0.000000e+00 2.459294e-06 -9.373391e-08 0.000000e+00 2.761515e-06 -7.649123e-08 0.000000e+00 3.103961e-06 -5.356844e-08 0.000000e+00 3.464287e-06 -3.310798e-08 0.000000e+00 3.881492e-06 -1.041917e-08 0.000000e+00 4.318586e-06 1.477368e-08 0.000000e+00 4.799582e-06 3.906350e-08 0.000000e+00 5.323611e-06 6.133135e-08 0.000000e+00 5.926409e-06 1.017947e-07 0.000000e+00 6.581868e-06 1.449172e-07 0.000000e+00 7.317394e-06 1.837669e-07 0.000000e+00 8.161566e-06 2.706931e-07 0.000000e+00 9.128619e-06 4.533830e-07 0.000000e+00 9.987139e-06 1.240115e-06 0.000000e+00 1.075639e-05 2.100647e-05 0.000000e+00 1.159136e-05 2.955397e-05 0.000000e+00 1.258115e-05 3.739638e-05 0.000000e+00 1.367836e-05 4.388379e-05 0.000000e+00 1.172243e-05 4.579336e-05 0.000000e+00 1.112599e-05 5.077394e-05 0.000000e+00 1.044473e-05 5.764623e-05 0.000000e+00 1.040145e-05 6.863470e-05 0.000000e+00 9.534605e-06 7.878932e-05 0.000000e+00 5.451494e-06 8.888728e-05 0.000000e+00 -4.388834e-06 8.928387e-05 0.000000e+00 -1.304606e-05 8.931252e-05 0.000000e+00 -2.197784e-05 8.916144e-05 0.000000e+00 -3.192059e-05 8.744866e-05 0.000000e+00 -3.784145e-05 8.554889e-05 0.000000e+00 -3.839309e-05 7.776374e-05 0.000000e+00 -3.863809e-05 6.490107e-05 0.000000e+00 -3.720116e-05 5.163924e-05 0.000000e+00 -3.479163e-05 3.579360e-05 0.000000e+00 -3.098379e-05 1.931340e-05 0.000000e+00 -2.698226e-05 4.342268e-06 0.000000e+00 -2.572557e-05 -1.153294e-06 0.000000e+00 -2.352416e-05 -6.716095e-06 0.000000e+00 -1.763412e-05 -8.785349e-06 0.000000e+00 -8.800151e-06 8.319966e-05 0.000000e+00 -5.385220e-06 8.263034e-05 0.000000e+00 -2.332262e-06 8.104077e-05 0.000000e+00 1.881144e-08 7.874528e-05 0.000000e+00 2.150953e-06 7.611663e-05 0.000000e+00 3.801528e-06 7.304862e-05 0.000000e+00 4.428802e-06 6.953718e-05 0.000000e+00 4.316738e-06 6.599795e-05 0.000000e+00 3.648871e-06 6.225675e-05 0.000000e+00 2.291707e-06 5.859519e-05 0.000000e+00 -2.953352e-08 5.533302e-05 0.000000e+00 -2.672721e-06 5.278872e-05 0.000000e+00 -5.837394e-06 5.100420e-05 0.000000e+00 -9.083226e-06 5.003688e-05 0.000000e+00 -1.221325e-05 5.001125e-05 0.000000e+00 -1.540181e-05 5.076944e-05 0.000000e+00 -1.847933e-05 5.255674e-05 0.000000e+00 -2.113319e-05 5.510951e-05 0.000000e+00 -2.319324e-05 5.825576e-05 0.000000e+00 -2.450337e-05 6.173496e-05 0.000000e+00 -2.520993e-05 6.537937e-05 0.000000e+00 -2.511708e-05 6.882065e-05 0.000000e+00 -2.439857e-05 7.238278e-05 0.000000e+00 -2.306817e-05 7.577191e-05 0.000000e+00 -2.099113e-05 7.869677e-05 0.000000e+00 -1.814369e-05 8.082029e-05 0.000000e+00 -1.508260e-05 8.234774e-05 0.000000e+00 -1.206415e-05 8.309272e-05 0.000000e+00 1.108901e-07 -3.836325e-07 0.000000e+00 3.154401e-07 -3.306442e-07 0.000000e+00 5.161969e-07 -3.164180e-07 0.000000e+00 7.146281e-07 -2.805051e-07 0.000000e+00 9.138946e-07 -2.620107e-07 0.000000e+00 1.122354e-06 -2.136245e-07 0.000000e+00 1.331254e-06 -1.859327e-07 0.000000e+00 1.555693e-06 -1.632616e-07 0.000000e+00 1.787685e-06 -1.460784e-07 0.000000e+00 2.032879e-06 -1.282270e-07 0.000000e+00 2.314193e-06 -1.032579e-07 0.000000e+00 2.607486e-06 -8.498487e-08 0.000000e+00 2.923659e-06 -6.578839e-08 0.000000e+00 3.281954e-06 -4.240865e-08 0.000000e+00 3.668278e-06 -2.253714e-08 0.000000e+00 4.093284e-06 2.099086e-09 0.000000e+00 4.544853e-06 2.661039e-08 0.000000e+00 5.065288e-06 5.187400e-08 0.000000e+00 5.618146e-06 7.390053e-08 0.000000e+00 6.237782e-06 1.237208e-07 0.000000e+00 6.932535e-06 1.658935e-07 0.000000e+00 7.744263e-06 2.126137e-07 0.000000e+00 8.639602e-06 3.436858e-07 0.000000e+00 9.613582e-06 6.699893e-07 0.000000e+00 1.029683e-05 1.657550e-05 0.000000e+00 1.127405e-05 2.541131e-05 0.000000e+00 1.209029e-05 3.370467e-05 0.000000e+00 1.306396e-05 4.071690e-05 0.000000e+00 9.772237e-06 4.809893e-05 0.000000e+00 1.079153e-05 5.380482e-05 0.000000e+00 1.006473e-05 6.302059e-05 0.000000e+00 1.006358e-05 7.382604e-05 0.000000e+00 8.487182e-06 8.404675e-05 0.000000e+00 1.111954e-07 8.913291e-05 0.000000e+00 -8.839065e-06 8.948963e-05 0.000000e+00 -1.725002e-05 8.863674e-05 0.000000e+00 -2.679512e-05 8.842103e-05 0.000000e+00 -3.598755e-05 4.377565e-05 0.000000e+00 -3.856238e-05 7.109114e-05 0.000000e+00 -3.823877e-05 5.868782e-05 0.000000e+00 -3.314707e-05 2.764228e-05 0.000000e+00 -2.826870e-05 1.156542e-05 0.000000e+00 -1.238089e-05 -7.987597e-06 0.000000e+00 4.022724e-07 -6.896037e-07 0.000000e+00 6.084171e-07 -6.011310e-07 0.000000e+00 1.333679e-06 -3.825581e-07 0.000000e+00 1.126550e-06 -4.165721e-07 0.000000e+00 5.014626e-07 -6.577804e-07 0.000000e+00 1.236794e-06 -3.852120e-07 0.000000e+00 1.016711e-06 -4.789069e-07 0.000000e+00 2.323127e-06 -2.011320e-07 0.000000e+00 2.029075e-06 -2.630247e-07 0.000000e+00 7.615851e-06 5.112920e-07 0.000000e+00 2.176557e-06 -2.272410e-07 0.000000e+00 1.900399e-06 -2.818665e-07 0.000000e+00 2.929622e-06 -1.286965e-07 0.000000e+00 3.300662e-06 -7.530309e-08 0.000000e+00 3.119670e-06 -1.010220e-07 0.000000e+00 2.758582e-06 -1.521113e-07 0.000000e+00 3.896314e-06 -6.846246e-09 0.000000e+00 5.116131e-06 1.281653e-07 0.000000e+00 4.335808e-06 4.593361e-08 0.000000e+00 4.836719e-06 1.065331e-07 0.000000e+00 6.937209e-06 3.826906e-07 0.000000e+00 6.209888e-06 2.973042e-07 0.000000e+00 4.581677e-06 7.492452e-08 0.000000e+00 6.573311e-06 3.446758e-07 0.000000e+00 5.895009e-06 2.435415e-07 0.000000e+00 7.330705e-06 3.932401e-07 0.000000e+00 7.927585e-06 2.711997e-05 0.000000e+00 8.714754e-06 1.944670e-06 0.000000e+00 9.002826e-06 3.549051e-05 0.000000e+00 7.608067e-06 2.292808e-05 0.000000e+00 7.070882e-06 1.869952e-05 0.000000e+00 8.585442e-06 1.247773e-06 0.000000e+00 8.367850e-06 3.136429e-05 0.000000e+00 9.432640e-06 1.248042e-05 0.000000e+00 7.259788e-06 5.473675e-05 0.000000e+00 1.056964e-05 4.269761e-05 0.000000e+00 8.159902e-06 5.106654e-05 0.000000e+00 -2.828371e-05 8.322455e-05 0.000000e+00 6.192895e-06 5.912753e-05 0.000000e+00 -2.043918e-05 8.583980e-05 0.000000e+00 -6.703276e-06 8.600544e-05 0.000000e+00 5.972884e-06 7.621125e-05 0.000000e+00 5.458597e-06 8.097183e-05 0.000000e+00 2.097977e-07 -6.728453e-07 0.000000e+00 3.022478e-06 8.518373e-05 0.000000e+00 -2.110523e-06 8.502418e-05 0.000000e+00 -3.315037e-05 5.598099e-05 0.000000e+00 -2.400048e-05 8.467493e-05 0.000000e+00 -3.424241e-05 6.212406e-05 0.000000e+00 -3.099118e-05 4.846839e-05 0.000000e+00 -3.352859e-05 8.101943e-05 0.000000e+00 -2.832777e-05 3.142132e-05 0.000000e+00 -2.207863e-05 6.314286e-06 0.000000e+00 -3.458028e-05 6.764159e-05 0.000000e+00 -2.989886e-05 3.939887e-05 0.000000e+00 -2.155692e-05 1.618124e-06 0.000000e+00 -1.474978e-05 -5.987470e-06 0.000000e+00 -2.060438e-05 -2.572405e-06 0.000000e+00 3.099015e-07 -6.770191e-07 0.000000e+00 4.119583e-06 2.068473e-08 0.000000e+00 9.635403e-06 3.957526e-06 0.000000e+00 -3.388574e-05 7.404189e-05 0.000000e+00 -9.466688e-06 -8.514823e-06 0.000000e+00 1.564100e-06 -3.184464e-07 0.000000e+00 1.101788e-06 8.181322e-05 0.000000e+00 3.028113e-06 7.886256e-05 0.000000e+00 7.063388e-06 7.144793e-05 0.000000e+00 6.425814e-06 6.357176e-05 0.000000e+00 3.456155e-06 5.501205e-05 0.000000e+00 -3.315600e-06 4.880766e-05 0.000000e+00 -1.075542e-05 4.646805e-05 0.000000e+00 -1.809966e-05 4.814627e-05 0.000000e+00 -2.161541e-05 5.086041e-05 0.000000e+00 -2.455452e-05 5.453183e-05 0.000000e+00 -2.654877e-05 5.851843e-05 0.000000e+00 -2.795721e-05 6.705843e-05 0.000000e+00 -2.740200e-05 7.104671e-05 0.000000e+00 -2.644955e-05 7.518601e-05 0.000000e+00 -2.110162e-05 8.227746e-05 0.000000e+00 -1.763129e-05 8.436166e-05 0.000000e+00 1.021708e-05 8.136035e-06 0.000000e+00 6.335865e-06 1.400450e-05 0.000000e+00 -8.830596e-06 -6.513144e-06 0.000000e+00 7.229287e-06 9.926374e-06 0.000000e+00 -3.324563e-08 -8.425307e-07 0.000000e+00 8.052975e-07 -5.610280e-07 0.000000e+00 2.461617e-06 -1.857032e-07 0.000000e+00 1.448368e-06 -3.492263e-07 0.000000e+00 3.496737e-06 -5.521134e-08 0.000000e+00 5.384285e-06 1.346552e-07 0.000000e+00 8.696752e-06 3.313314e-06 0.000000e+00 9.711668e-06 3.915102e-05 0.000000e+00 7.971735e-06 6.589815e-07 0.000000e+00 -2.651441e-05 2.341520e-05 0.000000e+00 8.347728e-06 4.478511e-05 0.000000e+00 -6.619823e-06 -6.952941e-06 0.000000e+00 -1.111160e-05 -5.815563e-06 0.000000e+00 7.113102e-07 -5.643637e-07 0.000000e+00 -2.242846e-05 1.111532e-05 0.000000e+00 7.803492e-06 6.122286e-06 0.000000e+00 -1.872792e-05 -5.549383e-06 0.000000e+00 -1.056136e-05 8.621305e-05 0.000000e+00 1.676023e-06 -2.977549e-07 0.000000e+00 -1.434141e-05 8.568544e-05 0.000000e+00 -2.473441e-05 7.972120e-05 0.000000e+00 -2.771289e-05 6.281930e-05 0.000000e+00 -2.854902e-05 5.456093e-05 0.000000e+00 -1.443297e-05 4.678456e-05 0.000000e+00 -7.021124e-06 4.699141e-05 0.000000e+00 5.247662e-07 5.117199e-05 0.000000e+00 7.292780e-06 6.725958e-05 0.000000e+00 9.444552e-08 -7.373305e-07 0.000000e+00 9.089319e-07 -5.276778e-07 0.000000e+00 1.794677e-06 -2.837882e-07 0.000000e+00 2.607947e-06 -1.713408e-07 0.000000e+00 3.677833e-06 -3.489128e-08 0.000000e+00 5.611749e-06 1.875740e-07 0.000000e+00 8.319486e-06 8.707297e-07 0.000000e+00 -2.470118e-05 1.638688e-05 0.000000e+00 -4.872651e-06 -5.597558e-06 0.000000e+00 -6.169113e-06 -5.363821e-06 0.000000e+00 -4.416496e-06 -6.326093e-06 0.000000e+00 -3.947795e-06 -4.457080e-06 0.000000e+00 -3.299654e-06 -4.824830e-06 0.000000e+00 3.398767e-07 -1.076011e-06 0.000000e+00 1.832136e-06 -4.370117e-07 0.000000e+00 5.706789e-06 4.288972e-07 0.000000e+00 2.694295e-06 -2.214081e-07 0.000000e+00 -2.059649e-05 1.986231e-05 0.000000e+00 4.832347e-06 2.189343e-07 0.000000e+00 4.596257e-06 2.900588e-05 0.000000e+00 1.273653e-06 -6.248035e-07 0.000000e+00 4.258206e-06 2.477844e-05 0.000000e+00 6.339105e-06 4.786329e-05 0.000000e+00 6.091648e-06 3.765127e-05 0.000000e+00 7.545348e-06 3.772409e-06 0.000000e+00 7.039670e-06 4.144209e-05 0.000000e+00 4.082364e-06 2.061194e-05 0.000000e+00 7.576062e-06 2.458692e-06 0.000000e+00 5.187322e-06 3.349766e-05 0.000000e+00 5.788994e-06 7.751847e-06 0.000000e+00 -1.755817e-05 8.214423e-06 0.000000e+00 -3.023024e-05 5.985261e-05 0.000000e+00 -2.220041e-05 2.766025e-05 0.000000e+00 -8.083982e-06 -4.498781e-06 0.000000e+00 6.394255e-07 -9.062893e-07 0.000000e+00 9.830054e-07 -6.980227e-07 0.000000e+00 -1.688767e-05 -3.276919e-07 0.000000e+00 4.673660e-06 5.117953e-05 0.000000e+00 3.487398e-06 1.664042e-05 0.000000e+00 -3.099668e-05 6.482850e-05 0.000000e+00 -1.713586e-05 4.352018e-05 0.000000e+00 -8.855685e-06 4.275759e-05 0.000000e+00 -1.199555e-05 -4.059469e-06 0.000000e+00 -1.601694e-05 -3.404681e-06 0.000000e+00 -7.645072e-07 4.683120e-05 0.000000e+00 -3.953918e-06 4.361443e-05 0.000000e+00 -1.300299e-05 4.278754e-05 0.000000e+00 -2.138753e-05 4.557778e-05 0.000000e+00 -2.555763e-05 4.947411e-05 0.000000e+00 -3.090756e-05 6.943951e-05 0.000000e+00 -2.973086e-05 7.360117e-05 0.000000e+00 -2.312256e-06 -3.772412e-06 0.000000e+00 -4.909474e-06 -3.952252e-06 0.000000e+00 -1.632502e-05 3.615280e-06 0.000000e+00 4.574484e-07 -9.840482e-07 0.000000e+00 3.594848e-06 -2.964499e-08 0.000000e+00 1.717587e-06 -4.563352e-07 0.000000e+00 1.179406e-06 -6.125826e-07 0.000000e+00 2.268507e-06 -2.974832e-07 0.000000e+00 4.536652e-06 1.622081e-07 0.000000e+00 5.423531e-06 3.355748e-07 0.000000e+00 7.586389e-06 1.717463e-06 0.000000e+00 6.399646e-06 6.272824e-07 0.000000e+00 3.079680e-06 -1.361307e-07 0.000000e+00 4.302836e-06 1.045659e-07 0.000000e+00 2.154697e-06 -3.140747e-07 0.000000e+00 6.904108e-06 6.914513e-07 0.000000e+00 5.726439e-07 -8.722336e-07 0.000000e+00 4.641751e-06 1.053412e-05 0.000000e+00 6.038106e-06 5.302766e-07 0.000000e+00 -2.392834e-05 3.538417e-05 0.000000e+00 7.295285e-07 -8.943737e-07 0.000000e+00 4.066747e-06 5.740993e-08 0.000000e+00 -2.949688e-05 7.795383e-05 0.000000e+00 5.202052e-06 2.322080e-07 0.000000e+00 2.675124e-06 4.748730e-05 0.000000e+00 2.536086e-06 -2.543501e-07 0.000000e+00 3.828138e-06 1.502869e-08 0.000000e+00 -2.024296e-05 3.969418e-05 0.000000e+00 1.108555e-06 -5.850072e-07 0.000000e+00 2.283642e-07 -1.121641e-06 0.000000e+00 1.527588e-06 -4.837062e-07 0.000000e+00 8.454940e-07 -8.220690e-07 0.000000e+00 -1.889612e-05 1.352451e-05 0.000000e+00 3.274331e-06 -9.654539e-08 0.000000e+00 7.191353e-06 9.409337e-07 0.000000e+00 2.659946e-06 1.314544e-05 0.000000e+00 -1.083711e-07 -1.304161e-06 0.000000e+00 1.432784e-06 -4.946894e-07 0.000000e+00 1.714081e-07 -1.017820e-06 0.000000e+00 -1.932043e-06 -3.955700e-06 0.000000e+00 6.600823e-08 -1.062979e-06 0.000000e+00 2.885945e-06 -1.760146e-07 0.000000e+00 1.983375e-06 -3.854933e-07 0.000000e+00 -2.533906e-05 4.273599e-05 0.000000e+00 -2.825962e-06 -4.992422e-06 0.000000e+00 -2.775140e-06 -3.399240e-06 0.000000e+00 -1.546434e-06 -4.086646e-06 0.000000e+00 -9.638172e-07 -3.148895e-06 0.000000e+00 -7.723955e-07 -3.015714e-06 0.000000e+00 -3.366029e-07 -2.373353e-06 0.000000e+00 -3.096205e-07 -2.281327e-06 0.000000e+00 -3.988264e-07 -2.420645e-06 0.000000e+00 6.653462e-08 -1.653653e-06 0.000000e+00 -7.389475e-07 -3.097983e-06 0.000000e+00 -3.007708e-07 -1.983441e-06 0.000000e+00 -1.144382e-06 -3.076385e-06 0.000000e+00 -1.630742e-08 -1.524442e-06 0.000000e+00 1.644030e-06 -4.344255e-07 0.000000e+00 2.402795e-06 -2.775305e-07 0.000000e+00 -1.607761e-05 2.380277e-05 0.000000e+00 1.316409e-06 -6.920167e-07 0.000000e+00 3.405955e-06 -7.176738e-08 0.000000e+00 7.436191e-06 1.229268e-06 0.000000e+00 4.719149e-06 4.403280e-05 0.000000e+00 -5.878007e-06 -3.023415e-06 0.000000e+00 1.159631e-06 3.108750e-05 0.000000e+00 6.394219e-06 3.925607e-06 0.000000e+00 -1.788291e-05 3.237250e-05 0.000000e+00 -9.201065e-06 -2.771327e-06 0.000000e+00 5.996161e-06 1.048640e-06 0.000000e+00 6.516601e-06 5.464012e-06 0.000000e+00 5.488359e-07 4.332890e-05 0.000000e+00 2.717208e-07 -1.374640e-06 0.000000e+00 -3.132204e-06 -5.729339e-06 0.000000e+00 1.223172e-06 1.865083e-05 0.000000e+00 3.861113e-06 7.912820e-06 0.000000e+00 5.000843e-08 -1.822880e-06 0.000000e+00 -1.295171e-05 -1.781910e-06 0.000000e+00 -6.919113e-06 3.867432e-05 0.000000e+00 1.540367e-07 -1.751499e-06 0.000000e+00 4.238338e-07 2.648248e-05 0.000000e+00 2.151359e-06 -3.898884e-07 0.000000e+00 2.445564e-06 1.021958e-05 0.000000e+00 1.460615e-06 -6.388110e-07 0.000000e+00 -1.480389e-05 1.632947e-05 0.000000e+00 5.094260e-06 5.395999e-07 0.000000e+00 5.132501e-06 5.717129e-06 0.000000e+00 4.108837e-06 2.095297e-07 0.000000e+00 3.430905e-06 1.124057e-09 0.000000e+00 6.465883e-06 2.814417e-06 0.000000e+00 1.703483e-06 -5.770614e-07 0.000000e+00 6.660468e-07 2.215263e-05 0.000000e+00 -1.822561e-06 3.886140e-05 0.000000e+00 1.964842e-06 -4.577797e-07 0.000000e+00 2.233357e-07 1.527958e-05 0.000000e+00 3.180966e-06 4.019788e-05 0.000000e+00 6.456733e-06 1.160247e-06 0.000000e+00 2.136605e-06 3.592273e-05 0.000000e+00 3.970588e-07 -1.293899e-06 0.000000e+00 5.610081e-06 8.813324e-07 0.000000e+00 2.819894e-06 -1.961776e-07 0.000000e+00 3.974258e-06 1.191777e-07 0.000000e+00 1.556176e-06 -6.345211e-07 0.000000e+00 7.836963e-07 -1.027796e-06 0.000000e+00 2.372508e-06 -3.323117e-07 0.000000e+00 -3.107932e-07 -1.468538e-06 0.000000e+00 -4.652839e-07 -2.377232e-06 0.000000e+00 1.046657e-06 -9.255887e-07 0.000000e+00 9.786900e-07 -8.283685e-07 0.000000e+00 -1.402287e-05 1.055867e-05 0.000000e+00 2.567798e-06 -2.675864e-07 0.000000e+00 -1.119264e-05 3.855974e-05 0.000000e+00 5.439470e-06 6.633046e-07 0.000000e+00 4.971451e-07 -1.245242e-06 0.000000e+00 3.018262e-06 -1.398757e-07 0.000000e+00 -1.297370e-05 6.168432e-06 0.000000e+00 -1.378766e-06 -2.907858e-06 0.000000e+00 2.231171e-06 -3.767453e-07 0.000000e+00 -9.828668e-06 8.142921e-06 0.000000e+00 1.017872e-06 -8.801410e-07 0.000000e+00 -1.300704e-05 7.774780e-07 0.000000e+00 3.195083e-06 -7.202382e-08 0.000000e+00 4.877081e-06 3.699639e-07 0.000000e+00 -3.503028e-06 -2.928392e-06 0.000000e+00 1.125198e-06 -9.029995e-07 0.000000e+00 -6.706343e-06 -1.638773e-06 0.000000e+00 5.491064e-07 -1.284083e-06 0.000000e+00 -3.478114e-06 2.869810e-05 0.000000e+00 -1.790916e-06 1.870412e-05 0.000000e+00 3.691697e-06 6.676094e-08 0.000000e+00 -1.141154e-05 2.930808e-06 0.000000e+00 -3.053949e-06 2.315571e-05 0.000000e+00 1.074876e-07 -1.799764e-06 0.000000e+00 -1.560038e-05 3.866662e-05 0.000000e+00 2.951355e-06 -2.163404e-08 0.000000e+00 -5.158398e-07 -2.211618e-06 0.000000e+00 -1.567400e-06 -2.520024e-06 0.000000e+00 -9.540421e-06 3.393889e-05 0.000000e+00 4.355586e-06 3.332709e-07 0.000000e+00 -1.037894e-05 1.920312e-05 0.000000e+00 -1.202518e-05 2.792524e-05 0.000000e+00 -1.342191e-05 3.412359e-05 0.000000e+00 4.397065e-06 6.031836e-07 0.000000e+00 -1.034579e-05 1.279641e-05 0.000000e+00 -8.744337e-06 4.444825e-06 0.000000e+00 3.244472e-06 9.387366e-08 0.000000e+00 7.019261e-07 -1.218787e-06 0.000000e+00 -2.388870e-07 1.153470e-05 0.000000e+00 5.178198e-06 3.959306e-06 0.000000e+00 3.684050e-06 3.401477e-07 0.000000e+00 6.702799e-06 1.973330e-06 0.000000e+00 1.937209e-06 -4.769591e-07 0.000000e+00 6.480516e-06 1.588302e-06 0.000000e+00 -5.440259e-06 3.406602e-05 0.000000e+00 -2.254801e-06 -2.178758e-06 0.000000e+00 3.642527e-06 5.608975e-06 0.000000e+00 -9.806196e-06 -7.915057e-07 0.000000e+00 -3.854397e-06 -1.936990e-06 0.000000e+00 4.982771e-06 1.395592e-06 0.000000e+00 2.467600e-06 -2.503732e-07 0.000000e+00 -1.649083e-06 3.364475e-05 0.000000e+00 1.215535e-06 -8.588412e-07 0.000000e+00 2.690623e-06 -1.372447e-07 0.000000e+00 4.686151e-06 9.401370e-07 0.000000e+00 2.124694e-06 -3.796022e-07 0.000000e+00 7.934443e-07 -1.084505e-06 0.000000e+00 -9.814230e-06 9.260067e-07 0.000000e+00 7.122264e-07 -1.216653e-06 0.000000e+00 5.124927e-07 -1.386330e-06 0.000000e+00 1.539552e-06 -6.753016e-07 0.000000e+00 1.581236e-06 7.914714e-06 0.000000e+00 5.554440e-06 1.691842e-06 0.000000e+00 1.882353e-06 -5.164059e-07 0.000000e+00 -7.434385e-06 1.869134e-06 0.000000e+00 -3.852495e-07 -1.869133e-06 0.000000e+00 1.503614e-06 -5.517178e-07 0.000000e+00 -4.766182e-06 -8.275214e-07 0.000000e+00 -8.664889e-07 -1.759287e-06 0.000000e+00 3.812457e-06 5.409980e-07 0.000000e+00 1.248534e-06 -8.331780e-07 0.000000e+00 -7.254699e-06 -8.710043e-08 0.000000e+00 3.608997e-06 1.805670e-07 0.000000e+00 -3.025128e-06 1.464541e-05 0.000000e+00 2.022164e-07 -1.643473e-06 0.000000e+00 3.950450e-06 3.755125e-06 0.000000e+00 3.515015e-06 9.362758e-07 0.000000e+00 3.036625e-06 5.648414e-07 0.000000e+00 -6.131663e-06 5.799968e-06 0.000000e+00 -7.390029e-06 2.423207e-05 0.000000e+00 5.491167e-06 2.556093e-06 0.000000e+00 3.823358e-06 1.559990e-06 0.000000e+00 -1.690543e-06 -1.504720e-06 0.000000e+00 8.838154e-07 -9.394094e-07 0.000000e+00 2.568695e-06 1.240015e-07 0.000000e+00 2.311599e-06 5.223544e-06 0.000000e+00 2.567981e-06 1.606308e-06 0.000000e+00 1.710524e-06 -3.863621e-07 0.000000e+00 1.438216e-06 -6.689327e-07 0.000000e+00 -5.279187e-06 3.088676e-06 0.000000e+00 -7.747588e-06 2.952585e-05 0.000000e+00 3.057388e-06 2.744415e-07 0.000000e+00 2.909386e-07 -1.322822e-06 0.000000e+00 -6.734429e-06 1.423042e-05 0.000000e+00 -5.629589e-06 1.892191e-05 0.000000e+00 2.371787e-06 -5.507993e-08 0.000000e+00 -6.693271e-06 9.645192e-06 0.000000e+00 -1.805459e-07 -1.204679e-06 0.000000e+00 2.704649e-06 3.546337e-06 0.000000e+00 2.194461e-06 9.798847e-07 0.000000e+00 2.000914e-06 -2.119168e-07 0.000000e+00 9.233157e-07 -5.561858e-07 0.000000e+00 -4.510344e-06 1.521611e-06 0.000000e+00 2.134147e-06 4.147510e-07 0.000000e+00 8.182778e-07 -1.116598e-06 0.000000e+00 -5.032137e-06 3.865482e-07 0.000000e+00 8.189331e-07 -7.901545e-07 0.000000e+00 4.251983e-06 2.321020e-06 0.000000e+00 2.748802e-06 2.380364e-06 0.000000e+00 -2.983768e-06 3.698955e-06 0.000000e+00 4.890227e-07 6.550468e-06 0.000000e+00 -2.619235e-06 -9.828400e-07 0.000000e+00 -9.922438e-07 -9.154472e-07 0.000000e+00 -3.652480e-06 1.090806e-05 0.000000e+00 3.003598e-07 -1.460709e-06 0.000000e+00 -3.405846e-06 6.942087e-06 0.000000e+00 1.114631e-06 -2.889755e-07 0.000000e+00 -2.295759e-06 1.661063e-06 0.000000e+00 1.621815e-06 3.602406e-08 0.000000e+00 -3.248688e-06 -2.647908e-07 0.000000e+00 8.572166e-07 4.811581e-06 0.000000e+00 -1.355546e-06 -2.723650e-07 0.000000e+00 1.242665e-06 7.857793e-07 0.000000e+00 -6.742396e-07 4.072022e-06 0.000000e+00 1.378763e-06 1.676128e-06 0.000000e+00 2.814612e-07 -2.723000e-08 0.000000e+00 1.122928e-07 -7.959153e-07 0.000000e+00 8.052691e-07 3.944536e-07 0.000000e+00 1.379315e-06 3.395181e-06 0.000000e+00 -1.222620e-06 8.552827e-06 0.000000e+00 1.190413e-06 2.528750e-06 0.000000e+00 2.464676e-08 -4.882373e-07 0.000000e+00 -9.334684e-07 6.147161e-06 0.000000e+00 -2.734526e-06 5.551260e-07 0.000000e+00 9.038472e-07 1.297095e-06 0.000000e+00 -4.163667e-07 2.188272e-06 0.000000e+00 -8.474062e-07 4.879108e-07 0.000000e+00 -1.310907e-07 1.054918e-06 0.000000e+00 </DataArray>
 <DataArray type="Float64" Name="IST_StressTensor" NumberOfComponents="9" format="ascii"> 1.284480e+00 4.484560e+00 0.000000e+00 4.484560e+00 -3.247181e+00 0.000000e+00 0.000000e+00 0.000000e+00 0.000000e+00 -8.664408e-01 -8.930458e-01 0.000000e+00 -8.930458e-01 -9.204678e-01 0.000000e+00 0.000000e+00 0.000000e+00 0.000000e+00 4.451350e+01 1.416038e+01 0.000000e+00 1.416038e+01 7.312220e+00 0.000000e+00 0.000000e+00 0.000000e+00 0.000000e+00 5.498543e-01 -8.804329e-01 0.000000e+00 -8.804329e-01 4.068782e-01 0.000000e+00 0.000000e+00 0.000000e+00 0.000000e+00 2.507471e+01 7.477368e+00 0.000000e+00 7.477368e+00 2.121710e+00 0.000000e+00 0.000000e+00 0.000000e+00 0.000000e+00 -5.635802e+00 -5.708239e+00 0.000000e+00 -5.708239e+00 -5.331250e+00 0.000000e+00 0.000000e+00 0.000000e+00 0.000000e+00 2.766393e+02 9.425529e+01 0.000000e+00 9.425529e+01 3.217609e+02 0.000000e+00 0.000000e+00 0.000000e+00 0.000000e+00 3.279478e+00 -7.492855e+00 0.000000e+00 -7.492855e+00 -1.927743e+02 0.000000e+00 0.000000e+00 0.000000e+00 0.000000e+00 -1.593510e+00 4.240811e+00 0.000000e+00 4.240811e+00 -3.353152e+00 0.000000e+00 0.000000e+00 0.000000e+00 0.000000e+00 -3.633856e+00 2.774372e+00 0.000000e+00 2.774372e+00 -4.586269e+00 0.000000e+00 0.000000e+00 0.000000e+00 0.000000e+00 -4.069275e+00 1.105766e+00 0.000000e+00 1.105766e+00 -7.547741e+00 0.000000e+00 0.000000e+00 0.000000e+00 0.000000e+00 -2.474534e+00 8.043225e-01 0.000000e+00 8.043225e-01 -1.257892e+01 0.000000e+00 0.000000e+00 0.000000e+00 0.000000e+00 5.279759e-01 4.333442e+00 0.000000e+00 4.333442e+00 -1.821669e+01 0.000000e+00 0.000000e+00 0.000000e+00 0.000000e+00 1.932170e+00 1.066562e+01 0.000000e+00 1.066562e+01 -2.130415e+01 0.000000e+00 0.000000e+00 0.000000e+00 0.000000e+00 1.304207e+00 1.870051e+01 0.000000e+00 1.870051e+01 -2.168685e+01 0.000000e+00 0.000000e+00 0.000000e+00 0.000000e+00 -1.193280e+00 2.565839e+01 0.000000e+00 2.565839e+01 -1.983236e+01 0.000000e+00 0.000000e+00 0.000000e+00 0.000000e+00 -4.489140e+00 3.197276e+01 0.000000e+00 3.197276e+01 -1.663969e+01 0.000000e+00 0.000000e+00 0.000000e+00 0.000000e+00 -7.543337e+00 3.616877e+01 0.000000e+00 3.616877e+01 -1.188037e+01 0.000000e+00 0.000000e+00 0.000000e+00 0.000000e+00 -8.454283e+00 3.734114e+01 0.000000e+00 3.734114e+01 -6.286614e+00 0.000000e+00 0.000000e+00 0.000000e+00 0.000000e+00 -5.875142e+00 3.602966e+01 0.000000e+00 3.602966e+01 -2.244724e+00 0.000000e+00 0.000000e+00 0.000000e+00 0.000000e+00 3.991681e-01 3.402554e+01 0.000000e+00 3.402554e+01 -8.586186e-01 0.000000e+00 0.000000e+00 0.000000e+00 0.000000e+00 8.230327e+00 3.312194e+01 0.000000e+00 3.312194e+01 -1.104645e+00 0.000000e+00 0.000000e+00 0.000000e+00 0.000000e+00 1.480289e+01 3.328738e+01 0.000000e+00 3.328738e+01 -1.040889e+00 0.000000e+00 0.000000e+00 0.000000e+00 0.000000e+00 1.883422e+01 3.361105e+01 0.000000e+00 3.361105e+01 -6.689517e-02 0.000000e+00 0.000000e+00 0.000000e+00 0.000000e+00 1.969000e+01 3.316988e+01 0.000000e+00 3.316988e+01 2.488500e+00 0.000000e+00 0.000000e+00 0.000000e+00 0.000000e+00 1.723591e+01 3.135656e+01 0.000000e+00 3.135656e+01 6.333115e+00 0.000000e+00 0.000000e+00 0.000000e+00 0.000000e+00 1.107409e+01 2.679272e+01 0.000000e+00 2.679272e+01 1.012517e+01 0.000000e+00 0.000000e+00 0.000000e+00 0.000000e+00 4.463047e+00 1.953371e+01 0.000000e+00 1.953371e+01 1.167561e+01 0.000000e+00 0.000000e+00 0.000000e+00 0.000000e+00 1.783836e+00 1.143766e+01 0.000000e+00 1.143766e+01 1.310029e+01 0.000000e+00 0.000000e+00 0.000000e+00 0.000000e+00 8.655357e-01 4.155804e+00 0.000000e+00 4.155804e+00 1.173171e+01 0.000000e+00 0.000000e+00 0.000000e+00 0.000000e+00 2.086321e+00 -8.265454e-01 0.000000e+00 -8.265454e-01 9.117729e+00 0.000000e+00 0.000000e+00 0.000000e+00 0.000000e+00 5.172763e+00 -3.213111e+00 0.000000e+00 -3.213111e+00 4.358489e+00 0.000000e+00 0.000000e+00 0.000000e+00 0.000000e+00 6.773406e+00 -2.169381e+00 0.000000e+00 -2.169381e+00 2.175124e-01 0.000000e+00 0.000000e+00 0.000000e+00 0.000000e+00 6.579413e+00 4.179688e-01 0.000000e+00 4.179688e-01 -2.364493e+00 0.000000e+00 0.000000e+00 0.000000e+00 0.000000e+00 4.529520e+00 2.996224e+00 0.000000e+00 2.996224e+00 -3.243684e+00 0.000000e+00 0.000000e+00 0.000000e+00 0.000000e+00 -3.938582e+00 -1.041312e+01 0.000000e+00 -1.041312e+01 -1.891201e+01 0.000000e+00 0.000000e+00 0.000000e+00 0.000000e+00 9.490545e-02 -1.394747e+01 0.000000e+00 -1.394747e+01 -5.679709e+01 0.000000e+00 0.000000e+00 0.000000e+00 0.000000e+00 2.803134e+00 -1.092181e+01 0.000000e+00 -1.092181e+01 -1.135348e+02 0.000000e+00 0.000000e+00 0.000000e+00 0.000000e+00 2.910007e+00 -5.508069e+00 0.000000e+00 -5.508069e+00 -1.660260e+02 0.000000e+00 0.000000e+00 0.000000e+00 0.000000e+00 1.482852e+02 4.220443e+01 0.000000e+00 4.220443e+01 2.171125e+01 0.000000e+00 0.000000e+00 0.000000e+00 0.000000e+00 7.365627e+01 2.018492e+00 0.000000e+00 2.018492e+00 -6.654259e-01 0.000000e+00 0.000000e+00 0.000000e+00 0.000000e+00 6.850415e+01 3.555327e+00 0.000000e+00 3.555327e+00 5.212994e-01 0.000000e+00 0.000000e+00 0.000000e+00 0.000000e+00 6.214799e+01 3.779037e+00 0.000000e+00 3.779037e+00 -3.354290e-01 0.000000e+00 0.000000e+00 0.000000e+00 0.000000e+00 5.555448e+01 4.303324e+00 0.000000e+00 4.303324e+00 -4.150875e-01 0.000000e+00 0.000000e+00 0.000000e+00 0.000000e+00 4.856046e+01 4.867609e+00 0.000000e+00 4.867609e+00 -3.064046e-01 0.000000e+00 0.000000e+00 0.000000e+00 0.000000e+00 4.097350e+01 5.578297e+00 0.000000e+00 5.578297e+00 -4.157417e-01 0.000000e+00 0.000000e+00 0.000000e+00 0.000000e+00 3.191395e+01 6.390173e+00 0.000000e+00 6.390173e+00 -1.008191e-01 0.000000e+00 0.000000e+00 0.000000e+00 0.000000e+00 1.744659e+00 -7.807309e-01 0.000000e+00 -7.807309e-01 -1.622562e-01 0.000000e+00 0.000000e+00 0.000000e+00 0.000000e+00 2.543282e+00 -4.270980e-01 0.000000e+00 -4.270980e-01 -3.832999e-01 0.000000e+00 0.000000e+00 0.000000e+00 0.000000e+00 2.193703e+00 8.665430e-01 0.000000e+00 8.665430e-01 -1.085480e+00 0.000000e+00 0.000000e+00 0.000000e+00 0.000000e+00 -2.203783e+00 2.862625e+00 0.000000e+00 2.862625e+00 -1.271605e+00 0.000000e+00 0.000000e+00 0.000000e+00 0.000000e+00 -1.173893e+01 5.241461e+00 0.000000e+00 5.241461e+00 -1.306212e+00 0.000000e+00 0.000000e+00 0.000000e+00 0.000000e+00 -2.628318e+01 7.437632e+00 0.000000e+00 7.437632e+00 -9.653306e-01 0.000000e+00 0.000000e+00 0.000000e+00 0.000000e+00 -4.291298e+01 8.808937e+00 0.000000e+00 8.808937e+00 -3.854346e-01 0.000000e+00 0.000000e+00 0.000000e+00 0.000000e+00 -6.202545e+01 9.079734e+00 0.000000e+00 9.079734e+00 2.710044e-01 0.000000e+00 0.000000e+00 0.000000e+00 0.000000e+00 -7.922996e+01 8.117430e+00 0.000000e+00 8.117430e+00 1.332414e+00 0.000000e+00 0.000000e+00 0.000000e+00 0.000000e+00 -9.182908e+01 5.617609e+00 0.000000e+00 5.617609e+00 2.524315e+00 0.000000e+00 0.000000e+00 0.000000e+00 0.000000e+00 -9.483978e+01 4.014985e-01 0.000000e+00 4.014985e-01 4.371420e+00 0.000000e+00 0.000000e+00 0.000000e+00 0.000000e+00 -8.316698e+01 -8.064968e+00 0.000000e+00 -8.064968e+00 4.699956e+00 0.000000e+00 0.000000e+00 0.000000e+00 0.000000e+00 -5.600652e+01 -1.268574e+01 0.000000e+00 -1.268574e+01 2.525296e+00 0.000000e+00 0.000000e+00 0.000000e+00 0.000000e+00 -2.235106e+01 -1.110453e+01 0.000000e+00 -1.110453e+01 -2.795836e+00 0.000000e+00 0.000000e+00 0.000000e+00 0.000000e+00 3.605487e+01 1.346250e+01 0.000000e+00 1.346250e+01 4.413157e+00 0.000000e+00 0.000000e+00 0.000000e+00 0.000000e+00 -3.757792e-01 -9.989607e-01 0.000000e+00 -9.989607e-01 -1.566389e+00 0.000000e+00 0.000000e+00 0.000000e+00 0.000000e+00 2.210272e-01 -8.401124e-01 0.000000e+00 -8.401124e-01 -4.168044e+00 0.000000e+00 0.000000e+00 0.000000e+00 0.000000e+00 6.465802e-01 1.337907e-01 0.000000e+00 1.337907e-01 -5.225990e+00 0.000000e+00 0.000000e+00 0.000000e+00 0.000000e+00 4.793913e-01 1.124229e+00 0.000000e+00 1.124229e+00 -4.122918e+00 0.000000e+00 0.000000e+00 0.000000e+00 0.000000e+00 1.397033e-01 1.676830e+00 0.000000e+00 1.676830e+00 -1.345390e+00 0.000000e+00 0.000000e+00 0.000000e+00 0.000000e+00 -2.933295e-01 1.570449e+00 0.000000e+00 1.570449e+00 1.387071e+00 0.000000e+00 0.000000e+00 0.000000e+00 0.000000e+00 -4.322673e-01 8.410325e-01 0.000000e+00 8.410325e-01 3.497742e+00 0.000000e+00 0.000000e+00 0.000000e+00 0.000000e+00 -4.491975e-01 9.315325e-02 0.000000e+00 9.315325e-02 4.154032e+00 0.000000e+00 0.000000e+00 0.000000e+00 0.000000e+00 -3.699018e-01 -6.548353e-01 0.000000e+00 -6.548353e-01 3.149934e+00 0.000000e+00 0.000000e+00 0.000000e+00 0.000000e+00 6.160947e-02 -9.252655e-01 0.000000e+00 -9.252655e-01 1.393001e+00 0.000000e+00 0.000000e+00 0.000000e+00 0.000000e+00 3.873893e+01 9.508799e+00 0.000000e+00 9.508799e+00 2.053215e+00 0.000000e+00 0.000000e+00 0.000000e+00 0.000000e+00 2.171698e+01 7.135997e+00 0.000000e+00 7.135997e+00 7.290059e-01 0.000000e+00 0.000000e+00 0.000000e+00 0.000000e+00 7.626614e+00 5.834471e+00 0.000000e+00 5.834471e+00 1.129913e+00 0.000000e+00 0.000000e+00 0.000000e+00 0.000000e+00 -4.237186e+00 3.857109e+00 0.000000e+00 3.857109e+00 1.762972e+00 0.000000e+00 0.000000e+00 0.000000e+00 0.000000e+00 -1.051747e+01 1.064597e+00 0.000000e+00 1.064597e+00 1.721472e+00 0.000000e+00 0.000000e+00 0.000000e+00 0.000000e+00 -9.898605e+00 -1.108267e+00 0.000000e+00 -1.108267e+00 1.045548e+00 0.000000e+00 0.000000e+00 0.000000e+00 0.000000e+00 -5.756610e+00 -1.951982e+00 0.000000e+00 -1.951982e+00 1.676385e-01 0.000000e+00 0.000000e+00 0.000000e+00 0.000000e+00 -1.443044e+00 -1.484278e+00 0.000000e+00 -1.484278e+00 -7.622580e-01 0.000000e+00 0.000000e+00 0.000000e+00 0.000000e+00 -2.984727e+01 -8.272545e+00 0.000000e+00 -8.272545e+00 -1.799299e+02 0.000000e+00 0.000000e+00 0.000000e+00 0.000000e+00 -1.503770e+01 -6.102315e+00 0.000000e+00 -6.102315e+00 -1.720670e+02 0.000000e+00 0.000000e+00 0.000000e+00 0.000000e+00 -8.744813e+00 -3.741034e+00 0.000000e+00 -3.741034e+00 -1.632247e+02 0.000000e+00 0.000000e+00 0.000000e+00 0.000000e+00 -4.254863e+00 -2.674707e+00 0.000000e+00 -2.674707e+00 -1.541690e+02 0.000000e+00 0.000000e+00 0.000000e+00 0.000000e+00 -6.385860e-01 -2.137544e+00 0.000000e+00 -2.137544e+00 -1.456227e+02 0.000000e+00 0.000000e+00 0.000000e+00 0.000000e+00 2.206504e+00 -1.858853e+00 0.000000e+00 -1.858853e+00 -1.372175e+02 0.000000e+00 0.000000e+00 0.000000e+00 0.000000e+00 4.789132e+00 -1.758186e+00 0.000000e+00 -1.758186e+00 -1.291319e+02 0.000000e+00 0.000000e+00 0.000000e+00 0.000000e+00 7.129017e+00 -1.679845e+00 0.000000e+00 -1.679845e+00 -1.213944e+02 0.000000e+00 0.000000e+00 0.000000e+00 0.000000e+00 9.501044e+00 -1.720873e+00 0.000000e+00 -1.720873e+00 -1.139311e+02 0.000000e+00 0.000000e+00 0.000000e+00 0.000000e+00 1.189490e+01 -1.759382e+00 0.000000e+00 -1.759382e+00 -1.065912e+02 0.000000e+00 0.000000e+00 0.000000e+00 0.000000e+00 1.459299e+01 -1.828078e+00 0.000000e+00 -1.828078e+00 -9.941080e+01 0.000000e+00 0.000000e+00 0.000000e+00 0.000000e+00 1.728881e+01 -1.793389e+00 0.000000e+00 -1.793389e+00 -9.239976e+01 0.000000e+00 0.000000e+00 0.000000e+00 0.000000e+00 2.008684e+01 -1.812607e+00 0.000000e+00 -1.812607e+00 -8.573918e+01 0.000000e+00 0.000000e+00 0.000000e+00 0.000000e+00 2.305277e+01 -1.842753e+00 0.000000e+00 -1.842753e+00 -7.955844e+01 0.000000e+00 0.000000e+00 0.000000e+00 0.000000e+00 2.608445e+01 -1.830159e+00 0.000000e+00 -1.830159e+00 -7.320720e+01 0.000000e+00 0.000000e+00 0.000000e+00 0.000000e+00 2.918461e+01 -1.938379e+00 0.000000e+00 -1.938379e+00 -6.680120e+01 0.000000e+00 0.000000e+00 0.000000e+00 0.000000e+00 3.257497e+01 -2.045287e+00 0.000000e+00 -2.045287e+00 -6.073875e+01 0.000000e+00 0.000000e+00 0.000000e+00 0.000000e+00 3.600848e+01 -2.101690e+00 0.000000e+00 -2.101690e+00 -5.483689e+01 0.000000e+00 0.000000e+00 0.000000e+00 0.000000e+00 3.968395e+01 -2.232158e+00 0.000000e+00 -2.232158e+00 -4.904886e+01 0.000000e+00 0.000000e+00 0.000000e+00 0.000000e+00 4.341578e+01 -2.295738e+00 0.000000e+00 -2.295738e+00 -4.334276e+01 0.000000e+00 0.000000e+00 0.000000e+00 0.000000e+00 4.729569e+01 -2.370318e+00 0.000000e+00 -2.370318e+00 -3.739947e+01 0.000000e+00 0.000000e+00 0.000000e+00 0.000000e+00 5.139917e+01 -2.476705e+00 0.000000e+00 -2.476705e+00 -3.155158e+01 0.000000e+00 0.000000e+00 0.000000e+00 0.000000e+00 5.568100e+01 -2.541612e+00 0.000000e+00 -2.541612e+00 -2.598605e+01 0.000000e+00 0.000000e+00 0.000000e+00 0.000000e+00 6.009727e+01 -2.614605e+00 0.000000e+00 -2.614605e+00 -2.052514e+01 0.000000e+00 0.000000e+00 0.000000e+00 0.000000e+00 6.467315e+01 -2.741267e+00 0.000000e+00 -2.741267e+00 -1.496286e+01 0.000000e+00 0.000000e+00 0.000000e+00 0.000000e+00 6.953054e+01 -2.855893e+00 0.000000e+00 -2.855893e+00 -9.274321e+00 0.000000e+00 0.000000e+00 0.000000e+00 0.000000e+00 7.447269e+01 -2.899068e+00 0.000000e+00 -2.899068e+00 -3.259207e+00 0.000000e+00 0.000000e+00 0.000000e+00 0.000000e+00 7.968263e+01 -3.003120e+00 0.000000e+00 -3.003120e+00 2.979424e+00 0.000000e+00 0.000000e+00 0.000000e+00 0.000000e+00 8.508253e+01 -3.149529e+00 0.000000e+00 -3.149529e+00 8.951962e+00 0.000000e+00 0.000000e+00 0.000000e+00 0.000000e+00 9.077564e+01 -3.266403e+00 0.000000e+00 -3.266403e+00 1.503229e+01 0.000000e+00 0.000000e+00 0.000000e+00 0.000000e+00 9.671741e+01 -3.413290e+00 0.000000e+00 -3.413290e+00 2.180122e+01 0.000000e+00 0.000000e+00 0.000000e+00 0.000000e+00 1.028258e+02 -3.652278e+00 0.000000e+00 -3.652278e+00 2.901268e+01 0.000000e+00 0.000000e+00 0.000000e+00 0.000000e+00 1.093563e+02 -3.952726e+00 0.000000e+00 -3.952726e+00 3.632781e+01 0.000000e+00 0.000000e+00 0.000000e+00 0.000000e+00 1.164433e+02 -4.316573e+00 0.000000e+00 -4.316573e+00 4.353750e+01 0.000000e+00 0.000000e+00 0.000000e+00 0.000000e+00 1.240964e+02 -4.515464e+00 0.000000e+00 -4.515464e+00 5.102412e+01 0.000000e+00 0.000000e+00 0.000000e+00 0.000000e+00 1.322291e+02 -4.567877e+00 0.000000e+00 -4.567877e+00 5.961448e+01 0.000000e+00 0.000000e+00 0.000000e+00 0.000000e+00 1.408104e+02 -4.667076e+00 0.000000e+00 -4.667076e+00 6.905369e+01 0.000000e+00 0.000000e+00 0.000000e+00 0.000000e+00 1.500643e+02 -4.941959e+00 0.000000e+00 -4.941959e+00 7.868473e+01 0.000000e+00 0.000000e+00 0.000000e+00 0.000000e+00 1.597275e+02 -5.696619e+00 0.000000e+00 -5.696619e+00 8.919878e+01 0.000000e+00 0.000000e+00 0.000000e+00 0.000000e+00 1.711231e+02 -6.764853e+00 0.000000e+00 -6.764853e+00 1.006867e+02 0.000000e+00 0.000000e+00 0.000000e+00 0.000000e+00 1.838074e+02 -7.683764e+00 0.000000e+00 -7.683764e+00 1.132834e+02 0.000000e+00 0.000000e+00 0.000000e+00 0.000000e+00 1.983994e+02 -8.888598e+00 0.000000e+00 -8.888598e+00 1.274932e+02 0.000000e+00 0.000000e+00 0.000000e+00 0.000000e+00 2.158361e+02 -1.002628e+01 0.000000e+00 -1.002628e+01 1.445119e+02 0.000000e+00 0.000000e+00 0.000000e+00 0.000000e+00 2.362018e+02 -1.211037e+01 0.000000e+00 -1.211037e+01 1.649533e+02 0.000000e+00 0.000000e+00 0.000000e+00 0.000000e+00 2.601451e+02 -1.649366e+01 0.000000e+00 -1.649366e+01 1.888908e+02 0.000000e+00 0.000000e+00 0.000000e+00 0.000000e+00 2.910288e+02 -2.398455e+01 0.000000e+00 -2.398455e+01 2.197515e+02 0.000000e+00 0.000000e+00 0.000000e+00 0.000000e+00 3.324874e+02 -3.791327e+01 0.000000e+00 -3.791327e+01 2.633814e+02 0.000000e+00 0.000000e+00 0.000000e+00 0.000000e+00 3.863083e+02 -6.369000e+01 0.000000e+00 -6.369000e+01 3.331548e+02 0.000000e+00 0.000000e+00 0.000000e+00 0.000000e+00 4.450717e+02 -1.064609e+02 0.000000e+00 -1.064609e+02 4.668126e+02 0.000000e+00 0.000000e+00 0.000000e+00 0.000000e+00 -1.259192e+01 -1.123052e+01 0.000000e+00 -1.123052e+01 -1.828228e+02 0.000000e+00 0.000000e+00 0.000000e+00 0.000000e+00 -4.622558e+00 -4.496764e+00 0.000000e+00 -4.496764e+00 -1.593058e+02 0.000000e+00 0.000000e+00 0.000000e+00 0.000000e+00 1.467017e+00 -2.890097e+00 0.000000e+00 -2.890097e+00 -1.415438e+02 0.000000e+00 0.000000e+00 0.000000e+00 0.000000e+00 6.196132e+00 -2.592882e+00 0.000000e+00 -2.592882e+00 -1.254244e+02 0.000000e+00 0.000000e+00 0.000000e+00 0.000000e+00 1.063214e+01 -2.720582e+00 0.000000e+00 -2.720582e+00 -1.101455e+02 0.000000e+00 0.000000e+00 0.000000e+00 0.000000e+00 1.591118e+01 -2.993229e+00 0.000000e+00 -2.993229e+00 -9.577338e+01 0.000000e+00 0.000000e+00 0.000000e+00 0.000000e+00 2.152526e+01 -2.973633e+00 0.000000e+00 -2.973633e+00 -8.262403e+01 0.000000e+00 0.000000e+00 0.000000e+00 0.000000e+00 2.756139e+01 -3.220034e+00 0.000000e+00 -3.220034e+00 -6.993793e+01 0.000000e+00 0.000000e+00 0.000000e+00 0.000000e+00 3.419307e+01 -3.416895e+00 0.000000e+00 -3.416895e+00 -5.775368e+01 0.000000e+00 0.000000e+00 0.000000e+00 0.000000e+00 4.117368e+01 -3.991350e+00 0.000000e+00 -3.991350e+00 -4.613234e+01 0.000000e+00 0.000000e+00 0.000000e+00 0.000000e+00 4.916657e+01 -4.424302e+00 0.000000e+00 -4.424302e+00 -3.448485e+01 0.000000e+00 0.000000e+00 0.000000e+00 0.000000e+00 5.757301e+01 -4.649239e+00 0.000000e+00 -4.649239e+00 -2.321777e+01 0.000000e+00 0.000000e+00 0.000000e+00 0.000000e+00 6.664320e+01 -5.255468e+00 0.000000e+00 -5.255468e+00 -1.211373e+01 0.000000e+00 0.000000e+00 0.000000e+00 0.000000e+00 7.664992e+01 -5.649931e+00 0.000000e+00 -5.649931e+00 -2.042645e-01 0.000000e+00 0.000000e+00 0.000000e+00 0.000000e+00 8.743217e+01 -5.804125e+00 0.000000e+00 -5.804125e+00 1.214385e+01 0.000000e+00 0.000000e+00 0.000000e+00 0.000000e+00 9.911821e+01 -6.696431e+00 0.000000e+00 -6.696431e+00 2.552468e+01 0.000000e+00 0.000000e+00 0.000000e+00 0.000000e+00 1.122945e+02 -7.668635e+00 0.000000e+00 -7.668635e+00 4.025859e+01 0.000000e+00 0.000000e+00 0.000000e+00 0.000000e+00 1.269992e+02 -8.749245e+00 0.000000e+00 -8.749245e+00 5.587486e+01 0.000000e+00 0.000000e+00 0.000000e+00 0.000000e+00 1.446330e+02 -8.784795e+00 0.000000e+00 -8.784795e+00 7.422911e+01 0.000000e+00 0.000000e+00 0.000000e+00 0.000000e+00 1.632294e+02 -1.170485e+01 0.000000e+00 -1.170485e+01 9.512262e+01 0.000000e+00 0.000000e+00 0.000000e+00 0.000000e+00 1.873519e+02 -1.553027e+01 0.000000e+00 -1.553027e+01 1.214115e+02 0.000000e+00 0.000000e+00 0.000000e+00 0.000000e+00 2.206905e+02 -1.854419e+01 0.000000e+00 -1.854419e+01 1.554664e+02 0.000000e+00 0.000000e+00 0.000000e+00 0.000000e+00 2.594315e+02 -3.062767e+01 0.000000e+00 -3.062767e+01 2.055425e+02 0.000000e+00 0.000000e+00 0.000000e+00 0.000000e+00 3.038530e+02 -5.513370e+01 0.000000e+00 -5.513370e+01 2.970809e+02 0.000000e+00 0.000000e+00 0.000000e+00 0.000000e+00 2.909317e+02 -2.050304e+01 0.000000e+00 -2.050304e+01 5.013243e+02 0.000000e+00 0.000000e+00 0.000000e+00 0.000000e+00 8.582865e+01 1.227685e+01 0.000000e+00 1.227685e+01 3.840311e+00 0.000000e+00 0.000000e+00 0.000000e+00 0.000000e+00 6.251257e+01 8.608053e+00 0.000000e+00 8.608053e+00 2.541581e-01 0.000000e+00 0.000000e+00 0.000000e+00 0.000000e+00 4.696935e+01 8.682437e+00 0.000000e+00 8.682437e+00 -4.767909e-01 0.000000e+00 0.000000e+00 0.000000e+00 0.000000e+00 3.341100e+01 1.008378e+01 0.000000e+00 1.008378e+01 3.270122e-01 0.000000e+00 0.000000e+00 0.000000e+00 0.000000e+00 3.963916e+01 1.351646e+01 0.000000e+00 1.351646e+01 3.157206e+00 0.000000e+00 0.000000e+00 0.000000e+00 0.000000e+00 3.763180e+01 1.395836e+01 0.000000e+00 1.395836e+01 5.074401e+00 0.000000e+00 0.000000e+00 0.000000e+00 0.000000e+00 1.567187e+01 1.152887e+01 0.000000e+00 1.152887e+01 1.497583e+00 0.000000e+00 0.000000e+00 0.000000e+00 0.000000e+00 -4.187825e+00 3.333195e+00 0.000000e+00 3.333195e+00 2.209301e+00 0.000000e+00 0.000000e+00 0.000000e+00 0.000000e+00 -4.812579e+00 -2.280778e+00 0.000000e+00 -2.280778e+00 6.198724e-01 0.000000e+00 0.000000e+00 0.000000e+00 0.000000e+00 -1.532796e-01 -1.668455e+00 0.000000e+00 -1.668455e+00 -1.932698e+00 0.000000e+00 0.000000e+00 0.000000e+00 0.000000e+00 1.254402e+00 7.616469e-01 0.000000e+00 7.616469e-01 -3.971214e+00 0.000000e+00 0.000000e+00 0.000000e+00 0.000000e+00 -1.518311e-01 2.375394e+00 0.000000e+00 2.375394e+00 -7.886246e-01 0.000000e+00 0.000000e+00 0.000000e+00 0.000000e+00 -7.742038e-01 5.899206e-01 0.000000e+00 5.899206e-01 1.824146e+00 0.000000e+00 0.000000e+00 0.000000e+00 0.000000e+00 -3.745935e-01 -8.889370e-01 0.000000e+00 -8.889370e-01 6.906781e-01 0.000000e+00 0.000000e+00 0.000000e+00 0.000000e+00 6.239123e-01 -8.217114e-01 0.000000e+00 -8.217114e-01 -4.211758e-02 0.000000e+00 0.000000e+00 0.000000e+00 0.000000e+00 6.150356e-01 4.363754e-01 0.000000e+00 4.363754e-01 -1.484593e+00 0.000000e+00 0.000000e+00 0.000000e+00 0.000000e+00 -8.142164e+00 6.802977e+00 0.000000e+00 6.802977e+00 -2.187040e+00 0.000000e+00 0.000000e+00 0.000000e+00 0.000000e+00 -3.069512e+01 1.353172e+01 0.000000e+00 1.353172e+01 -9.985481e-01 0.000000e+00 0.000000e+00 0.000000e+00 0.000000e+00 -5.833379e+01 1.374171e+01 0.000000e+00 1.374171e+01 1.516736e+00 0.000000e+00 0.000000e+00 0.000000e+00 0.000000e+00 -7.544706e+01 3.925878e+00 0.000000e+00 3.925878e+00 5.214810e+00 0.000000e+00 0.000000e+00 0.000000e+00 0.000000e+00 -5.970228e+01 -1.639245e+01 0.000000e+00 -1.639245e+01 4.820855e+00 0.000000e+00 0.000000e+00 0.000000e+00 0.000000e+00 -3.505226e+01 -2.022533e+01 0.000000e+00 -2.022533e+01 -9.773007e-01 0.000000e+00 0.000000e+00 0.000000e+00 0.000000e+00 -1.199562e+01 -1.420613e+01 0.000000e+00 -1.420613e+01 -9.317809e+00 0.000000e+00 0.000000e+00 0.000000e+00 0.000000e+00 -3.494762e+00 -1.955908e+01 0.000000e+00 -1.955908e+01 -3.113840e+01 0.000000e+00 0.000000e+00 0.000000e+00 0.000000e+00 2.371069e+00 3.545859e+00 0.000000e+00 3.545859e+00 -3.060096e+00 0.000000e+00 0.000000e+00 0.000000e+00 0.000000e+00 4.699510e+00 1.411970e+00 0.000000e+00 1.411970e+00 -2.942932e+00 0.000000e+00 0.000000e+00 0.000000e+00 0.000000e+00 5.618341e+00 -1.292273e+00 0.000000e+00 -1.292273e+00 -1.581542e+00 0.000000e+00 0.000000e+00 0.000000e+00 0.000000e+00 5.222198e+00 -3.199794e+00 0.000000e+00 -3.199794e+00 1.636446e+00 0.000000e+00 0.000000e+00 0.000000e+00 0.000000e+00 2.817396e+00 -2.680818e+00 0.000000e+00 -2.680818e+00 5.382283e+00 0.000000e+00 0.000000e+00 0.000000e+00 0.000000e+00 7.263163e-01 8.810969e-01 0.000000e+00 8.810969e-01 8.416405e+00 0.000000e+00 0.000000e+00 0.000000e+00 0.000000e+00 1.213990e+00 6.851340e+00 0.000000e+00 6.851340e+00 1.045920e+01 0.000000e+00 0.000000e+00 0.000000e+00 0.000000e+00 4.022869e+00 1.421202e+01 0.000000e+00 1.421202e+01 1.078213e+01 0.000000e+00 0.000000e+00 0.000000e+00 0.000000e+00 9.239256e+00 2.169993e+01 0.000000e+00 2.169993e+01 9.375110e+00 0.000000e+00 0.000000e+00 0.000000e+00 0.000000e+00 1.603773e+01 2.732682e+01 0.000000e+00 2.732682e+01 7.230433e+00 0.000000e+00 0.000000e+00 0.000000e+00 0.000000e+00 2.041418e+01 3.078845e+01 0.000000e+00 3.078845e+01 4.099025e+00 0.000000e+00 0.000000e+00 0.000000e+00 0.000000e+00 2.110175e+01 3.240473e+01 0.000000e+00 3.240473e+01 1.316076e+00 0.000000e+00 0.000000e+00 0.000000e+00 0.000000e+00 1.816123e+01 3.312158e+01 0.000000e+00 3.312158e+01 -1.459389e-01 0.000000e+00 0.000000e+00 0.000000e+00 0.000000e+00 1.222083e+01 3.334581e+01 0.000000e+00 3.334581e+01 -3.162544e-01 0.000000e+00 0.000000e+00 0.000000e+00 0.000000e+00 4.252356e+00 3.397982e+01 0.000000e+00 3.397982e+01 1.022266e-01 0.000000e+00 0.000000e+00 0.000000e+00 0.000000e+00 -3.518297e+00 3.523993e+01 0.000000e+00 3.523993e+01 -2.840167e-01 0.000000e+00 0.000000e+00 0.000000e+00 0.000000e+00 -8.639340e+00 3.640178e+01 0.000000e+00 3.640178e+01 -2.880668e+00 0.000000e+00 0.000000e+00 0.000000e+00 0.000000e+00 -1.029382e+01 3.599596e+01 0.000000e+00 3.599596e+01 -7.663566e+00 0.000000e+00 0.000000e+00 0.000000e+00 0.000000e+00 -8.734716e+00 3.305839e+01 0.000000e+00 3.305839e+01 -1.255034e+01 0.000000e+00 0.000000e+00 0.000000e+00 0.000000e+00 -5.709778e+00 2.765255e+01 0.000000e+00 2.765255e+01 -1.615800e+01 0.000000e+00 0.000000e+00 0.000000e+00 0.000000e+00 -2.438593e+00 2.122951e+01 0.000000e+00 2.122951e+01 -1.853434e+01 0.000000e+00 0.000000e+00 0.000000e+00 0.000000e+00 -1.632248e-01 1.381728e+01 0.000000e+00 1.381728e+01 -1.952518e+01 0.000000e+00 0.000000e+00 0.000000e+00 0.000000e+00 -5.924319e-03 6.863152e+00 0.000000e+00 6.863152e+00 -1.757895e+01 0.000000e+00 0.000000e+00 0.000000e+00 0.000000e+00 -1.656442e+00 2.026131e+00 0.000000e+00 2.026131e+00 -1.323045e+01 0.000000e+00 0.000000e+00 0.000000e+00 0.000000e+00 -3.292261e+00 6.866673e-01 0.000000e+00 6.866673e-01 -8.349148e+00 0.000000e+00 0.000000e+00 0.000000e+00 0.000000e+00 -3.646231e+00 1.793047e+00 0.000000e+00 1.793047e+00 -4.903116e+00 0.000000e+00 0.000000e+00 0.000000e+00 0.000000e+00 -2.398778e+00 3.323349e+00 0.000000e+00 3.323349e+00 -3.082707e+00 0.000000e+00 0.000000e+00 0.000000e+00 0.000000e+00 -2.427515e-01 4.171250e+00 0.000000e+00 4.171250e+00 -2.748536e+00 0.000000e+00 0.000000e+00 0.000000e+00 0.000000e+00 -8.486810e+00 -6.972313e+00 0.000000e+00 -6.972313e+00 -1.690271e+02 0.000000e+00 0.000000e+00 0.000000e+00 0.000000e+00 -1.257931e+00 -3.415650e+00 0.000000e+00 -3.415650e+00 -1.501653e+02 0.000000e+00 0.000000e+00 0.000000e+00 0.000000e+00 3.865514e+00 -2.726039e+00 0.000000e+00 -2.726039e+00 -1.334124e+02 0.000000e+00 0.000000e+00 0.000000e+00 0.000000e+00 8.369570e+00 -2.597324e+00 0.000000e+00 -2.597324e+00 -1.177138e+02 0.000000e+00 0.000000e+00 0.000000e+00 0.000000e+00 1.320102e+01 -2.901720e+00 0.000000e+00 -2.901720e+00 -1.028804e+02 0.000000e+00 0.000000e+00 0.000000e+00 0.000000e+00 1.876108e+01 -2.987253e+00 0.000000e+00 -2.987253e+00 -8.910068e+01 0.000000e+00 0.000000e+00 0.000000e+00 0.000000e+00 2.438688e+01 -3.090522e+00 0.000000e+00 -3.090522e+00 -7.624391e+01 0.000000e+00 0.000000e+00 0.000000e+00 0.000000e+00 3.078608e+01 -3.390859e+00 0.000000e+00 -3.390859e+00 -6.382018e+01 0.000000e+00 0.000000e+00 0.000000e+00 0.000000e+00 3.768573e+01 -3.696302e+00 0.000000e+00 -3.696302e+00 -5.182077e+01 0.000000e+00 0.000000e+00 0.000000e+00 0.000000e+00 4.505589e+01 -4.284685e+00 0.000000e+00 -4.284685e+00 -4.033159e+01 0.000000e+00 0.000000e+00 0.000000e+00 0.000000e+00 5.331376e+01 -4.514190e+00 0.000000e+00 -4.514190e+00 -2.878779e+01 0.000000e+00 0.000000e+00 0.000000e+00 0.000000e+00 6.199157e+01 -4.985703e+00 0.000000e+00 -4.985703e+00 -1.766858e+01 0.000000e+00 0.000000e+00 0.000000e+00 0.000000e+00 7.148683e+01 -5.483593e+00 0.000000e+00 -5.483593e+00 -6.198065e+00 0.000000e+00 0.000000e+00 0.000000e+00 0.000000e+00 8.210330e+01 -5.571115e+00 0.000000e+00 -5.571115e+00 5.901507e+00 0.000000e+00 0.000000e+00 0.000000e+00 0.000000e+00 9.307074e+01 -6.209856e+00 0.000000e+00 -6.209856e+00 1.854242e+01 0.000000e+00 0.000000e+00 0.000000e+00 0.000000e+00 1.056808e+02 -7.166711e+00 0.000000e+00 -7.166711e+00 3.298114e+01 0.000000e+00 0.000000e+00 0.000000e+00 0.000000e+00 1.194584e+02 -8.298477e+00 0.000000e+00 -8.298477e+00 4.781230e+01 0.000000e+00 0.000000e+00 0.000000e+00 0.000000e+00 1.354474e+02 -8.888883e+00 0.000000e+00 -8.888883e+00 6.473804e+01 0.000000e+00 0.000000e+00 0.000000e+00 0.000000e+00 1.534564e+02 -9.833873e+00 0.000000e+00 -9.833873e+00 8.424148e+01 0.000000e+00 0.000000e+00 0.000000e+00 0.000000e+00 1.747095e+02 -1.362394e+01 0.000000e+00 -1.362394e+01 1.077845e+02 0.000000e+00 0.000000e+00 0.000000e+00 0.000000e+00 2.024588e+02 -1.712987e+01 0.000000e+00 -1.712987e+01 1.370019e+02 0.000000e+00 0.000000e+00 0.000000e+00 0.000000e+00 2.391600e+02 -2.297883e+01 0.000000e+00 -2.297883e+01 1.779290e+02 0.000000e+00 0.000000e+00 0.000000e+00 0.000000e+00 2.822797e+02 -4.098717e+01 0.000000e+00 -4.098717e+01 2.428445e+02 0.000000e+00 0.000000e+00 0.000000e+00 0.000000e+00 3.153530e+02 -6.634048e+01 0.000000e+00 -6.634048e+01 3.793250e+02 0.000000e+00 0.000000e+00 0.000000e+00 0.000000e+00 1.037153e+02 1.893068e+01 0.000000e+00 1.893068e+01 1.755962e+00 0.000000e+00 0.000000e+00 0.000000e+00 0.000000e+00 7.262949e+01 9.542127e+00 0.000000e+00 9.542127e+00 1.150105e+00 0.000000e+00 0.000000e+00 0.000000e+00 0.000000e+00 5.428231e+01 8.466848e+00 0.000000e+00 8.466848e+00 -9.274804e-02 0.000000e+00 0.000000e+00 0.000000e+00 0.000000e+00 4.020665e+01 9.223855e+00 0.000000e+00 9.223855e+00 -8.792737e-01 0.000000e+00 0.000000e+00 0.000000e+00 0.000000e+00 3.589551e+01 1.486767e+01 0.000000e+00 1.486767e+01 5.049413e+00 0.000000e+00 0.000000e+00 0.000000e+00 0.000000e+00 2.700817e+01 1.280276e+01 0.000000e+00 1.280276e+01 1.890778e+00 0.000000e+00 0.000000e+00 0.000000e+00 0.000000e+00 4.548557e+00 8.642946e+00 0.000000e+00 8.642946e+00 2.381956e+00 0.000000e+00 0.000000e+00 0.000000e+00 0.000000e+00 -6.548131e+00 -3.097376e-01 0.000000e+00 -3.097376e-01 1.663176e+00 0.000000e+00 0.000000e+00 0.000000e+00 0.000000e+00 -2.056464e+00 -2.493336e+00 0.000000e+00 -2.493336e+00 -6.324274e-01 0.000000e+00 0.000000e+00 0.000000e+00 0.000000e+00 1.127127e+00 -9.075606e-01 0.000000e+00 -9.075606e-01 -3.726988e+00 0.000000e+00 0.000000e+00 0.000000e+00 0.000000e+00 6.336078e-01 1.997655e+00 0.000000e+00 1.997655e+00 -2.725240e+00 0.000000e+00 0.000000e+00 0.000000e+00 0.000000e+00 -8.359549e-01 1.752308e+00 0.000000e+00 1.752308e+00 7.040782e-01 0.000000e+00 0.000000e+00 0.000000e+00 0.000000e+00 -7.203981e-01 -3.252857e-01 0.000000e+00 -3.252857e-01 1.492670e+00 0.000000e+00 0.000000e+00 0.000000e+00 0.000000e+00 -4.419841e+01 1.481109e+01 0.000000e+00 1.481109e+01 -1.545534e-02 0.000000e+00 0.000000e+00 0.000000e+00 0.000000e+00 -1.919506e+00 3.294311e+00 0.000000e+00 3.294311e+00 -2.174835e+00 0.000000e+00 0.000000e+00 0.000000e+00 0.000000e+00 -1.811556e+01 1.044437e+01 0.000000e+00 1.044437e+01 -1.970538e+00 0.000000e+00 0.000000e+00 0.000000e+00 0.000000e+00 -6.941229e+01 1.037934e+01 0.000000e+00 1.037934e+01 3.128728e+00 0.000000e+00 0.000000e+00 0.000000e+00 0.000000e+00 -7.073527e+01 -7.521993e+00 0.000000e+00 -7.521993e+00 7.616756e+00 0.000000e+00 0.000000e+00 0.000000e+00 0.000000e+00 -1.347554e+00 -2.236582e+01 0.000000e+00 -2.236582e+01 -5.493243e+01 0.000000e+00 0.000000e+00 0.000000e+00 0.000000e+00 4.033946e+00 -4.998792e+00 0.000000e+00 -4.998792e+00 -1.381055e+02 0.000000e+00 0.000000e+00 0.000000e+00 0.000000e+00 7.537399e+00 -4.936132e+00 0.000000e+00 -4.936132e+00 -1.218022e+02 0.000000e+00 0.000000e+00 0.000000e+00 0.000000e+00 2.552781e+01 -6.884633e+00 0.000000e+00 -6.884633e+00 -7.256968e+01 0.000000e+00 0.000000e+00 0.000000e+00 0.000000e+00 2.009288e+01 -6.038967e+00 0.000000e+00 -6.038967e+00 -8.590718e+01 0.000000e+00 0.000000e+00 0.000000e+00 0.000000e+00 5.572628e+00 -4.983666e+00 0.000000e+00 -4.983666e+00 -1.297752e+02 0.000000e+00 0.000000e+00 0.000000e+00 0.000000e+00 2.266669e+01 -6.235350e+00 0.000000e+00 -6.235350e+00 -7.906233e+01 0.000000e+00 0.000000e+00 0.000000e+00 0.000000e+00 1.731653e+01 -6.299927e+00 0.000000e+00 -6.299927e+00 -9.229283e+01 0.000000e+00 0.000000e+00 0.000000e+00 0.000000e+00 5.459055e+01 -9.006231e+00 0.000000e+00 -9.006231e+00 -2.589078e+01 0.000000e+00 0.000000e+00 0.000000e+00 0.000000e+00 4.647062e+01 -8.903659e+00 0.000000e+00 -8.903659e+00 -3.740567e+01 0.000000e+00 0.000000e+00 0.000000e+00 0.000000e+00 2.214262e+02 -4.384391e+01 0.000000e+00 -4.384391e+01 1.934740e+02 0.000000e+00 0.000000e+00 0.000000e+00 0.000000e+00 5.079518e+01 -8.953784e+00 0.000000e+00 -8.953784e+00 -3.166224e+01 0.000000e+00 0.000000e+00 0.000000e+00 0.000000e+00 4.244125e+01 -8.619216e+00 0.000000e+00 -8.619216e+00 -4.323191e+01 0.000000e+00 0.000000e+00 0.000000e+00 0.000000e+00 7.293186e+01 -1.126434e+01 0.000000e+00 -1.126434e+01 -2.891287e+00 0.000000e+00 0.000000e+00 0.000000e+00 0.000000e+00 8.379468e+01 -1.149096e+01 0.000000e+00 -1.149096e+01 9.288037e+00 0.000000e+00 0.000000e+00 0.000000e+00 0.000000e+00 7.807349e+01 -1.148530e+01 0.000000e+00 -1.148530e+01 3.032175e+00 0.000000e+00 0.000000e+00 0.000000e+00 0.000000e+00 6.770096e+01 -1.092883e+01 0.000000e+00 -1.092883e+01 -8.989546e+00 0.000000e+00 0.000000e+00 0.000000e+00 0.000000e+00 1.006785e+02 -1.424417e+01 0.000000e+00 -1.424417e+01 2.968661e+01 0.000000e+00 0.000000e+00 0.000000e+00 0.000000e+00 1.373066e+02 -1.812262e+01 0.000000e+00 -1.812262e+01 7.164650e+01 0.000000e+00 0.000000e+00 0.000000e+00 0.000000e+00 1.139659e+02 -1.580470e+01 0.000000e+00 -1.580470e+01 4.537327e+01 0.000000e+00 0.000000e+00 0.000000e+00 0.000000e+00 1.282443e+02 -1.777502e+01 0.000000e+00 -1.777502e+01 6.252204e+01 0.000000e+00 0.000000e+00 0.000000e+00 0.000000e+00 1.969505e+02 -3.376214e+01 0.000000e+00 -3.376214e+01 1.512913e+02 0.000000e+00 0.000000e+00 0.000000e+00 0.000000e+00 1.718853e+02 -2.759951e+01 0.000000e+00 -2.759951e+01 1.171964e+02 0.000000e+00 0.000000e+00 0.000000e+00 0.000000e+00 1.204087e+02 -1.701230e+01 0.000000e+00 -1.701230e+01 5.354388e+01 0.000000e+00 0.000000e+00 0.000000e+00 0.000000e+00 1.830195e+02 -3.109837e+01 0.000000e+00 -3.109837e+01 1.332547e+02 0.000000e+00 0.000000e+00 0.000000e+00 0.000000e+00 1.612497e+02 -2.412077e+01 0.000000e+00 -2.412077e+01 1.023112e+02 0.000000e+00 0.000000e+00 0.000000e+00 0.000000e+00 2.160859e+02 -3.589832e+01 0.000000e+00 -3.589832e+01 1.692549e+02 0.000000e+00 0.000000e+00 0.000000e+00 0.000000e+00 6.957468e+01 1.957938e+01 0.000000e+00 1.957938e+01 3.463860e+00 0.000000e+00 0.000000e+00 0.000000e+00 0.000000e+00 1.973163e+02 -2.235811e+01 0.000000e+00 -2.235811e+01 4.025951e+02 0.000000e+00 0.000000e+00 0.000000e+00 0.000000e+00 5.183667e+01 1.532222e+01 0.000000e+00 1.532222e+01 -3.278299e-02 0.000000e+00 0.000000e+00 0.000000e+00 0.000000e+00 8.284535e+01 2.521764e+01 0.000000e+00 2.521764e+01 8.290226e+00 0.000000e+00 0.000000e+00 0.000000e+00 0.000000e+00 1.003602e+02 3.868870e+01 0.000000e+00 3.868870e+01 1.891369e+01 0.000000e+00 0.000000e+00 0.000000e+00 0.000000e+00 2.257068e+02 -5.694425e+01 0.000000e+00 -5.694425e+01 3.346278e+02 0.000000e+00 0.000000e+00 0.000000e+00 0.000000e+00 5.958513e+01 1.684547e+01 0.000000e+00 1.684547e+01 1.300730e+00 0.000000e+00 0.000000e+00 0.000000e+00 0.000000e+00 1.599405e+02 6.074126e+01 0.000000e+00 6.074126e+01 1.602188e+01 0.000000e+00 0.000000e+00 0.000000e+00 0.000000e+00 2.211402e+01 2.007646e+01 0.000000e+00 2.007646e+01 3.478513e+00 0.000000e+00 0.000000e+00 0.000000e+00 0.000000e+00 4.155793e+01 1.343744e+01 0.000000e+00 1.343744e+01 -5.785786e-01 0.000000e+00 0.000000e+00 0.000000e+00 0.000000e+00 2.933191e+01 1.852131e+01 0.000000e+00 1.852131e+01 4.523947e+00 0.000000e+00 0.000000e+00 0.000000e+00 0.000000e+00 -1.277734e+00 -1.204266e-01 0.000000e+00 -1.204266e-01 -2.346587e+00 0.000000e+00 0.000000e+00 0.000000e+00 0.000000e+00 1.399734e+01 1.937014e+01 0.000000e+00 1.937014e+01 4.762701e+00 0.000000e+00 0.000000e+00 0.000000e+00 0.000000e+00 -1.831981e+00 1.348727e+00 0.000000e+00 1.348727e+00 -8.291826e-01 0.000000e+00 0.000000e+00 0.000000e+00 0.000000e+00 2.163924e+00 2.088438e+00 0.000000e+00 2.088438e+00 -3.178059e+00 0.000000e+00 0.000000e+00 0.000000e+00 0.000000e+00 -1.087983e+00 -1.877056e+00 0.000000e+00 -1.877056e+00 2.972154e+00 0.000000e+00 0.000000e+00 0.000000e+00 0.000000e+00 -3.851010e-03 -3.342921e+00 0.000000e+00 -3.342921e+00 -1.694999e-02 0.000000e+00 0.000000e+00 0.000000e+00 0.000000e+00 2.528132e-01 -6.425766e+00 0.000000e+00 -6.425766e+00 -1.558423e+02 0.000000e+00 0.000000e+00 0.000000e+00 0.000000e+00 1.272403e+00 -2.493124e+00 0.000000e+00 -2.493124e+00 -1.909701e+00 0.000000e+00 0.000000e+00 0.000000e+00 0.000000e+00 3.014842e+00 -4.870259e-01 0.000000e+00 -4.870259e-01 -2.904033e+00 0.000000e+00 0.000000e+00 0.000000e+00 0.000000e+00 -2.031330e+01 1.994670e+01 0.000000e+00 1.994670e+01 -3.038997e+00 0.000000e+00 0.000000e+00 0.000000e+00 0.000000e+00 -1.705572e+00 3.545874e-01 0.000000e+00 3.545874e-01 -1.556943e+00 0.000000e+00 0.000000e+00 0.000000e+00 0.000000e+00 -1.197099e+01 1.480876e+01 0.000000e+00 1.480876e+01 -4.354835e+00 0.000000e+00 0.000000e+00 0.000000e+00 0.000000e+00 -2.859826e+01 2.429026e+01 0.000000e+00 2.429026e+01 -7.328479e-01 0.000000e+00 0.000000e+00 0.000000e+00 0.000000e+00 -6.589694e-01 8.312939e-02 0.000000e+00 8.312939e-02 -2.104034e+00 0.000000e+00 0.000000e+00 0.000000e+00 0.000000e+00 -4.546013e+01 2.040056e+01 0.000000e+00 2.040056e+01 5.712635e+00 0.000000e+00 0.000000e+00 0.000000e+00 0.000000e+00 -4.722875e+01 -2.251680e+01 0.000000e+00 -2.251680e+01 1.593218e+01 0.000000e+00 0.000000e+00 0.000000e+00 0.000000e+00 -5.544297e+00 9.074545e+00 0.000000e+00 9.074545e+00 -4.884507e+00 0.000000e+00 0.000000e+00 0.000000e+00 0.000000e+00 -3.792860e+01 2.382541e+01 0.000000e+00 2.382541e+01 2.359244e+00 0.000000e+00 0.000000e+00 0.000000e+00 0.000000e+00 -3.611775e+01 -3.183295e+01 0.000000e+00 -3.183295e+01 6.674181e+00 0.000000e+00 0.000000e+00 0.000000e+00 0.000000e+00 -6.172190e+00 -3.537112e+01 0.000000e+00 -3.537112e+01 -3.304375e+01 0.000000e+00 0.000000e+00 0.000000e+00 0.000000e+00 -2.222567e+01 -3.321974e+01 0.000000e+00 -3.321974e+01 -5.691727e+00 0.000000e+00 0.000000e+00 0.000000e+00 0.000000e+00 2.169502e+00 -5.344472e+00 0.000000e+00 -5.344472e+00 -1.466708e+02 0.000000e+00 0.000000e+00 0.000000e+00 0.000000e+00 1.073634e+02 -1.476204e+01 0.000000e+00 -1.476204e+01 3.724721e+01 0.000000e+00 0.000000e+00 0.000000e+00 0.000000e+00 2.103384e+02 1.143504e+02 0.000000e+00 1.143504e+02 3.901383e+02 0.000000e+00 0.000000e+00 0.000000e+00 0.000000e+00 -1.935255e+00 3.717365e+00 0.000000e+00 3.717365e+00 -4.600028e+00 0.000000e+00 0.000000e+00 0.000000e+00 0.000000e+00 1.307758e+00 -1.710302e+01 0.000000e+00 -1.710302e+01 -8.402720e+01 0.000000e+00 0.000000e+00 0.000000e+00 0.000000e+00 3.201431e+01 -7.011695e+00 0.000000e+00 -7.011695e+00 -6.068019e+01 0.000000e+00 0.000000e+00 0.000000e+00 0.000000e+00 3.512164e+00 -2.809112e+00 0.000000e+00 -2.809112e+00 -9.425678e-01 0.000000e+00 0.000000e+00 0.000000e+00 0.000000e+00 2.409634e+00 -3.528131e+00 0.000000e+00 -3.528131e+00 1.873467e+00 0.000000e+00 0.000000e+00 0.000000e+00 0.000000e+00 -1.511486e+00 2.278055e+00 0.000000e+00 2.278055e+00 4.864343e+00 0.000000e+00 0.000000e+00 0.000000e+00 0.000000e+00 6.894488e+00 1.475938e+01 0.000000e+00 1.475938e+01 6.442238e+00 0.000000e+00 0.000000e+00 0.000000e+00 0.000000e+00 2.071666e+01 2.615447e+01 0.000000e+00 2.615447e+01 4.376224e+00 0.000000e+00 0.000000e+00 0.000000e+00 0.000000e+00 2.296989e+01 3.145658e+01 0.000000e+00 3.145658e+01 9.282859e-01 0.000000e+00 0.000000e+00 0.000000e+00 0.000000e+00 8.946626e+00 3.394550e+01 0.000000e+00 3.394550e+01 1.562391e+00 0.000000e+00 0.000000e+00 0.000000e+00 0.000000e+00 -8.470253e+00 3.546675e+01 0.000000e+00 3.546675e+01 8.138951e-01 0.000000e+00 0.000000e+00 0.000000e+00 0.000000e+00 -1.304089e+01 3.486392e+01 0.000000e+00 3.486392e+01 -2.312726e+00 0.000000e+00 0.000000e+00 0.000000e+00 0.000000e+00 -1.383162e+01 3.235666e+01 0.000000e+00 3.235666e+01 -6.504385e+00 0.000000e+00 0.000000e+00 0.000000e+00 0.000000e+00 -1.110466e+01 2.807277e+01 0.000000e+00 2.807277e+01 -1.000833e+01 0.000000e+00 0.000000e+00 0.000000e+00 0.000000e+00 -3.506288e+00 1.558315e+01 0.000000e+00 1.558315e+01 -1.403031e+01 0.000000e+00 0.000000e+00 0.000000e+00 0.000000e+00 -1.267355e+00 9.127672e+00 0.000000e+00 9.127672e+00 -1.378465e+01 0.000000e+00 0.000000e+00 0.000000e+00 0.000000e+00 -1.394710e+00 3.552669e+00 0.000000e+00 3.552669e+00 -1.100896e+01 0.000000e+00 0.000000e+00 0.000000e+00 0.000000e+00 -2.871202e+00 1.089918e+00 0.000000e+00 1.089918e+00 -4.021450e+00 0.000000e+00 0.000000e+00 0.000000e+00 0.000000e+00 -2.238090e+00 2.322277e+00 0.000000e+00 2.322277e+00 -2.107480e+00 0.000000e+00 0.000000e+00 0.000000e+00 0.000000e+00 2.114564e+02 1.192905e+02 0.000000e+00 1.192905e+02 1.522625e+02 0.000000e+00 0.000000e+00 0.000000e+00 0.000000e+00 1.156867e+02 6.459130e+01 0.000000e+00 6.459130e+01 5.205529e+01 0.000000e+00 0.000000e+00 0.000000e+00 0.000000e+00 1.659101e+00 -3.146204e+01 0.000000e+00 -3.146204e+01 -6.611897e+01 0.000000e+00 0.000000e+00 0.000000e+00 0.000000e+00 1.397924e+02 9.884369e+01 0.000000e+00 9.884369e+01 1.147744e+02 0.000000e+00 0.000000e+00 0.000000e+00 0.000000e+00 -4.237444e-01 -9.960147e+00 0.000000e+00 -9.960147e+00 -1.779120e+02 0.000000e+00 0.000000e+00 0.000000e+00 0.000000e+00 1.176749e+01 -5.823169e+00 0.000000e+00 -5.823169e+00 -1.062458e+02 0.000000e+00 0.000000e+00 0.000000e+00 0.000000e+00 5.890418e+01 -9.725508e+00 0.000000e+00 -9.725508e+00 -2.024593e+01 0.000000e+00 0.000000e+00 0.000000e+00 0.000000e+00 2.918238e+01 -7.147915e+00 0.000000e+00 -7.147915e+00 -6.684067e+01 0.000000e+00 0.000000e+00 0.000000e+00 0.000000e+00 8.842946e+01 -1.235236e+01 0.000000e+00 -1.235236e+01 1.573478e+01 0.000000e+00 0.000000e+00 0.000000e+00 0.000000e+00 1.462355e+02 -1.724808e+01 0.000000e+00 -1.724808e+01 7.976019e+01 0.000000e+00 0.000000e+00 0.000000e+00 0.000000e+00 1.589487e+02 5.645735e+01 0.000000e+00 5.645735e+01 3.940757e+02 0.000000e+00 0.000000e+00 0.000000e+00 0.000000e+00 4.582314e+01 1.438321e+01 0.000000e+00 1.438321e+01 -9.213193e-01 0.000000e+00 0.000000e+00 0.000000e+00 0.000000e+00 2.307768e+02 -5.258816e+01 0.000000e+00 -5.258816e+01 2.280654e+02 0.000000e+00 0.000000e+00 0.000000e+00 0.000000e+00 -5.071235e+01 1.374722e+01 0.000000e+00 1.374722e+01 1.022039e+01 0.000000e+00 0.000000e+00 0.000000e+00 0.000000e+00 3.836294e+01 1.600022e+01 0.000000e+00 1.600022e+01 1.733191e+00 0.000000e+00 0.000000e+00 0.000000e+00 0.000000e+00 -2.342991e+00 -1.955682e+01 0.000000e+00 -1.955682e+01 -9.209288e+01 0.000000e+00 0.000000e+00 0.000000e+00 0.000000e+00 -1.661868e+00 -3.721178e+01 0.000000e+00 -3.721178e+01 -4.589285e+01 0.000000e+00 0.000000e+00 0.000000e+00 0.000000e+00 9.477929e+00 -5.258594e+00 0.000000e+00 -5.258594e+00 -1.136406e+02 0.000000e+00 0.000000e+00 0.000000e+00 0.000000e+00 -4.808107e+01 -1.037572e+01 0.000000e+00 -1.037572e+01 1.965854e+01 0.000000e+00 0.000000e+00 0.000000e+00 0.000000e+00 1.483156e+02 1.060258e+02 0.000000e+00 1.060258e+02 2.368885e+02 0.000000e+00 0.000000e+00 0.000000e+00 0.000000e+00 -1.165672e+01 -3.113226e+01 0.000000e+00 -3.113226e+01 -1.750513e+01 0.000000e+00 0.000000e+00 0.000000e+00 0.000000e+00 5.461148e-01 3.467297e+00 0.000000e+00 3.467297e+00 -2.369207e+00 0.000000e+00 0.000000e+00 0.000000e+00 0.000000e+00 3.575367e+01 -7.283677e+00 0.000000e+00 -7.283677e+00 -5.467064e+01 0.000000e+00 0.000000e+00 0.000000e+00 0.000000e+00 -1.025553e+00 3.359303e+00 0.000000e+00 3.359303e+00 -1.543491e+00 0.000000e+00 0.000000e+00 0.000000e+00 0.000000e+00 -2.127102e+00 8.959186e-01 0.000000e+00 8.959186e-01 -6.494532e+00 0.000000e+00 0.000000e+00 0.000000e+00 0.000000e+00 -7.024569e+00 2.219564e+01 0.000000e+00 2.219564e+01 -1.244524e+01 0.000000e+00 0.000000e+00 0.000000e+00 0.000000e+00 -1.832108e+01 2.725413e+01 0.000000e+00 2.725413e+01 -4.539536e+00 0.000000e+00 0.000000e+00 0.000000e+00 0.000000e+00 -5.583146e-01 3.483666e+01 0.000000e+00 3.483666e+01 1.934109e+00 0.000000e+00 0.000000e+00 0.000000e+00 0.000000e+00 1.759345e+01 3.296588e+01 0.000000e+00 3.296588e+01 8.460232e-01 0.000000e+00 0.000000e+00 0.000000e+00 0.000000e+00 2.433724e+01 2.882908e+01 0.000000e+00 2.882908e+01 2.306024e+00 0.000000e+00 0.000000e+00 0.000000e+00 0.000000e+00 1.393640e+00 8.442828e+00 0.000000e+00 8.442828e+00 6.160146e+00 0.000000e+00 0.000000e+00 0.000000e+00 0.000000e+00 -9.348022e-01 -8.180834e+00 0.000000e+00 -8.180834e+00 -1.662428e+02 0.000000e+00 0.000000e+00 0.000000e+00 0.000000e+00 1.444735e+01 -6.152569e+00 0.000000e+00 -6.152569e+00 -9.899129e+01 0.000000e+00 0.000000e+00 0.000000e+00 0.000000e+00 3.881443e+01 -7.990148e+00 0.000000e+00 -7.990148e+00 -4.881760e+01 0.000000e+00 0.000000e+00 0.000000e+00 0.000000e+00 6.315888e+01 -1.036056e+01 0.000000e+00 -1.036056e+01 -1.481090e+01 0.000000e+00 0.000000e+00 0.000000e+00 0.000000e+00 9.412949e+01 -1.347223e+01 0.000000e+00 -1.347223e+01 2.257768e+01 0.000000e+00 0.000000e+00 0.000000e+00 0.000000e+00 1.525734e+02 -2.084971e+01 0.000000e+00 -2.084971e+01 8.963345e+01 0.000000e+00 0.000000e+00 0.000000e+00 0.000000e+00 2.341454e+02 -5.967758e+01 0.000000e+00 -5.967758e+01 2.752709e+02 0.000000e+00 0.000000e+00 0.000000e+00 0.000000e+00 -5.306822e+01 2.959601e+00 0.000000e+00 2.959601e+00 1.567777e+01 0.000000e+00 0.000000e+00 0.000000e+00 0.000000e+00 1.298593e+00 -2.479400e+01 0.000000e+00 -2.479400e+01 -9.370507e+01 0.000000e+00 0.000000e+00 0.000000e+00 0.000000e+00 2.228981e+00 -3.372602e+01 0.000000e+00 -3.372602e+01 -7.180299e+01 0.000000e+00 0.000000e+00 0.000000e+00 0.000000e+00 -6.180471e-01 -1.006217e+01 0.000000e+00 -1.006217e+01 -1.216580e+02 0.000000e+00 0.000000e+00 0.000000e+00 0.000000e+00 5.646860e+00 -3.168889e+01 0.000000e+00 -3.168889e+01 -8.269088e+01 0.000000e+00 0.000000e+00 0.000000e+00 0.000000e+00 4.053119e+00 -2.145218e+01 0.000000e+00 -2.145218e+01 -1.082527e+02 0.000000e+00 0.000000e+00 0.000000e+00 0.000000e+00 5.614942e+00 -6.661545e+00 0.000000e+00 -6.661545e+00 -1.349640e+02 0.000000e+00 0.000000e+00 0.000000e+00 0.000000e+00 4.312545e+01 -1.374012e+01 0.000000e+00 -1.374012e+01 -4.005588e+01 0.000000e+00 0.000000e+00 0.000000e+00 0.000000e+00 1.532681e+02 -3.574148e+01 0.000000e+00 -3.574148e+01 1.109172e+02 0.000000e+00 0.000000e+00 0.000000e+00 0.000000e+00 6.825069e+01 -1.732953e+01 0.000000e+00 -1.732953e+01 -5.319469e+00 0.000000e+00 0.000000e+00 0.000000e+00 0.000000e+00 -3.361291e+01 1.419046e+01 0.000000e+00 1.419046e+01 2.310913e+01 0.000000e+00 0.000000e+00 0.000000e+00 0.000000e+00 1.291683e+02 -2.802574e+01 0.000000e+00 -2.802574e+01 7.187042e+01 0.000000e+00 0.000000e+00 0.000000e+00 0.000000e+00 5.973206e+01 2.733306e+01 0.000000e+00 2.733306e+01 6.489342e+00 0.000000e+00 0.000000e+00 0.000000e+00 0.000000e+00 2.687505e+01 -1.179868e+01 0.000000e+00 -1.179868e+01 -6.857353e+01 0.000000e+00 0.000000e+00 0.000000e+00 0.000000e+00 6.888565e+01 3.305195e+01 0.000000e+00 3.305195e+01 1.293446e+01 0.000000e+00 0.000000e+00 0.000000e+00 0.000000e+00 3.261821e+01 1.990910e+01 0.000000e+00 1.990910e+01 3.282451e+00 0.000000e+00 0.000000e+00 0.000000e+00 0.000000e+00 4.684654e+01 2.043103e+01 0.000000e+00 2.043103e+01 2.707775e-01 0.000000e+00 0.000000e+00 0.000000e+00 0.000000e+00 1.228254e+02 4.439578e+01 0.000000e+00 4.439578e+01 3.333791e+02 0.000000e+00 0.000000e+00 0.000000e+00 0.000000e+00 4.237518e+01 1.813752e+01 0.000000e+00 1.813752e+01 -1.314735e-01 0.000000e+00 0.000000e+00 0.000000e+00 0.000000e+00 8.049148e+01 4.197421e+01 0.000000e+00 4.197421e+01 2.385730e+01 0.000000e+00 0.000000e+00 0.000000e+00 0.000000e+00 1.449561e+02 -1.805360e+01 0.000000e+00 -1.805360e+01 3.328550e+02 0.000000e+00 0.000000e+00 0.000000e+00 0.000000e+00 5.307882e+01 2.327337e+01 0.000000e+00 2.327337e+01 2.655254e+00 0.000000e+00 0.000000e+00 0.000000e+00 0.000000e+00 1.039454e+02 8.487018e+01 0.000000e+00 8.487018e+01 1.921409e+02 0.000000e+00 0.000000e+00 0.000000e+00 0.000000e+00 -3.536322e+01 -1.906010e+01 0.000000e+00 -1.906010e+01 3.089474e+01 0.000000e+00 0.000000e+00 0.000000e+00 0.000000e+00 -1.253645e+01 2.206525e+01 0.000000e+00 2.206525e+01 -6.888538e+00 0.000000e+00 0.000000e+00 0.000000e+00 0.000000e+00 -3.019894e+01 2.366168e+01 0.000000e+00 2.366168e+01 1.391575e+01 0.000000e+00 0.000000e+00 0.000000e+00 0.000000e+00 1.224856e+00 -4.289193e+01 0.000000e+00 -4.289193e+01 -4.546122e+01 0.000000e+00 0.000000e+00 0.000000e+00 0.000000e+00 1.027966e+01 -8.103840e+00 0.000000e+00 -8.103840e+00 -1.103816e+02 0.000000e+00 0.000000e+00 0.000000e+00 0.000000e+00 1.818423e+01 -9.461447e+00 0.000000e+00 -9.461447e+00 -8.832414e+01 0.000000e+00 0.000000e+00 0.000000e+00 0.000000e+00 -2.275718e+01 -4.207841e+01 0.000000e+00 -4.207841e+01 3.727760e+00 0.000000e+00 0.000000e+00 0.000000e+00 0.000000e+00 2.629209e+01 2.409114e+01 0.000000e+00 2.409114e+01 3.661419e+00 0.000000e+00 0.000000e+00 0.000000e+00 0.000000e+00 8.842061e+01 5.638313e+01 0.000000e+00 5.638313e+01 5.105964e+01 0.000000e+00 0.000000e+00 0.000000e+00 0.000000e+00 -7.299337e+00 1.599425e+01 0.000000e+00 1.599425e+01 -8.624549e+00 0.000000e+00 0.000000e+00 0.000000e+00 0.000000e+00 -7.112066e+00 3.499059e+01 0.000000e+00 3.499059e+01 3.913591e+00 0.000000e+00 0.000000e+00 0.000000e+00 0.000000e+00 1.485308e+01 3.375691e+01 0.000000e+00 3.375691e+01 3.201224e+00 0.000000e+00 0.000000e+00 0.000000e+00 0.000000e+00 -5.880114e+00 -4.452245e+01 0.000000e+00 -4.452245e+01 -2.708789e+01 0.000000e+00 0.000000e+00 0.000000e+00 0.000000e+00 -1.307621e+01 -4.171093e+01 0.000000e+00 -4.171093e+01 -1.300520e+01 0.000000e+00 0.000000e+00 0.000000e+00 0.000000e+00 2.682773e+01 2.895166e+01 0.000000e+00 2.895166e+01 1.135234e+00 0.000000e+00 0.000000e+00 0.000000e+00 0.000000e+00 2.457123e+01 3.158564e+01 0.000000e+00 3.158564e+01 2.010319e+00 0.000000e+00 0.000000e+00 0.000000e+00 0.000000e+00 3.502276e+00 3.484588e+01 0.000000e+00 3.484588e+01 4.041685e+00 0.000000e+00 0.000000e+00 0.000000e+00 0.000000e+00 -1.534728e+01 3.415503e+01 0.000000e+00 3.415503e+01 1.797327e+00 0.000000e+00 0.000000e+00 0.000000e+00 0.000000e+00 -1.925457e+01 3.116684e+01 0.000000e+00 3.116684e+01 -1.644835e+00 0.000000e+00 0.000000e+00 0.000000e+00 0.000000e+00 -3.560336e+00 9.889089e+00 0.000000e+00 9.889089e+00 -9.524231e+00 0.000000e+00 0.000000e+00 0.000000e+00 0.000000e+00 -1.718032e+00 5.293066e+00 0.000000e+00 5.293066e+00 -9.024823e+00 0.000000e+00 0.000000e+00 0.000000e+00 0.000000e+00 7.696671e+00 -2.735106e+01 0.000000e+00 -2.735106e+01 -9.590472e+01 0.000000e+00 0.000000e+00 0.000000e+00 0.000000e+00 6.387675e+00 -4.084142e+01 0.000000e+00 -4.084142e+01 -5.871664e+01 0.000000e+00 0.000000e+00 0.000000e+00 0.000000e+00 -2.977162e+01 -3.469603e+01 0.000000e+00 -3.469603e+01 2.179949e+01 0.000000e+00 0.000000e+00 0.000000e+00 0.000000e+00 6.700690e+00 -6.989125e+00 0.000000e+00 -6.989125e+00 -1.246845e+02 0.000000e+00 0.000000e+00 0.000000e+00 0.000000e+00 9.373455e+01 -2.115373e+01 0.000000e+00 -2.115373e+01 2.673817e+01 0.000000e+00 0.000000e+00 0.000000e+00 0.000000e+00 3.938310e+01 -1.274552e+01 0.000000e+00 -1.274552e+01 -4.656043e+01 0.000000e+00 0.000000e+00 0.000000e+00 0.000000e+00 2.385734e+01 -1.004009e+01 0.000000e+00 -1.004009e+01 -7.602038e+01 0.000000e+00 0.000000e+00 0.000000e+00 0.000000e+00 5.540320e+01 -1.413578e+01 0.000000e+00 -1.413578e+01 -2.345261e+01 0.000000e+00 0.000000e+00 0.000000e+00 0.000000e+00 1.193043e+02 -2.722880e+01 0.000000e+00 -2.722880e+01 6.185017e+01 0.000000e+00 0.000000e+00 0.000000e+00 0.000000e+00 1.447728e+02 -3.192613e+01 0.000000e+00 -3.192613e+01 9.505716e+01 0.000000e+00 0.000000e+00 0.000000e+00 0.000000e+00 1.724598e+02 -4.913814e+01 0.000000e+00 -4.913814e+01 2.931511e+02 0.000000e+00 0.000000e+00 0.000000e+00 0.000000e+00 1.703260e+02 -4.499260e+01 0.000000e+00 -4.499260e+01 1.494556e+02 0.000000e+00 0.000000e+00 0.000000e+00 0.000000e+00 7.841526e+01 -1.751694e+01 0.000000e+00 -1.751694e+01 7.408992e+00 0.000000e+00 0.000000e+00 0.000000e+00 0.000000e+00 1.134781e+02 -2.479822e+01 0.000000e+00 -2.479822e+01 5.208589e+01 0.000000e+00 0.000000e+00 0.000000e+00 0.000000e+00 5.147320e+01 -1.343263e+01 0.000000e+00 -1.343263e+01 -2.850330e+01 0.000000e+00 0.000000e+00 0.000000e+00 0.000000e+00 1.863956e+02 -4.786331e+01 0.000000e+00 -4.786331e+01 1.744745e+02 0.000000e+00 0.000000e+00 0.000000e+00 0.000000e+00 8.612976e+00 -7.330359e+00 0.000000e+00 -7.330359e+00 -1.176554e+02 0.000000e+00 0.000000e+00 0.000000e+00 0.000000e+00 9.557069e+01 7.953039e+01 0.000000e+00 7.953039e+01 1.231747e+02 0.000000e+00 0.000000e+00 0.000000e+00 0.000000e+00 1.616070e+02 -4.090816e+01 0.000000e+00 -4.090816e+01 1.298880e+02 0.000000e+00 0.000000e+00 0.000000e+00 0.000000e+00 -2.801697e+01 2.851266e+01 0.000000e+00 2.851266e+01 6.887639e+00 0.000000e+00 0.000000e+00 0.000000e+00 0.000000e+00 1.272077e+01 -9.478393e+00 0.000000e+00 -9.478393e+00 -1.017460e+02 0.000000e+00 0.000000e+00 0.000000e+00 0.000000e+00 1.074533e+02 -2.274027e+01 0.000000e+00 -2.274027e+01 4.273173e+01 0.000000e+00 0.000000e+00 0.000000e+00 0.000000e+00 -1.608526e+00 1.609599e+00 0.000000e+00 1.609599e+00 -5.960287e+00 0.000000e+00 0.000000e+00 0.000000e+00 0.000000e+00 1.403405e+02 -2.660378e+01 0.000000e+00 -2.660378e+01 8.196190e+01 0.000000e+00 0.000000e+00 0.000000e+00 0.000000e+00 3.000084e+01 2.514749e+01 0.000000e+00 2.514749e+01 2.091502e+00 0.000000e+00 0.000000e+00 0.000000e+00 0.000000e+00 6.325294e+01 -1.658825e+01 0.000000e+00 -1.658825e+01 -1.160034e+01 0.000000e+00 0.000000e+00 0.000000e+00 0.000000e+00 1.002928e+02 -2.198719e+01 0.000000e+00 -2.198719e+01 3.451084e+01 0.000000e+00 0.000000e+00 0.000000e+00 0.000000e+00 -1.568167e+01 3.323173e+01 0.000000e+00 3.323173e+01 5.784849e+00 0.000000e+00 0.000000e+00 0.000000e+00 0.000000e+00 2.105883e+01 -8.710155e+00 0.000000e+00 -8.710155e+00 -8.232391e+01 0.000000e+00 0.000000e+00 0.000000e+00 0.000000e+00 4.982979e+00 -6.114497e+00 0.000000e+00 -6.114497e+00 -1.442466e+02 0.000000e+00 0.000000e+00 0.000000e+00 0.000000e+00 3.343258e+01 -1.094398e+01 0.000000e+00 -1.094398e+01 -5.713821e+01 0.000000e+00 0.000000e+00 0.000000e+00 0.000000e+00 1.586075e+01 -1.000211e+01 0.000000e+00 -1.000211e+01 -9.497820e+01 0.000000e+00 0.000000e+00 0.000000e+00 0.000000e+00 -3.600898e+01 -9.144796e-01 0.000000e+00 -9.144796e-01 3.043547e+01 0.000000e+00 0.000000e+00 0.000000e+00 0.000000e+00 8.437080e+01 -1.754959e+01 0.000000e+00 -1.754959e+01 1.293849e+01 0.000000e+00 0.000000e+00 0.000000e+00 0.000000e+00 1.897007e+02 -5.473381e+01 0.000000e+00 -5.473381e+01 2.108739e+02 0.000000e+00 0.000000e+00 0.000000e+00 0.000000e+00 7.549380e+01 6.338468e+01 0.000000e+00 6.338468e+01 9.067128e+01 0.000000e+00 0.000000e+00 0.000000e+00 0.000000e+00 5.682550e+00 -7.316115e+00 0.000000e+00 -7.316115e+00 -1.713666e+02 0.000000e+00 0.000000e+00 0.000000e+00 0.000000e+00 2.993991e+01 -1.030184e+01 0.000000e+00 -1.030184e+01 -6.292036e+01 0.000000e+00 0.000000e+00 0.000000e+00 0.000000e+00 3.913430e+00 -6.667544e+00 0.000000e+00 -6.667544e+00 -1.537644e+02 0.000000e+00 0.000000e+00 0.000000e+00 0.000000e+00 5.346743e+00 -2.095218e+01 0.000000e+00 -2.095218e+01 -1.190213e+02 0.000000e+00 0.000000e+00 0.000000e+00 0.000000e+00 3.843255e+00 -7.334497e+00 0.000000e+00 -7.334497e+00 -1.607638e+02 0.000000e+00 0.000000e+00 0.000000e+00 0.000000e+00 7.381316e+01 -1.760815e+01 0.000000e+00 -1.760815e+01 1.084254e+00 0.000000e+00 0.000000e+00 0.000000e+00 0.000000e+00 4.788261e+01 -1.407906e+01 0.000000e+00 -1.407906e+01 -3.365224e+01 0.000000e+00 0.000000e+00 0.000000e+00 0.000000e+00 -2.519317e+01 3.025975e+01 0.000000e+00 3.025975e+01 2.188376e+00 0.000000e+00 0.000000e+00 0.000000e+00 0.000000e+00 7.455915e+00 -1.677254e+01 0.000000e+00 -1.677254e+01 -1.299314e+02 0.000000e+00 0.000000e+00 0.000000e+00 0.000000e+00 9.852760e+00 -3.572750e+01 0.000000e+00 -3.572750e+01 -7.191030e+01 0.000000e+00 0.000000e+00 0.000000e+00 0.000000e+00 -3.245903e+00 -1.139799e+01 0.000000e+00 -1.139799e+01 -1.438318e+02 0.000000e+00 0.000000e+00 0.000000e+00 0.000000e+00 2.737885e+00 -1.534956e+01 0.000000e+00 -1.534956e+01 -1.265414e+02 0.000000e+00 0.000000e+00 0.000000e+00 0.000000e+00 1.483766e+00 -8.004046e+00 0.000000e+00 -8.004046e+00 -1.424387e+02 0.000000e+00 0.000000e+00 0.000000e+00 0.000000e+00 4.670385e+00 -1.109019e+01 0.000000e+00 -1.109019e+01 -1.324666e+02 0.000000e+00 0.000000e+00 0.000000e+00 0.000000e+00 1.984696e+00 -4.086492e+00 0.000000e+00 -4.086492e+00 -1.532239e+02 0.000000e+00 0.000000e+00 0.000000e+00 0.000000e+00 7.033243e+00 -1.661603e+01 0.000000e+00 -1.661603e+01 -1.152270e+02 0.000000e+00 0.000000e+00 0.000000e+00 0.000000e+00 4.843909e+00 -7.698549e+00 0.000000e+00 -7.698549e+00 -1.393873e+02 0.000000e+00 0.000000e+00 0.000000e+00 0.000000e+00 -3.563177e+00 1.951543e+00 0.000000e+00 1.951543e+00 -1.691704e+02 0.000000e+00 0.000000e+00 0.000000e+00 0.000000e+00 7.439916e+00 -3.854935e+00 0.000000e+00 -3.854935e+00 -1.729619e+02 0.000000e+00 0.000000e+00 0.000000e+00 0.000000e+00 8.005240e+00 -2.249122e+01 0.000000e+00 -2.249122e+01 -1.065408e+02 0.000000e+00 0.000000e+00 0.000000e+00 0.000000e+00 6.435161e+00 -5.880943e+00 0.000000e+00 -5.880943e+00 -1.567623e+02 0.000000e+00 0.000000e+00 0.000000e+00 0.000000e+00 3.697820e+01 -1.119494e+01 0.000000e+00 -1.119494e+01 -5.187192e+01 0.000000e+00 0.000000e+00 0.000000e+00 0.000000e+00 5.925844e+01 -1.537151e+01 0.000000e+00 -1.537151e+01 -1.755899e+01 0.000000e+00 0.000000e+00 0.000000e+00 0.000000e+00 -1.504096e+01 2.583246e+01 0.000000e+00 2.583246e+01 2.644803e+01 0.000000e+00 0.000000e+00 0.000000e+00 0.000000e+00 3.057841e+01 -1.463797e+01 0.000000e+00 -1.463797e+01 -6.075932e+01 0.000000e+00 0.000000e+00 0.000000e+00 0.000000e+00 8.758155e+01 -1.967885e+01 0.000000e+00 -1.967885e+01 1.914046e+01 0.000000e+00 0.000000e+00 0.000000e+00 0.000000e+00 1.851291e+02 -5.611025e+01 0.000000e+00 -5.611025e+01 2.481551e+02 0.000000e+00 0.000000e+00 0.000000e+00 0.000000e+00 3.648777e+01 2.182534e+01 0.000000e+00 2.182534e+01 1.381195e+00 0.000000e+00 0.000000e+00 0.000000e+00 0.000000e+00 5.023265e+00 -4.874546e+01 0.000000e+00 -4.874546e+01 -3.376224e+01 0.000000e+00 0.000000e+00 0.000000e+00 0.000000e+00 4.889352e+01 3.160110e+01 0.000000e+00 3.160110e+01 8.562540e+00 0.000000e+00 0.000000e+00 0.000000e+00 0.000000e+00 9.851124e+01 1.992516e+01 0.000000e+00 1.992516e+01 2.853861e+02 0.000000e+00 0.000000e+00 0.000000e+00 0.000000e+00 -1.316528e+01 3.157942e+01 0.000000e+00 3.157942e+01 1.337967e+01 0.000000e+00 0.000000e+00 0.000000e+00 0.000000e+00 -2.382447e+00 -5.013694e+01 0.000000e+00 -5.013694e+01 -1.916396e+01 0.000000e+00 0.000000e+00 0.000000e+00 0.000000e+00 1.470089e+02 -5.189883e+01 0.000000e+00 -5.189883e+01 1.667505e+02 0.000000e+00 0.000000e+00 0.000000e+00 0.000000e+00 1.011198e+02 6.378364e+01 0.000000e+00 6.378364e+01 2.615449e+02 0.000000e+00 0.000000e+00 0.000000e+00 0.000000e+00 3.257117e+01 2.717179e+01 0.000000e+00 2.717179e+01 1.178413e+00 0.000000e+00 0.000000e+00 0.000000e+00 0.000000e+00 6.233329e+00 -8.863493e+00 0.000000e+00 -8.863493e+00 -1.273278e+02 0.000000e+00 0.000000e+00 0.000000e+00 0.000000e+00 7.627867e+00 -9.951550e+00 0.000000e+00 -9.951550e+00 -1.466886e+02 0.000000e+00 0.000000e+00 0.000000e+00 0.000000e+00 6.736387e+01 5.012651e+01 0.000000e+00 5.012651e+01 4.515571e+01 0.000000e+00 0.000000e+00 0.000000e+00 0.000000e+00 7.075288e+01 5.549684e+01 0.000000e+00 5.549684e+01 1.779559e+02 0.000000e+00 0.000000e+00 0.000000e+00 0.000000e+00 7.225941e+00 -1.229796e+01 0.000000e+00 -1.229796e+01 -1.224448e+02 0.000000e+00 0.000000e+00 0.000000e+00 0.000000e+00 -1.175608e+01 -4.839360e+01 0.000000e+00 -4.839360e+01 -5.473820e+00 0.000000e+00 0.000000e+00 0.000000e+00 0.000000e+00 2.125886e+01 3.394275e+01 0.000000e+00 3.394275e+01 5.537713e+00 0.000000e+00 0.000000e+00 0.000000e+00 0.000000e+00 1.034030e+01 -1.585780e+01 0.000000e+00 -1.585780e+01 -1.064847e+02 0.000000e+00 0.000000e+00 0.000000e+00 0.000000e+00 5.241708e+01 3.650378e+01 0.000000e+00 3.650378e+01 1.674998e+01 0.000000e+00 0.000000e+00 0.000000e+00 0.000000e+00 5.489449e+01 -1.919913e+01 0.000000e+00 -1.919913e+01 -2.104815e+01 0.000000e+00 0.000000e+00 0.000000e+00 0.000000e+00 5.971347e+01 5.598183e+01 0.000000e+00 5.598183e+01 1.338527e+02 0.000000e+00 0.000000e+00 0.000000e+00 0.000000e+00 3.539815e+01 -1.577126e+01 0.000000e+00 -1.577126e+01 -5.220330e+01 0.000000e+00 0.000000e+00 0.000000e+00 0.000000e+00 -2.045352e+01 1.305315e+01 0.000000e+00 1.305315e+01 3.960486e+01 0.000000e+00 0.000000e+00 0.000000e+00 0.000000e+00 1.317040e+02 -4.210559e+01 0.000000e+00 -4.210559e+01 1.045842e+02 0.000000e+00 0.000000e+00 0.000000e+00 0.000000e+00 7.941173e+01 4.436790e+01 0.000000e+00 4.436790e+01 2.281836e+02 0.000000e+00 0.000000e+00 0.000000e+00 0.000000e+00 1.097825e+02 -3.362528e+01 0.000000e+00 -3.362528e+01 5.879739e+01 0.000000e+00 0.000000e+00 0.000000e+00 0.000000e+00 9.126635e+01 -2.901969e+01 0.000000e+00 -2.901969e+01 3.243637e+01 0.000000e+00 0.000000e+00 0.000000e+00 0.000000e+00 1.155800e+02 -2.255993e+01 0.000000e+00 -2.255993e+01 2.777566e+02 0.000000e+00 0.000000e+00 0.000000e+00 0.000000e+00 4.423974e+01 -1.969865e+01 0.000000e+00 -1.969865e+01 -3.568428e+01 0.000000e+00 0.000000e+00 0.000000e+00 0.000000e+00 5.924566e+01 4.256128e+01 0.000000e+00 4.256128e+01 2.876758e+01 0.000000e+00 0.000000e+00 0.000000e+00 0.000000e+00 3.266817e+01 3.058265e+01 0.000000e+00 3.058265e+01 3.455244e+00 0.000000e+00 0.000000e+00 0.000000e+00 0.000000e+00 4.983880e+01 -1.924290e+01 0.000000e+00 -1.924290e+01 -2.785003e+01 0.000000e+00 0.000000e+00 0.000000e+00 0.000000e+00 5.659681e+01 5.213209e+01 0.000000e+00 5.213209e+01 7.344400e+01 0.000000e+00 0.000000e+00 0.000000e+00 0.000000e+00 3.968357e+01 2.465415e+01 0.000000e+00 2.465415e+01 1.041894e+00 0.000000e+00 0.000000e+00 0.000000e+00 0.000000e+00 1.603522e+02 -5.343876e+01 0.000000e+00 -5.343876e+01 1.919548e+02 0.000000e+00 0.000000e+00 0.000000e+00 0.000000e+00 4.412132e+01 2.717306e+01 0.000000e+00 2.717306e+01 3.133802e+00 0.000000e+00 0.000000e+00 0.000000e+00 0.000000e+00 8.310916e+00 -1.034327e+01 0.000000e+00 -1.034327e+01 -1.163056e+02 0.000000e+00 0.000000e+00 0.000000e+00 0.000000e+00 1.408272e+02 -4.958221e+01 0.000000e+00 -4.958221e+01 1.415037e+02 0.000000e+00 0.000000e+00 0.000000e+00 0.000000e+00 7.440163e+01 -2.373009e+01 0.000000e+00 -2.373009e+01 5.952953e+00 0.000000e+00 0.000000e+00 0.000000e+00 0.000000e+00 1.060451e+02 -2.983758e+01 0.000000e+00 -2.983758e+01 4.884373e+01 0.000000e+00 0.000000e+00 0.000000e+00 0.000000e+00 3.921896e+01 -1.865399e+01 0.000000e+00 -1.865399e+01 -4.329014e+01 0.000000e+00 0.000000e+00 0.000000e+00 0.000000e+00 1.631329e+01 -1.331136e+01 0.000000e+00 -1.331136e+01 -8.900004e+01 0.000000e+00 0.000000e+00 0.000000e+00 0.000000e+00 6.250315e+01 -2.332307e+01 0.000000e+00 -2.332307e+01 -7.790788e+00 0.000000e+00 0.000000e+00 0.000000e+00 0.000000e+00 8.028728e+00 -3.102378e+00 0.000000e+00 -3.102378e+00 -1.879779e+02 0.000000e+00 0.000000e+00 0.000000e+00 0.000000e+00 1.108674e+01 -2.216186e+01 0.000000e+00 -2.216186e+01 -9.728307e+01 0.000000e+00 0.000000e+00 0.000000e+00 0.000000e+00 2.668454e+01 -1.729240e+01 0.000000e+00 -1.729240e+01 -6.637566e+01 0.000000e+00 0.000000e+00 0.000000e+00 0.000000e+00 2.032185e+01 -1.185590e+01 0.000000e+00 -1.185590e+01 -8.206792e+01 0.000000e+00 0.000000e+00 0.000000e+00 0.000000e+00 -2.436804e+01 -6.451556e+00 0.000000e+00 -6.451556e+00 4.660223e+01 0.000000e+00 0.000000e+00 0.000000e+00 0.000000e+00 6.837705e+01 -2.408889e+01 0.000000e+00 -2.408889e+01 -2.372478e-01 0.000000e+00 0.000000e+00 0.000000e+00 0.000000e+00 8.761189e+00 3.509393e+01 0.000000e+00 3.509393e+01 7.114851e+00 0.000000e+00 0.000000e+00 0.000000e+00 0.000000e+00 1.424249e+02 -4.534259e+01 0.000000e+00 -4.534259e+01 1.211144e+02 0.000000e+00 0.000000e+00 0.000000e+00 0.000000e+00 1.172559e+01 -1.195433e+01 0.000000e+00 -1.195433e+01 -1.067404e+02 0.000000e+00 0.000000e+00 0.000000e+00 0.000000e+00 7.922768e+01 -2.492814e+01 0.000000e+00 -2.492814e+01 1.381744e+01 0.000000e+00 0.000000e+00 0.000000e+00 0.000000e+00 -2.320730e+01 -2.617197e+01 0.000000e+00 -2.617197e+01 4.376421e+01 0.000000e+00 0.000000e+00 0.000000e+00 0.000000e+00 1.170570e+01 -2.919367e+01 0.000000e+00 -2.919367e+01 -8.531702e+01 0.000000e+00 0.000000e+00 0.000000e+00 0.000000e+00 5.798544e+01 -2.158123e+01 0.000000e+00 -2.158123e+01 -1.496086e+01 0.000000e+00 0.000000e+00 0.000000e+00 0.000000e+00 -1.399498e+01 -1.363666e+01 0.000000e+00 -1.363666e+01 6.366814e+01 0.000000e+00 0.000000e+00 0.000000e+00 0.000000e+00 2.365300e+01 -1.462795e+01 0.000000e+00 -1.462795e+01 -7.412190e+01 0.000000e+00 0.000000e+00 0.000000e+00 0.000000e+00 -1.795862e+01 -4.639928e+01 0.000000e+00 -4.639928e+01 1.528064e+01 0.000000e+00 0.000000e+00 0.000000e+00 0.000000e+00 8.521798e+01 -2.768283e+01 0.000000e+00 -2.768283e+01 2.337294e+01 0.000000e+00 0.000000e+00 0.000000e+00 0.000000e+00 1.295080e+02 -3.663056e+01 0.000000e+00 -3.663056e+01 8.611752e+01 0.000000e+00 0.000000e+00 0.000000e+00 0.000000e+00 1.115238e+01 -4.402750e+01 0.000000e+00 -4.402750e+01 -4.839013e+01 0.000000e+00 0.000000e+00 0.000000e+00 0.000000e+00 3.013437e+01 -1.980322e+01 0.000000e+00 -1.980322e+01 -5.735592e+01 0.000000e+00 0.000000e+00 0.000000e+00 0.000000e+00 2.852354e+00 -5.327896e+01 0.000000e+00 -5.327896e+01 -8.947203e+00 0.000000e+00 0.000000e+00 0.000000e+00 0.000000e+00 1.343005e+01 -1.450869e+01 0.000000e+00 -1.450869e+01 -9.676424e+01 0.000000e+00 0.000000e+00 0.000000e+00 0.000000e+00 3.578006e+01 3.724074e+01 0.000000e+00 3.724074e+01 1.820597e+01 0.000000e+00 0.000000e+00 0.000000e+00 0.000000e+00 4.465441e+01 4.554371e+01 0.000000e+00 4.554371e+01 5.225682e+01 0.000000e+00 0.000000e+00 0.000000e+00 0.000000e+00 9.844168e+01 -2.958908e+01 0.000000e+00 -2.958908e+01 4.114890e+01 0.000000e+00 0.000000e+00 0.000000e+00 0.000000e+00 -1.764611e+01 -4.053297e+01 0.000000e+00 -4.053297e+01 3.524484e+01 0.000000e+00 0.000000e+00 0.000000e+00 0.000000e+00 3.846922e+01 4.112608e+01 0.000000e+00 4.112608e+01 3.278813e+01 0.000000e+00 0.000000e+00 0.000000e+00 0.000000e+00 1.418059e+01 -2.067936e+01 0.000000e+00 -2.067936e+01 -9.009026e+01 0.000000e+00 0.000000e+00 0.000000e+00 0.000000e+00 -4.559275e+00 3.453763e+01 0.000000e+00 3.453763e+01 7.381188e+00 0.000000e+00 0.000000e+00 0.000000e+00 0.000000e+00 8.185458e+01 -3.554537e+01 0.000000e+00 -3.554537e+01 3.071089e+01 0.000000e+00 0.000000e+00 0.000000e+00 0.000000e+00 1.487104e+01 -2.790464e+01 0.000000e+00 -2.790464e+01 -7.780321e+01 0.000000e+00 0.000000e+00 0.000000e+00 0.000000e+00 1.561688e+01 -3.710097e+01 0.000000e+00 -3.710097e+01 -6.099851e+01 0.000000e+00 0.000000e+00 0.000000e+00 0.000000e+00 1.325955e+01 3.566729e+01 0.000000e+00 3.566729e+01 1.223973e+01 0.000000e+00 0.000000e+00 0.000000e+00 0.000000e+00 1.152046e+02 -3.741173e+01 0.000000e+00 -3.741173e+01 7.331373e+01 0.000000e+00 0.000000e+00 0.000000e+00 0.000000e+00 -5.369307e-01 2.772546e+01 0.000000e+00 2.772546e+01 4.326547e+01 0.000000e+00 0.000000e+00 0.000000e+00 0.000000e+00 2.632092e+00 3.369589e+01 0.000000e+00 3.369589e+01 2.252517e+01 0.000000e+00 0.000000e+00 0.000000e+00 0.000000e+00 2.225215e+00 3.525679e+01 0.000000e+00 3.525679e+01 1.152168e+01 0.000000e+00 0.000000e+00 0.000000e+00 0.000000e+00 1.156047e+02 -4.540750e+01 0.000000e+00 -4.540750e+01 9.425634e+01 0.000000e+00 0.000000e+00 0.000000e+00 0.000000e+00 -9.962942e+00 9.631833e+00 0.000000e+00 9.631833e+00 5.981603e+01 0.000000e+00 0.000000e+00 0.000000e+00 0.000000e+00 -1.113965e+01 -3.314488e+01 0.000000e+00 -3.314488e+01 5.667442e+01 0.000000e+00 0.000000e+00 0.000000e+00 0.000000e+00 8.931502e+01 -3.665910e+01 0.000000e+00 -3.665910e+01 4.094062e+01 0.000000e+00 0.000000e+00 0.000000e+00 0.000000e+00 2.216564e+01 -1.945893e+01 0.000000e+00 -1.945893e+01 -7.398347e+01 0.000000e+00 0.000000e+00 0.000000e+00 0.000000e+00 3.974012e+01 4.203997e+01 0.000000e+00 4.203997e+01 1.081834e+02 0.000000e+00 0.000000e+00 0.000000e+00 0.000000e+00 8.135133e+01 6.540402e-01 0.000000e+00 6.540402e-01 2.391886e+02 0.000000e+00 0.000000e+00 0.000000e+00 0.000000e+00 9.998864e+01 -4.189454e+01 0.000000e+00 -4.189454e+01 6.513302e+01 0.000000e+00 0.000000e+00 0.000000e+00 0.000000e+00 1.400164e+02 -4.466010e+01 0.000000e+00 -4.466010e+01 2.552292e+02 0.000000e+00 0.000000e+00 0.000000e+00 0.000000e+00 5.567122e+01 -2.831235e+01 0.000000e+00 -2.831235e+01 -1.170766e+01 0.000000e+00 0.000000e+00 0.000000e+00 0.000000e+00 1.466106e+02 -5.221152e+01 0.000000e+00 -5.221152e+01 2.229821e+02 0.000000e+00 0.000000e+00 0.000000e+00 0.000000e+00 2.851574e+01 3.511238e+01 0.000000e+00 3.511238e+01 1.021613e+01 0.000000e+00 0.000000e+00 0.000000e+00 0.000000e+00 1.706132e+01 -4.482263e+01 0.000000e+00 -4.482263e+01 -3.907785e+01 0.000000e+00 0.000000e+00 0.000000e+00 0.000000e+00 6.066732e+01 2.111452e+01 0.000000e+00 2.111452e+01 2.003138e+02 0.000000e+00 0.000000e+00 0.000000e+00 0.000000e+00 -6.579018e+00 -5.193103e+01 0.000000e+00 -5.193103e+01 3.837692e+00 0.000000e+00 0.000000e+00 0.000000e+00 0.000000e+00 1.235331e+01 -5.093571e+01 0.000000e+00 -5.093571e+01 -2.104996e+01 0.000000e+00 0.000000e+00 0.000000e+00 0.000000e+00 1.157176e+02 -5.221224e+01 0.000000e+00 -5.221224e+01 1.564783e+02 0.000000e+00 0.000000e+00 0.000000e+00 0.000000e+00 6.855029e+01 -3.158374e+01 0.000000e+00 -3.158374e+01 8.317553e+00 0.000000e+00 0.000000e+00 0.000000e+00 0.000000e+00 3.862852e+01 3.238730e+01 0.000000e+00 3.238730e+01 7.058184e+00 0.000000e+00 0.000000e+00 0.000000e+00 0.000000e+00 3.804099e+01 -2.618879e+01 0.000000e+00 -2.618879e+01 -3.997546e+01 0.000000e+00 0.000000e+00 0.000000e+00 0.000000e+00 7.631428e+01 -3.329639e+01 0.000000e+00 -3.329639e+01 1.935131e+01 0.000000e+00 0.000000e+00 0.000000e+00 0.000000e+00 1.160756e+02 -4.989018e+01 0.000000e+00 -4.989018e+01 1.210576e+02 0.000000e+00 0.000000e+00 0.000000e+00 0.000000e+00 6.130474e+01 -3.074047e+01 0.000000e+00 -3.074047e+01 -1.912940e+00 0.000000e+00 0.000000e+00 0.000000e+00 0.000000e+00 1.945610e+01 -1.524106e+01 0.000000e+00 -1.524106e+01 -8.118701e+01 0.000000e+00 0.000000e+00 0.000000e+00 0.000000e+00 -9.685847e+00 -4.963435e+01 0.000000e+00 -4.963435e+01 2.399208e+01 0.000000e+00 0.000000e+00 0.000000e+00 0.000000e+00 2.517247e+01 -2.262537e+01 0.000000e+00 -2.262537e+01 -6.403762e+01 0.000000e+00 0.000000e+00 0.000000e+00 0.000000e+00 1.672184e+01 -1.821232e+01 0.000000e+00 -1.821232e+01 -8.459125e+01 0.000000e+00 0.000000e+00 0.000000e+00 0.000000e+00 4.471723e+01 -2.602879e+01 0.000000e+00 -2.602879e+01 -2.912651e+01 0.000000e+00 0.000000e+00 0.000000e+00 0.000000e+00 4.466741e+01 3.072537e+01 0.000000e+00 3.072537e+01 1.544985e+02 0.000000e+00 0.000000e+00 0.000000e+00 0.000000e+00 1.222990e+02 -4.955547e+01 0.000000e+00 -4.955547e+01 1.898222e+02 0.000000e+00 0.000000e+00 0.000000e+00 0.000000e+00 5.172147e+01 -2.478233e+01 0.000000e+00 -2.478233e+01 -2.094673e+01 0.000000e+00 0.000000e+00 0.000000e+00 0.000000e+00 -3.623391e+00 -4.744723e+01 0.000000e+00 -4.744723e+01 4.086371e+01 0.000000e+00 0.000000e+00 0.000000e+00 0.000000e+00 2.117969e+01 -3.230131e+01 0.000000e+00 -3.230131e+01 -5.977679e+01 0.000000e+00 0.000000e+00 0.000000e+00 0.000000e+00 5.263154e+01 -3.528995e+01 0.000000e+00 -3.528995e+01 -6.697282e+00 0.000000e+00 0.000000e+00 0.000000e+00 0.000000e+00 1.031114e+01 -5.523257e+01 0.000000e+00 -5.523257e+01 3.950614e+00 0.000000e+00 0.000000e+00 0.000000e+00 0.000000e+00 2.258025e+01 -3.932399e+01 0.000000e+00 -3.932399e+01 -4.226430e+01 0.000000e+00 0.000000e+00 0.000000e+00 0.000000e+00 1.016293e+02 -4.508776e+01 0.000000e+00 -4.508776e+01 8.095958e+01 0.000000e+00 0.000000e+00 0.000000e+00 0.000000e+00 3.575820e+01 -2.077713e+01 0.000000e+00 -2.077713e+01 -4.897027e+01 0.000000e+00 0.000000e+00 0.000000e+00 0.000000e+00 -1.316038e-01 -5.352586e+01 0.000000e+00 -5.352586e+01 1.553608e+01 0.000000e+00 0.000000e+00 0.000000e+00 0.000000e+00 9.889357e+01 -3.656578e+01 0.000000e+00 -3.656578e+01 5.111504e+01 0.000000e+00 0.000000e+00 0.000000e+00 0.000000e+00 2.933284e+01 3.907607e+01 0.000000e+00 3.907607e+01 7.748544e+01 0.000000e+00 0.000000e+00 0.000000e+00 0.000000e+00 1.894335e+01 -2.449130e+01 0.000000e+00 -2.449130e+01 -7.347211e+01 0.000000e+00 0.000000e+00 0.000000e+00 0.000000e+00 7.018028e+01 -1.716925e+01 0.000000e+00 -1.716925e+01 2.022530e+02 0.000000e+00 0.000000e+00 0.000000e+00 0.000000e+00 9.273130e+01 -5.035438e+01 0.000000e+00 -5.035438e+01 1.008177e+02 0.000000e+00 0.000000e+00 0.000000e+00 0.000000e+00 8.669524e+01 -4.838031e+01 0.000000e+00 -4.838031e+01 7.283824e+01 0.000000e+00 0.000000e+00 0.000000e+00 0.000000e+00 -2.319662e+00 -2.221077e+01 0.000000e+00 -2.221077e+01 8.061870e+01 0.000000e+00 0.000000e+00 0.000000e+00 0.000000e+00 1.899521e+01 3.738735e+01 0.000000e+00 3.738735e+01 3.229313e+01 0.000000e+00 0.000000e+00 0.000000e+00 0.000000e+00 1.017916e+02 -3.428372e+01 0.000000e+00 -3.428372e+01 2.235529e+02 0.000000e+00 0.000000e+00 0.000000e+00 0.000000e+00 9.227506e+01 -5.064520e+01 0.000000e+00 -5.064520e+01 1.344100e+02 0.000000e+00 0.000000e+00 0.000000e+00 0.000000e+00 2.307144e+01 -4.735113e+01 0.000000e+00 -4.735113e+01 -2.233312e+01 0.000000e+00 0.000000e+00 0.000000e+00 0.000000e+00 3.888758e+01 -3.349921e+01 0.000000e+00 -3.349921e+01 -2.905929e+01 0.000000e+00 0.000000e+00 0.000000e+00 0.000000e+00 7.698626e+01 -4.268211e+01 0.000000e+00 -4.268211e+01 4.023128e+01 0.000000e+00 0.000000e+00 0.000000e+00 0.000000e+00 4.770635e+01 2.604525e-02 0.000000e+00 2.604525e-02 1.779598e+02 0.000000e+00 0.000000e+00 0.000000e+00 0.000000e+00 7.296282e+01 -5.007685e+01 0.000000e+00 -5.007685e+01 1.146952e+02 0.000000e+00 0.000000e+00 0.000000e+00 0.000000e+00 5.826911e+01 -3.801205e+01 0.000000e+00 -3.801205e+01 5.693085e+00 0.000000e+00 0.000000e+00 0.000000e+00 0.000000e+00 4.752788e+01 -3.136315e+01 0.000000e+00 -3.136315e+01 -1.903160e+01 0.000000e+00 0.000000e+00 0.000000e+00 0.000000e+00 2.834293e+00 -4.023437e+01 0.000000e+00 -4.023437e+01 6.599081e+01 0.000000e+00 0.000000e+00 0.000000e+00 0.000000e+00 2.084739e+01 3.739953e+01 0.000000e+00 3.739953e+01 1.817217e+01 0.000000e+00 0.000000e+00 0.000000e+00 0.000000e+00 8.722641e+01 -4.353817e+01 0.000000e+00 -4.353817e+01 5.394041e+01 0.000000e+00 0.000000e+00 0.000000e+00 0.000000e+00 2.980415e+01 -3.294067e+01 0.000000e+00 -3.294067e+01 -4.263268e+01 0.000000e+00 0.000000e+00 0.000000e+00 0.000000e+00 7.137420e+00 2.419039e+01 0.000000e+00 2.419039e+01 6.998370e+01 0.000000e+00 0.000000e+00 0.000000e+00 0.000000e+00 2.169134e+01 3.743050e+01 0.000000e+00 3.743050e+01 5.134059e+01 0.000000e+00 0.000000e+00 0.000000e+00 0.000000e+00 7.331075e+01 -4.081212e+01 0.000000e+00 -4.081212e+01 2.807853e+01 0.000000e+00 0.000000e+00 0.000000e+00 0.000000e+00 -1.344858e+00 1.956476e+00 0.000000e+00 1.956476e+00 8.253193e+01 0.000000e+00 0.000000e+00 0.000000e+00 0.000000e+00 3.177740e+01 -4.116341e+01 0.000000e+00 -4.116341e+01 -2.455919e+01 0.000000e+00 0.000000e+00 0.000000e+00 0.000000e+00 5.795551e+01 -2.801514e+01 0.000000e+00 -2.801514e+01 1.695395e+02 0.000000e+00 0.000000e+00 0.000000e+00 0.000000e+00 7.195754e+01 -5.152376e+01 0.000000e+00 -5.152376e+01 8.390025e+01 0.000000e+00 0.000000e+00 0.000000e+00 0.000000e+00 6.503059e+01 -3.951086e+01 0.000000e+00 -3.951086e+01 1.730983e+01 0.000000e+00 0.000000e+00 0.000000e+00 0.000000e+00 4.881040e+01 -4.257763e+01 0.000000e+00 -4.257763e+01 9.379193e-01 0.000000e+00 0.000000e+00 0.000000e+00 0.000000e+00 9.694105e+00 -5.086798e+01 0.000000e+00 -5.086798e+01 4.862548e+01 0.000000e+00 0.000000e+00 0.000000e+00 0.000000e+00 7.057722e+01 -4.875015e+01 0.000000e+00 -4.875015e+01 5.581528e+01 0.000000e+00 0.000000e+00 0.000000e+00 0.000000e+00 3.083401e+01 -2.615300e+01 0.000000e+00 -2.615300e+01 -5.091171e+01 0.000000e+00 0.000000e+00 0.000000e+00 0.000000e+00 8.270535e+00 -5.442939e+01 0.000000e+00 -5.442939e+01 2.909786e+01 0.000000e+00 0.000000e+00 0.000000e+00 0.000000e+00 4.298098e+01 -3.803214e+01 0.000000e+00 -3.803214e+01 -1.540710e+01 0.000000e+00 0.000000e+00 0.000000e+00 0.000000e+00 8.720661e+01 -4.209815e+01 0.000000e+00 -4.209815e+01 1.770678e+02 0.000000e+00 0.000000e+00 0.000000e+00 0.000000e+00 6.739443e+01 -4.405734e+01 0.000000e+00 -4.405734e+01 1.457689e+02 0.000000e+00 0.000000e+00 0.000000e+00 0.000000e+00 1.337412e+01 -3.396512e+01 0.000000e+00 -3.396512e+01 9.029426e+01 0.000000e+00 0.000000e+00 0.000000e+00 0.000000e+00 3.204840e+01 6.039970e+00 0.000000e+00 6.039970e+00 1.486155e+02 0.000000e+00 0.000000e+00 0.000000e+00 0.000000e+00 2.092613e+01 -5.314455e+01 0.000000e+00 -5.314455e+01 -1.886542e+00 0.000000e+00 0.000000e+00 0.000000e+00 0.000000e+00 3.126770e+01 -4.907492e+01 0.000000e+00 -4.907492e+01 -4.856203e+00 0.000000e+00 0.000000e+00 0.000000e+00 0.000000e+00 1.502952e+01 2.049422e+01 0.000000e+00 2.049422e+01 9.669193e+01 0.000000e+00 0.000000e+00 0.000000e+00 0.000000e+00 2.568759e+01 -2.794633e+01 0.000000e+00 -2.794633e+01 -5.846346e+01 0.000000e+00 0.000000e+00 0.000000e+00 0.000000e+00 9.976825e+00 -8.700723e+00 0.000000e+00 -8.700723e+00 1.050533e+02 0.000000e+00 0.000000e+00 0.000000e+00 0.000000e+00 5.384561e+01 -4.559298e+01 0.000000e+00 -4.559298e+01 1.607834e+01 0.000000e+00 0.000000e+00 0.000000e+00 0.000000e+00 2.145942e+01 -4.925713e+01 0.000000e+00 -4.925713e+01 6.552926e+01 0.000000e+00 0.000000e+00 0.000000e+00 0.000000e+00 6.236076e+01 -4.716984e+01 0.000000e+00 -4.716984e+01 3.309755e+01 0.000000e+00 0.000000e+00 0.000000e+00 0.000000e+00 1.800844e+01 -5.542875e+01 0.000000e+00 -5.542875e+01 1.746128e+01 0.000000e+00 0.000000e+00 0.000000e+00 0.000000e+00 3.519986e+01 -1.697651e+01 0.000000e+00 -1.697651e+01 1.499915e+02 0.000000e+00 0.000000e+00 0.000000e+00 0.000000e+00 3.042209e+01 -5.373498e+01 0.000000e+00 -5.373498e+01 1.906826e+01 0.000000e+00 0.000000e+00 0.000000e+00 0.000000e+00 5.943377e+01 -5.235529e+01 0.000000e+00 -5.235529e+01 6.530782e+01 0.000000e+00 0.000000e+00 0.000000e+00 0.000000e+00 2.602246e+01 -2.968064e+01 0.000000e+00 -2.968064e+01 1.181029e+02 0.000000e+00 0.000000e+00 0.000000e+00 0.000000e+00 5.708138e+01 -4.984436e+01 0.000000e+00 -4.984436e+01 9.704780e+01 0.000000e+00 0.000000e+00 0.000000e+00 0.000000e+00 4.531635e+01 -5.127083e+01 0.000000e+00 -5.127083e+01 2.770729e+01 0.000000e+00 0.000000e+00 0.000000e+00 0.000000e+00 3.912311e+01 -4.442734e+01 0.000000e+00 -4.442734e+01 -7.170456e+00 0.000000e+00 0.000000e+00 0.000000e+00 0.000000e+00 5.201794e+01 -5.181100e+01 0.000000e+00 -5.181100e+01 4.704837e+01 0.000000e+00 0.000000e+00 0.000000e+00 0.000000e+00 4.465024e+01 -3.408383e+01 0.000000e+00 -3.408383e+01 1.410433e+02 0.000000e+00 0.000000e+00 0.000000e+00 0.000000e+00 2.509257e+01 1.825541e+01 0.000000e+00 1.825541e+01 1.266646e+02 0.000000e+00 0.000000e+00 0.000000e+00 0.000000e+00 4.820411e+01 -4.335790e+01 0.000000e+00 -4.335790e+01 1.208363e+02 0.000000e+00 0.000000e+00 0.000000e+00 0.000000e+00 4.148305e+01 -4.904842e+01 0.000000e+00 -4.904842e+01 9.239739e+00 0.000000e+00 0.000000e+00 0.000000e+00 0.000000e+00 2.145105e+01 -7.470337e+00 0.000000e+00 -7.470337e+00 1.292999e+02 0.000000e+00 0.000000e+00 0.000000e+00 0.000000e+00 2.091841e+01 -5.461389e+01 0.000000e+00 -5.461389e+01 3.695167e+01 0.000000e+00 0.000000e+00 0.000000e+00 0.000000e+00 5.166830e+01 -5.227749e+01 0.000000e+00 -5.227749e+01 8.200835e+01 0.000000e+00 0.000000e+00 0.000000e+00 0.000000e+00 3.352515e+01 -4.537224e+01 0.000000e+00 -4.537224e+01 9.059545e+01 0.000000e+00 0.000000e+00 0.000000e+00 0.000000e+00 3.425292e+01 -5.387877e+01 0.000000e+00 -5.387877e+01 4.444024e+01 0.000000e+00 0.000000e+00 0.000000e+00 0.000000e+00 4.093982e+01 -5.262854e+01 0.000000e+00 -5.262854e+01 6.388677e+01 0.000000e+00 0.000000e+00 0.000000e+00 0.000000e+00 </DataArray>
 <DataArray type="Float64" Name="IST_StrainTensor" NumberOfComponents="9" format="ascii"> 1.075540e-05 2.776156e-05 0.000000e+00 2.776156e-05 -1.729774e-05 0.000000e+00 0.000000e+00 0.000000e+00 0.000000e+00 -2.810955e-06 -5.528379e-06 0.000000e+00 -5.528379e-06 -3.145407e-06 0.000000e+00 0.000000e+00 0.000000e+00 0.000000e+00 2.015230e-04 8.765949e-05 0.000000e+00 8.765949e-05 -2.877061e-05 0.000000e+00 0.000000e+00 0.000000e+00 0.000000e+00 2.037099e-06 -5.450299e-06 0.000000e+00 -5.450299e-06 1.152009e-06 0.000000e+00 0.000000e+00 0.000000e+00 0.000000e+00 1.163724e-04 4.628847e-05 0.000000e+00 4.628847e-05 -2.571763e-05 0.000000e+00 0.000000e+00 0.000000e+00 0.000000e+00 -1.922108e-05 -3.533672e-05 0.000000e+00 -3.533672e-05 -1.733576e-05 0.000000e+00 0.000000e+00 0.000000e+00 0.000000e+00 8.576716e-04 5.834852e-04 0.000000e+00 5.834852e-04 1.136996e-03 0.000000e+00 0.000000e+00 0.000000e+00 0.000000e+00 2.910085e-04 -4.638434e-05 0.000000e+00 -4.638434e-05 -9.226580e-04 0.000000e+00 0.000000e+00 0.000000e+00 0.000000e+00 -2.797925e-06 2.625264e-05 0.000000e+00 2.625264e-05 -1.369095e-05 0.000000e+00 0.000000e+00 0.000000e+00 0.000000e+00 -1.075226e-05 1.717469e-05 0.000000e+00 1.717469e-05 -1.664815e-05 0.000000e+00 0.000000e+00 0.000000e+00 0.000000e+00 -8.595014e-06 6.845218e-06 0.000000e+00 6.845218e-06 -3.012837e-05 0.000000e+00 0.000000e+00 0.000000e+00 0.000000e+00 6.186392e-06 4.979140e-06 0.000000e+00 4.979140e-06 -5.636458e-05 0.000000e+00 0.000000e+00 0.000000e+00 0.000000e+00 2.853801e-05 2.682607e-05 0.000000e+00 2.682607e-05 -8.750039e-05 0.000000e+00 0.000000e+00 0.000000e+00 0.000000e+00 3.963531e-05 6.602526e-05 0.000000e+00 6.602526e-05 -1.042086e-04 0.000000e+00 0.000000e+00 0.000000e+00 0.000000e+00 3.719173e-05 1.157650e-04 0.000000e+00 1.157650e-04 -1.051339e-04 0.000000e+00 0.000000e+00 0.000000e+00 0.000000e+00 2.264966e-05 1.588376e-04 0.000000e+00 1.588376e-04 -9.273512e-05 0.000000e+00 0.000000e+00 0.000000e+00 0.000000e+00 2.394129e-06 1.979266e-04 0.000000e+00 1.979266e-04 -7.282356e-05 0.000000e+00 0.000000e+00 0.000000e+00 0.000000e+00 -1.894869e-05 2.239019e-04 0.000000e+00 2.239019e-04 -4.579701e-05 0.000000e+00 0.000000e+00 0.000000e+00 0.000000e+00 -3.127762e-05 2.311594e-04 0.000000e+00 2.311594e-04 -1.785871e-05 0.000000e+00 0.000000e+00 0.000000e+00 0.000000e+00 -2.477012e-05 2.230408e-04 0.000000e+00 2.230408e-04 -2.296103e-06 0.000000e+00 0.000000e+00 0.000000e+00 0.000000e+00 3.127398e-06 2.106343e-04 0.000000e+00 2.106343e-04 -4.658900e-06 0.000000e+00 0.000000e+00 0.000000e+00 0.000000e+00 4.077010e-05 2.050406e-04 0.000000e+00 2.050406e-04 -1.701782e-05 0.000000e+00 0.000000e+00 0.000000e+00 0.000000e+00 7.197693e-05 2.060647e-04 0.000000e+00 2.060647e-04 -2.610360e-05 0.000000e+00 0.000000e+00 0.000000e+00 0.000000e+00 8.978233e-05 2.080684e-04 0.000000e+00 2.080684e-04 -2.722458e-05 0.000000e+00 0.000000e+00 0.000000e+00 0.000000e+00 9.020689e-05 2.053374e-04 0.000000e+00 2.053374e-04 -1.627857e-05 0.000000e+00 0.000000e+00 0.000000e+00 0.000000e+00 7.302847e-05 1.941120e-04 0.000000e+00 1.941120e-04 5.534959e-06 0.000000e+00 0.000000e+00 0.000000e+00 0.000000e+00 3.826924e-05 1.658597e-04 0.000000e+00 1.658597e-04 3.239497e-05 0.000000e+00 0.000000e+00 0.000000e+00 0.000000e+00 4.573160e-06 1.209230e-04 0.000000e+00 1.209230e-04 4.922236e-05 0.000000e+00 0.000000e+00 0.000000e+00 0.000000e+00 -1.022024e-05 7.080457e-05 0.000000e+00 7.080457e-05 5.983398e-05 0.000000e+00 0.000000e+00 0.000000e+00 0.000000e+00 -1.263799e-05 2.572641e-05 0.000000e+00 2.572641e-05 5.462881e-05 0.000000e+00 0.000000e+00 0.000000e+00 0.000000e+00 -3.090467e-06 -5.116709e-06 0.000000e+00 -5.116709e-06 4.043730e-05 0.000000e+00 0.000000e+00 0.000000e+00 0.000000e+00 1.840579e-05 -1.989069e-05 0.000000e+00 -1.989069e-05 1.336505e-05 0.000000e+00 0.000000e+00 0.000000e+00 0.000000e+00 3.194358e-05 -1.342950e-05 0.000000e+00 -1.342950e-05 -8.640521e-06 0.000000e+00 0.000000e+00 0.000000e+00 0.000000e+00 3.470839e-05 2.587426e-06 0.000000e+00 2.587426e-06 -2.065865e-05 0.000000e+00 0.000000e+00 0.000000e+00 0.000000e+00 2.620298e-05 1.854805e-05 0.000000e+00 1.854805e-05 -2.191686e-05 0.000000e+00 0.000000e+00 0.000000e+00 0.000000e+00 8.262002e-06 -6.446216e-05 0.000000e+00 -6.446216e-05 -8.443063e-05 0.000000e+00 0.000000e+00 0.000000e+00 0.000000e+00 8.159063e-05 -8.634148e-05 0.000000e+00 -8.634148e-05 -2.705979e-04 0.000000e+00 0.000000e+00 0.000000e+00 0.000000e+00 1.755409e-04 -6.761122e-05 0.000000e+00 -6.761122e-05 -5.446466e-04 0.000000e+00 0.000000e+00 0.000000e+00 0.000000e+00 2.510372e-04 -3.409757e-05 0.000000e+00 -3.409757e-05 -7.947571e-04 0.000000e+00 0.000000e+00 0.000000e+00 0.000000e+00 6.751038e-04 2.612655e-04 0.000000e+00 2.612655e-04 -1.084491e-04 0.000000e+00 0.000000e+00 0.000000e+00 0.000000e+00 3.516948e-04 1.249543e-05 0.000000e+00 1.249543e-05 -1.083919e-04 0.000000e+00 0.000000e+00 0.000000e+00 0.000000e+00 3.254655e-04 2.200917e-05 0.000000e+00 2.200917e-05 -9.538069e-05 0.000000e+00 0.000000e+00 0.000000e+00 0.000000e+00 2.964220e-04 2.339404e-05 0.000000e+00 2.339404e-05 -9.038013e-05 0.000000e+00 0.000000e+00 0.000000e+00 0.000000e+00 2.651381e-04 2.663963e-05 0.000000e+00 2.663963e-05 -8.134015e-05 0.000000e+00 0.000000e+00 0.000000e+00 0.000000e+00 2.316780e-04 3.013282e-05 0.000000e+00 3.013282e-05 -7.083115e-05 0.000000e+00 0.000000e+00 0.000000e+00 0.000000e+00 1.957058e-04 3.453231e-05 0.000000e+00 3.453231e-05 -6.051330e-05 0.000000e+00 0.000000e+00 0.000000e+00 0.000000e+00 1.521152e-04 3.955821e-05 0.000000e+00 3.955821e-05 -4.607144e-05 0.000000e+00 0.000000e+00 0.000000e+00 0.000000e+00 8.539696e-06 -4.833096e-06 0.000000e+00 -4.833096e-06 -3.265019e-06 0.000000e+00 0.000000e+00 0.000000e+00 0.000000e+00 1.265844e-05 -2.643940e-06 0.000000e+00 -2.643940e-06 -5.458497e-06 0.000000e+00 0.000000e+00 0.000000e+00 0.000000e+00 1.199689e-05 5.364314e-06 0.000000e+00 5.364314e-06 -8.302815e-06 0.000000e+00 0.000000e+00 0.000000e+00 0.000000e+00 -8.677628e-06 1.772101e-05 0.000000e+00 1.772101e-05 -2.907001e-06 0.000000e+00 0.000000e+00 0.000000e+00 0.000000e+00 -5.403364e-05 3.244714e-05 0.000000e+00 3.244714e-05 1.054984e-05 0.000000e+00 0.000000e+00 0.000000e+00 0.000000e+00 -1.237789e-04 4.604249e-05 0.000000e+00 4.604249e-05 3.295058e-05 0.000000e+00 0.000000e+00 0.000000e+00 0.000000e+00 -2.037969e-04 5.453151e-05 0.000000e+00 5.453151e-05 5.946886e-05 0.000000e+00 0.000000e+00 0.000000e+00 0.000000e+00 -2.957464e-04 5.620788e-05 0.000000e+00 5.620788e-05 8.989828e-05 0.000000e+00 0.000000e+00 0.000000e+00 0.000000e+00 -3.791890e-04 5.025075e-05 0.000000e+00 5.025075e-05 1.195305e-04 0.000000e+00 0.000000e+00 0.000000e+00 0.000000e+00 -4.408875e-04 3.477568e-05 0.000000e+00 3.477568e-05 1.432049e-04 0.000000e+00 0.000000e+00 0.000000e+00 0.000000e+00 -4.578629e-04 2.485467e-06 0.000000e+00 2.485467e-06 1.563017e-04 0.000000e+00 0.000000e+00 0.000000e+00 0.000000e+00 -4.027475e-04 -4.992599e-05 0.000000e+00 -4.992599e-05 1.411907e-04 0.000000e+00 0.000000e+00 0.000000e+00 0.000000e+00 -2.703053e-04 -7.853080e-05 0.000000e+00 -7.853080e-05 9.203453e-05 0.000000e+00 0.000000e+00 0.000000e+00 0.000000e+00 -1.024396e-04 -6.874232e-05 0.000000e+00 -6.874232e-05 1.861658e-05 0.000000e+00 0.000000e+00 0.000000e+00 0.000000e+00 1.653853e-04 8.333930e-05 0.000000e+00 8.333930e-05 -3.049192e-05 0.000000e+00 0.000000e+00 0.000000e+00 0.000000e+00 4.482744e-07 -6.184043e-06 0.000000e+00 -6.184043e-06 -6.922169e-06 0.000000e+00 0.000000e+00 0.000000e+00 0.000000e+00 7.006859e-06 -5.200696e-06 0.000000e+00 -5.200696e-06 -2.016358e-05 0.000000e+00 0.000000e+00 0.000000e+00 0.000000e+00 1.054465e-05 8.282284e-07 0.000000e+00 8.282284e-07 -2.580935e-05 0.000000e+00 0.000000e+00 0.000000e+00 0.000000e+00 8.172698e-06 6.959515e-06 0.000000e+00 6.959515e-06 -2.031779e-05 0.000000e+00 0.000000e+00 0.000000e+00 0.000000e+00 2.587239e-06 1.038037e-05 0.000000e+00 1.038037e-05 -6.606193e-06 0.000000e+00 0.000000e+00 0.000000e+00 0.000000e+00 -3.378337e-06 9.721825e-06 0.000000e+00 9.721825e-06 7.024142e-06 0.000000e+00 0.000000e+00 0.000000e+00 0.000000e+00 -7.055189e-06 5.206391e-06 0.000000e+00 5.206391e-06 1.727344e-05 0.000000e+00 0.000000e+00 0.000000e+00 0.000000e+00 -8.073367e-06 5.766630e-07 0.000000e+00 5.766630e-07 2.042282e-05 0.000000e+00 0.000000e+00 0.000000e+00 0.000000e+00 -6.261343e-06 -4.053742e-06 0.000000e+00 -4.053742e-06 1.552812e-05 0.000000e+00 0.000000e+00 0.000000e+00 0.000000e+00 -1.696623e-06 -5.727834e-06 0.000000e+00 -5.727834e-06 6.545325e-06 0.000000e+00 0.000000e+00 0.000000e+00 0.000000e+00 1.815379e-04 5.886399e-05 0.000000e+00 5.886399e-05 -4.556411e-05 0.000000e+00 0.000000e+00 0.000000e+00 0.000000e+00 1.023728e-04 4.417522e-05 0.000000e+00 4.417522e-05 -2.755281e-05 0.000000e+00 0.000000e+00 0.000000e+00 0.000000e+00 3.470305e-05 3.611815e-05 0.000000e+00 3.611815e-05 -5.514627e-06 0.000000e+00 0.000000e+00 0.000000e+00 0.000000e+00 -2.269561e-05 2.387734e-05 0.000000e+00 2.387734e-05 1.444823e-05 0.000000e+00 0.000000e+00 0.000000e+00 0.000000e+00 -5.254246e-05 6.590361e-06 0.000000e+00 6.590361e-06 2.322245e-05 0.000000e+00 0.000000e+00 0.000000e+00 0.000000e+00 -4.862985e-05 -6.860702e-06 0.000000e+00 -6.860702e-06 1.911966e-05 0.000000e+00 0.000000e+00 0.000000e+00 0.000000e+00 -2.765191e-05 -1.208370e-05 0.000000e+00 -1.208370e-05 9.022007e-06 0.000000e+00 0.000000e+00 0.000000e+00 0.000000e+00 -5.782698e-06 -9.188391e-06 0.000000e+00 -9.188391e-06 -1.568308e-06 0.000000e+00 0.000000e+00 0.000000e+00 0.000000e+00 1.149128e-04 -5.121100e-05 0.000000e+00 -5.121100e-05 -8.141700e-04 0.000000e+00 0.000000e+00 0.000000e+00 0.000000e+00 1.742019e-04 -3.777624e-05 0.000000e+00 -3.777624e-05 -7.978843e-04 0.000000e+00 0.000000e+00 0.000000e+00 0.000000e+00 1.915362e-04 -2.315878e-05 0.000000e+00 -2.315878e-05 -7.647681e-04 0.000000e+00 0.000000e+00 0.000000e+00 0.000000e+00 1.999802e-04 -1.655771e-05 0.000000e+00 -1.655771e-05 -7.280597e-04 0.000000e+00 0.000000e+00 0.000000e+00 0.000000e+00 2.049915e-04 -1.323242e-05 0.000000e+00 -1.323242e-05 -6.925291e-04 0.000000e+00 0.000000e+00 0.000000e+00 0.000000e+00 2.065321e-04 -1.150718e-05 0.000000e+00 -1.150718e-05 -6.565688e-04 0.000000e+00 0.000000e+00 0.000000e+00 0.000000e+00 2.072796e-04 -1.088401e-05 0.000000e+00 -1.088401e-05 -6.217556e-04 0.000000e+00 0.000000e+00 0.000000e+00 0.000000e+00 2.073682e-04 -1.039904e-05 0.000000e+00 -1.039904e-05 -5.882528e-04 0.000000e+00 0.000000e+00 0.000000e+00 0.000000e+00 2.080017e-04 -1.065302e-05 0.000000e+00 -1.065302e-05 -5.561018e-04 0.000000e+00 0.000000e+00 0.000000e+00 0.000000e+00 2.089155e-04 -1.089141e-05 0.000000e+00 -1.089141e-05 -5.245699e-04 0.000000e+00 0.000000e+00 0.000000e+00 0.000000e+00 2.115058e-04 -1.131667e-05 0.000000e+00 -1.131667e-05 -4.942319e-04 0.000000e+00 0.000000e+00 0.000000e+00 0.000000e+00 2.143273e-04 -1.110193e-05 0.000000e+00 -1.110193e-05 -4.646972e-04 0.000000e+00 0.000000e+00 0.000000e+00 0.000000e+00 2.181362e-04 -1.122090e-05 0.000000e+00 -1.122090e-05 -4.369773e-04 0.000000e+00 0.000000e+00 0.000000e+00 0.000000e+00 2.234300e-04 -1.140752e-05 0.000000e+00 -1.140752e-05 -4.117822e-04 0.000000e+00 0.000000e+00 0.000000e+00 0.000000e+00 2.287934e-04 -1.132956e-05 0.000000e+00 -1.132956e-05 -3.858692e-04 0.000000e+00 0.000000e+00 0.000000e+00 0.000000e+00 2.344046e-04 -1.199949e-05 0.000000e+00 -1.199949e-05 -3.597932e-04 0.000000e+00 0.000000e+00 0.000000e+00 0.000000e+00 2.418886e-04 -1.266130e-05 0.000000e+00 -1.266130e-05 -3.357678e-04 0.000000e+00 0.000000e+00 0.000000e+00 0.000000e+00 2.498074e-04 -1.301046e-05 0.000000e+00 -1.301046e-05 -3.125688e-04 0.000000e+00 0.000000e+00 0.000000e+00 0.000000e+00 2.590410e-04 -1.381812e-05 0.000000e+00 -1.381812e-05 -2.902574e-04 0.000000e+00 0.000000e+00 0.000000e+00 0.000000e+00 2.686601e-04 -1.421171e-05 0.000000e+00 -1.421171e-05 -2.684166e-04 0.000000e+00 0.000000e+00 0.000000e+00 0.000000e+00 2.786454e-04 -1.467339e-05 0.000000e+00 -1.467339e-05 -2.456580e-04 0.000000e+00 0.000000e+00 0.000000e+00 0.000000e+00 2.898316e-04 -1.533198e-05 0.000000e+00 -1.533198e-05 -2.236730e-04 0.000000e+00 0.000000e+00 0.000000e+00 0.000000e+00 3.022705e-04 -1.573379e-05 0.000000e+00 -1.573379e-05 -2.032874e-04 0.000000e+00 0.000000e+00 0.000000e+00 0.000000e+00 3.154991e-04 -1.618565e-05 0.000000e+00 -1.618565e-05 -1.835920e-04 0.000000e+00 0.000000e+00 0.000000e+00 0.000000e+00 3.293429e-04 -1.696975e-05 0.000000e+00 -1.696975e-05 -1.636419e-04 0.000000e+00 0.000000e+00 0.000000e+00 0.000000e+00 3.443468e-04 -1.767934e-05 0.000000e+00 -1.767934e-05 -1.434928e-04 0.000000e+00 0.000000e+00 0.000000e+00 0.000000e+00 3.592879e-04 -1.794661e-05 0.000000e+00 -1.794661e-05 -1.219096e-04 0.000000e+00 0.000000e+00 0.000000e+00 0.000000e+00 3.751848e-04 -1.859075e-05 0.000000e+00 -1.859075e-05 -9.964460e-05 0.000000e+00 0.000000e+00 0.000000e+00 0.000000e+00 3.923664e-04 -1.949708e-05 0.000000e+00 -1.949708e-05 -7.891808e-05 0.000000e+00 0.000000e+00 0.000000e+00 0.000000e+00 4.107903e-04 -2.022059e-05 0.000000e+00 -2.022059e-05 -5.809716e-05 0.000000e+00 0.000000e+00 0.000000e+00 0.000000e+00 4.294145e-04 -2.112989e-05 0.000000e+00 -2.112989e-05 -3.435238e-05 0.000000e+00 0.000000e+00 0.000000e+00 0.000000e+00 4.481999e-04 -2.260934e-05 0.000000e+00 -2.260934e-05 -8.738355e-06 0.000000e+00 0.000000e+00 0.000000e+00 0.000000e+00 4.688473e-04 -2.446926e-05 0.000000e+00 -2.446926e-05 1.676632e-05 0.000000e+00 0.000000e+00 0.000000e+00 0.000000e+00 4.922956e-04 -2.672164e-05 0.000000e+00 -2.672164e-05 4.097383e-05 0.000000e+00 0.000000e+00 0.000000e+00 0.000000e+00 5.180439e-04 -2.795287e-05 0.000000e+00 -2.795287e-05 6.569136e-05 0.000000e+00 0.000000e+00 0.000000e+00 0.000000e+00 5.444987e-04 -2.827733e-05 0.000000e+00 -2.827733e-05 9.497979e-05 0.000000e+00 0.000000e+00 0.000000e+00 0.000000e+00 5.718777e-04 -2.889142e-05 0.000000e+00 -2.889142e-05 1.276693e-04 0.000000e+00 0.000000e+00 0.000000e+00 0.000000e+00 6.021850e-04 -3.059308e-05 0.000000e+00 -3.059308e-05 1.603117e-04 0.000000e+00 0.000000e+00 0.000000e+00 0.000000e+00 6.331803e-04 -3.526479e-05 0.000000e+00 -3.526479e-05 1.965739e-04 0.000000e+00 0.000000e+00 0.000000e+00 0.000000e+00 6.710340e-04 -4.187766e-05 0.000000e+00 -4.187766e-05 2.349986e-04 0.000000e+00 0.000000e+00 0.000000e+00 0.000000e+00 7.134400e-04 -4.756616e-05 0.000000e+00 -4.756616e-05 2.768626e-04 0.000000e+00 0.000000e+00 0.000000e+00 0.000000e+00 7.626262e-04 -5.502465e-05 0.000000e+00 -5.502465e-05 3.236826e-04 0.000000e+00 0.000000e+00 0.000000e+00 0.000000e+00 8.213455e-04 -6.206745e-05 0.000000e+00 -6.206745e-05 3.798145e-04 0.000000e+00 0.000000e+00 0.000000e+00 0.000000e+00 8.891230e-04 -7.496893e-05 0.000000e+00 -7.496893e-05 4.480609e-04 0.000000e+00 0.000000e+00 0.000000e+00 0.000000e+00 9.689422e-04 -1.021036e-04 0.000000e+00 -1.021036e-04 5.278441e-04 0.000000e+00 0.000000e+00 0.000000e+00 0.000000e+00 1.071921e-03 -1.484758e-04 0.000000e+00 -1.484758e-04 6.306801e-04 0.000000e+00 0.000000e+00 0.000000e+00 0.000000e+00 1.207014e-03 -2.347012e-04 0.000000e+00 -2.347012e-04 7.792151e-04 0.000000e+00 0.000000e+00 0.000000e+00 0.000000e+00 1.363628e-03 -3.942714e-04 0.000000e+00 -3.942714e-04 1.034583e-03 0.000000e+00 0.000000e+00 0.000000e+00 0.000000e+00 1.452514e-03 -6.590439e-04 0.000000e+00 -6.590439e-04 1.587100e-03 0.000000e+00 0.000000e+00 0.000000e+00 0.000000e+00 2.012139e-04 -6.952226e-05 0.000000e+00 -6.952226e-05 -8.525963e-04 0.000000e+00 0.000000e+00 0.000000e+00 0.000000e+00 2.055675e-04 -2.783711e-05 0.000000e+00 -2.783711e-05 -7.519952e-04 0.000000e+00 0.000000e+00 0.000000e+00 0.000000e+00 2.091912e-04 -1.789107e-05 0.000000e+00 -1.789107e-05 -6.761139e-04 0.000000e+00 0.000000e+00 0.000000e+00 0.000000e+00 2.086830e-04 -1.605117e-05 0.000000e+00 -1.605117e-05 -6.061105e-04 0.000000e+00 0.000000e+00 0.000000e+00 0.000000e+00 2.079800e-04 -1.684170e-05 0.000000e+00 -1.684170e-05 -5.396913e-04 0.000000e+00 0.000000e+00 0.000000e+00 0.000000e+00 2.125866e-04 -1.852951e-05 0.000000e+00 -1.852951e-05 -4.787940e-04 0.000000e+00 0.000000e+00 0.000000e+00 0.000000e+00 2.205355e-04 -1.840820e-05 0.000000e+00 -1.840820e-05 -4.241981e-04 0.000000e+00 0.000000e+00 0.000000e+00 0.000000e+00 2.311561e-04 -1.993354e-05 0.000000e+00 -1.993354e-05 -3.724112e-04 0.000000e+00 0.000000e+00 0.000000e+00 0.000000e+00 2.453294e-04 -2.115221e-05 0.000000e+00 -2.115221e-05 -3.238648e-04 0.000000e+00 0.000000e+00 0.000000e+00 0.000000e+00 2.619685e-04 -2.470836e-05 0.000000e+00 -2.470836e-05 -2.784973e-04 0.000000e+00 0.000000e+00 0.000000e+00 0.000000e+00 2.833906e-04 -2.738854e-05 0.000000e+00 -2.738854e-05 -2.344515e-04 0.000000e+00 0.000000e+00 0.000000e+00 0.000000e+00 3.073254e-04 -2.878100e-05 0.000000e+00 -2.878100e-05 -1.928080e-04 0.000000e+00 0.000000e+00 0.000000e+00 0.000000e+00 3.346539e-04 -3.253385e-05 0.000000e+00 -3.253385e-05 -1.528890e-04 0.000000e+00 0.000000e+00 0.000000e+00 0.000000e+00 3.652914e-04 -3.497576e-05 0.000000e+00 -3.497576e-05 -1.104726e-04 0.000000e+00 0.000000e+00 0.000000e+00 0.000000e+00 3.989953e-04 -3.593030e-05 0.000000e+00 -3.593030e-05 -6.707523e-05 0.000000e+00 0.000000e+00 0.000000e+00 0.000000e+00 4.355277e-04 -4.145410e-05 0.000000e+00 -4.145410e-05 -2.005136e-05 0.000000e+00 0.000000e+00 0.000000e+00 0.000000e+00 4.772235e-04 -4.747250e-05 0.000000e+00 -4.747250e-05 3.128683e-05 0.000000e+00 0.000000e+00 0.000000e+00 0.000000e+00 5.249369e-04 -5.416199e-05 0.000000e+00 -5.416199e-05 8.464333e-05 0.000000e+00 0.000000e+00 0.000000e+00 0.000000e+00 5.826868e-04 -5.438206e-05 0.000000e+00 -5.438206e-05 1.468534e-04 0.000000e+00 0.000000e+00 0.000000e+00 0.000000e+00 6.413936e-04 -7.245858e-05 0.000000e+00 -7.245858e-05 2.197800e-04 0.000000e+00 0.000000e+00 0.000000e+00 0.000000e+00 7.187069e-04 -9.613979e-05 0.000000e+00 -9.613979e-05 3.105044e-04 0.000000e+00 0.000000e+00 0.000000e+00 0.000000e+00 8.288125e-04 -1.147974e-04 0.000000e+00 -1.147974e-04 4.250438e-04 0.000000e+00 0.000000e+00 0.000000e+00 0.000000e+00 9.417557e-04 -1.895998e-04 0.000000e+00 -1.895998e-04 6.081575e-04 0.000000e+00 0.000000e+00 0.000000e+00 0.000000e+00 1.022518e-03 -3.413038e-04 0.000000e+00 -3.413038e-04 9.805953e-04 0.000000e+00 0.000000e+00 0.000000e+00 0.000000e+00 6.692114e-04 -1.269236e-04 0.000000e+00 -1.269236e-04 1.971642e-03 0.000000e+00 0.000000e+00 0.000000e+00 0.000000e+00 4.032217e-04 7.599952e-05 0.000000e+00 7.599952e-05 -1.043252e-04 0.000000e+00 0.000000e+00 0.000000e+00 0.000000e+00 2.973158e-04 5.328795e-05 0.000000e+00 5.328795e-05 -8.809340e-05 0.000000e+00 0.000000e+00 0.000000e+00 0.000000e+00 2.243447e-04 5.374842e-05 0.000000e+00 5.374842e-05 -6.936951e-05 0.000000e+00 0.000000e+00 0.000000e+00 0.000000e+00 1.586328e-04 6.242342e-05 0.000000e+00 6.242342e-05 -4.617280e-05 0.000000e+00 0.000000e+00 0.000000e+00 0.000000e+00 1.842476e-04 8.367333e-05 0.000000e+00 8.367333e-05 -4.159306e-05 0.000000e+00 0.000000e+00 0.000000e+00 0.000000e+00 1.719499e-04 8.640890e-05 0.000000e+00 8.640890e-05 -2.959590e-05 0.000000e+00 0.000000e+00 0.000000e+00 0.000000e+00 7.248854e-05 7.136922e-05 0.000000e+00 7.136922e-05 -1.525704e-05 0.000000e+00 0.000000e+00 0.000000e+00 0.000000e+00 -2.309817e-05 2.063406e-05 0.000000e+00 2.063406e-05 1.650309e-05 0.000000e+00 0.000000e+00 0.000000e+00 0.000000e+00 -2.380258e-05 -1.411910e-05 0.000000e+00 -1.411910e-05 9.826886e-06 0.000000e+00 0.000000e+00 0.000000e+00 0.000000e+00 2.031094e-06 -1.032853e-05 0.000000e+00 -1.032853e-05 -8.984352e-06 0.000000e+00 0.000000e+00 0.000000e+00 0.000000e+00 1.164651e-05 4.714957e-06 0.000000e+00 4.714957e-06 -2.070255e-05 0.000000e+00 0.000000e+00 0.000000e+00 0.000000e+00 4.036015e-07 1.470482e-05 0.000000e+00 1.470482e-05 -3.538454e-06 0.000000e+00 0.000000e+00 0.000000e+00 0.000000e+00 -6.292607e-06 3.651889e-06 0.000000e+00 3.651889e-06 9.792415e-06 0.000000e+00 0.000000e+00 0.000000e+00 0.000000e+00 -2.770462e-06 -5.502943e-06 0.000000e+00 -5.502943e-06 3.824077e-06 0.000000e+00 0.000000e+00 0.000000e+00 0.000000e+00 3.031179e-06 -5.086785e-06 0.000000e+00 -5.086785e-06 -1.091863e-06 0.000000e+00 0.000000e+00 0.000000e+00 0.000000e+00 5.049589e-06 2.701372e-06 0.000000e+00 2.701372e-06 -7.948114e-06 0.000000e+00 0.000000e+00 0.000000e+00 0.000000e+00 -3.564787e-05 4.211367e-05 0.000000e+00 4.211367e-05 1.217185e-06 0.000000e+00 0.000000e+00 0.000000e+00 0.000000e+00 -1.447408e-04 8.376781e-05 0.000000e+00 8.376781e-05 3.909519e-05 0.000000e+00 0.000000e+00 0.000000e+00 0.000000e+00 -2.799467e-04 8.506775e-05 0.000000e+00 8.506775e-05 9.055654e-05 0.000000e+00 0.000000e+00 0.000000e+00 0.000000e+00 -3.667215e-04 2.430305e-05 0.000000e+00 2.430305e-05 1.326139e-04 0.000000e+00 0.000000e+00 0.000000e+00 0.000000e+00 -2.911835e-04 -1.014771e-04 0.000000e+00 -1.014771e-04 1.082454e-04 0.000000e+00 0.000000e+00 0.000000e+00 0.000000e+00 -1.655194e-04 -1.252044e-04 0.000000e+00 -1.252044e-04 4.542085e-05 0.000000e+00 0.000000e+00 0.000000e+00 0.000000e+00 -4.381085e-05 -8.794272e-05 0.000000e+00 -8.794272e-05 -2.723392e-05 0.000000e+00 0.000000e+00 0.000000e+00 0.000000e+00 2.784170e-05 -1.210800e-04 0.000000e+00 -1.210800e-04 -1.432856e-04 0.000000e+00 0.000000e+00 0.000000e+00 0.000000e+00 1.566237e-05 2.195056e-05 0.000000e+00 2.195056e-05 -1.795913e-05 0.000000e+00 0.000000e+00 0.000000e+00 0.000000e+00 2.658281e-05 8.740764e-06 0.000000e+00 8.740764e-06 -2.072755e-05 0.000000e+00 0.000000e+00 0.000000e+00 0.000000e+00 2.901335e-05 -7.999784e-06 0.000000e+00 -7.999784e-06 -1.555735e-05 0.000000e+00 0.000000e+00 0.000000e+00 0.000000e+00 2.252983e-05 -1.980825e-05 0.000000e+00 -1.980825e-05 3.323171e-07 0.000000e+00 0.000000e+00 0.000000e+00 0.000000e+00 5.727198e-06 -1.659554e-05 0.000000e+00 -1.659554e-05 2.160507e-05 0.000000e+00 0.000000e+00 0.000000e+00 0.000000e+00 -8.564787e-06 5.454409e-06 0.000000e+00 5.454409e-06 3.904053e-05 0.000000e+00 0.000000e+00 0.000000e+00 0.000000e+00 -9.160803e-06 4.241306e-05 0.000000e+00 4.241306e-05 4.807142e-05 0.000000e+00 0.000000e+00 0.000000e+00 0.000000e+00 3.753477e-06 8.797916e-05 0.000000e+00 8.797916e-05 4.559651e-05 0.000000e+00 0.000000e+00 0.000000e+00 0.000000e+00 3.060344e-05 1.343329e-04 0.000000e+00 1.343329e-04 3.144444e-05 0.000000e+00 0.000000e+00 0.000000e+00 0.000000e+00 6.604095e-05 1.691661e-04 0.000000e+00 1.691661e-04 1.151959e-05 0.000000e+00 0.000000e+00 0.000000e+00 0.000000e+00 9.135463e-05 1.905952e-04 0.000000e+00 1.905952e-04 -9.643949e-06 0.000000e+00 0.000000e+00 0.000000e+00 0.000000e+00 9.860440e-05 2.006007e-04 0.000000e+00 2.006007e-04 -2.387832e-05 0.000000e+00 0.000000e+00 0.000000e+00 0.000000e+00 8.669052e-05 2.050384e-04 0.000000e+00 2.050384e-04 -2.663956e-05 0.000000e+00 0.000000e+00 0.000000e+00 0.000000e+00 5.864624e-05 2.064264e-04 0.000000e+00 2.064264e-04 -1.896431e-05 0.000000e+00 0.000000e+00 0.000000e+00 0.000000e+00 2.010328e-05 2.103512e-04 0.000000e+00 2.103512e-04 -5.588002e-06 0.000000e+00 0.000000e+00 0.000000e+00 0.000000e+00 -1.634805e-05 2.181520e-04 0.000000e+00 2.181520e-04 3.673678e-06 0.000000e+00 0.000000e+00 0.000000e+00 0.000000e+00 -3.702447e-05 2.253443e-04 0.000000e+00 2.253443e-04 -1.375552e-06 0.000000e+00 0.000000e+00 0.000000e+00 0.000000e+00 -3.807026e-05 2.228321e-04 0.000000e+00 2.228321e-04 -2.178771e-05 0.000000e+00 0.000000e+00 0.000000e+00 0.000000e+00 -2.366483e-05 2.046472e-04 0.000000e+00 2.046472e-04 -4.728534e-05 0.000000e+00 0.000000e+00 0.000000e+00 0.000000e+00 -4.106565e-06 1.711825e-04 0.000000e+00 1.711825e-04 -6.878602e-05 0.000000e+00 0.000000e+00 0.000000e+00 0.000000e+00 1.486528e-05 1.314208e-04 0.000000e+00 1.314208e-04 -8.477505e-05 0.000000e+00 0.000000e+00 0.000000e+00 0.000000e+00 2.711585e-05 8.553555e-05 0.000000e+00 8.553555e-05 -9.274387e-05 0.000000e+00 0.000000e+00 0.000000e+00 0.000000e+00 2.508458e-05 4.248618e-05 0.000000e+00 4.248618e-05 -8.370082e-05 0.000000e+00 0.000000e+00 0.000000e+00 0.000000e+00 1.101283e-05 1.254272e-05 0.000000e+00 1.254272e-05 -6.063582e-05 0.000000e+00 0.000000e+00 0.000000e+00 0.000000e+00 -3.750080e-06 4.250798e-06 0.000000e+00 4.250798e-06 -3.505462e-05 0.000000e+00 0.000000e+00 0.000000e+00 0.000000e+00 -1.035856e-05 1.109982e-05 0.000000e+00 1.109982e-05 -1.813927e-05 0.000000e+00 0.000000e+00 0.000000e+00 0.000000e+00 -7.018886e-06 2.057311e-05 0.000000e+00 2.057311e-05 -1.125273e-05 0.000000e+00 0.000000e+00 0.000000e+00 0.000000e+00 2.770521e-06 2.582202e-05 0.000000e+00 2.582202e-05 -1.274148e-05 0.000000e+00 0.000000e+00 0.000000e+00 0.000000e+00 2.010539e-04 -4.316194e-05 0.000000e+00 -4.316194e-05 -7.927670e-04 0.000000e+00 0.000000e+00 0.000000e+00 0.000000e+00 2.085317e-04 -2.114450e-05 0.000000e+00 -2.114450e-05 -7.132758e-04 0.000000e+00 0.000000e+00 0.000000e+00 0.000000e+00 2.089964e-04 -1.687548e-05 0.000000e+00 -1.687548e-05 -6.408194e-04 0.000000e+00 0.000000e+00 0.000000e+00 0.000000e+00 2.080176e-04 -1.607867e-05 0.000000e+00 -1.607867e-05 -5.724983e-04 0.000000e+00 0.000000e+00 0.000000e+00 0.000000e+00 2.098340e-04 -1.796303e-05 0.000000e+00 -1.796303e-05 -5.087652e-04 0.000000e+00 0.000000e+00 0.000000e+00 0.000000e+00 2.166251e-04 -1.849252e-05 0.000000e+00 -1.849252e-05 -4.510905e-04 0.000000e+00 0.000000e+00 0.000000e+00 0.000000e+00 2.250479e-04 -1.913180e-05 0.000000e+00 -1.913180e-05 -3.979046e-04 0.000000e+00 0.000000e+00 0.000000e+00 0.000000e+00 2.377720e-04 -2.099103e-05 0.000000e+00 -2.099103e-05 -3.478857e-04 0.000000e+00 0.000000e+00 0.000000e+00 0.000000e+00 2.534855e-04 -2.288187e-05 0.000000e+00 -2.288187e-05 -3.006023e-04 0.000000e+00 0.000000e+00 0.000000e+00 0.000000e+00 2.721684e-04 -2.652424e-05 0.000000e+00 -2.652424e-05 -2.564208e-04 0.000000e+00 0.000000e+00 0.000000e+00 0.000000e+00 2.950004e-04 -2.794498e-05 0.000000e+00 -2.794498e-05 -2.132472e-04 0.000000e+00 0.000000e+00 0.000000e+00 0.000000e+00 3.204388e-04 -3.086387e-05 0.000000e+00 -3.086387e-05 -1.726955e-04 0.000000e+00 0.000000e+00 0.000000e+00 0.000000e+00 3.492678e-04 -3.394605e-05 0.000000e+00 -3.394605e-05 -1.316386e-04 0.000000e+00 0.000000e+00 0.000000e+00 0.000000e+00 3.825374e-04 -3.448785e-05 0.000000e+00 -3.448785e-05 -8.918802e-05 0.000000e+00 0.000000e+00 0.000000e+00 0.000000e+00 4.167048e-04 -3.844197e-05 0.000000e+00 -3.844197e-05 -4.466095e-05 0.000000e+00 0.000000e+00 0.000000e+00 0.000000e+00 4.561261e-04 -4.436536e-05 0.000000e+00 -4.436536e-05 6.080453e-06 0.000000e+00 0.000000e+00 0.000000e+00 0.000000e+00 5.005461e-04 -5.137153e-05 0.000000e+00 -5.137153e-05 5.702282e-05 0.000000e+00 0.000000e+00 0.000000e+00 0.000000e+00 5.525045e-04 -5.502642e-05 0.000000e+00 -5.502642e-05 1.147802e-04 0.000000e+00 0.000000e+00 0.000000e+00 0.000000e+00 6.103999e-04 -6.087636e-05 0.000000e+00 -6.087636e-05 1.819265e-04 0.000000e+00 0.000000e+00 0.000000e+00 0.000000e+00 6.779719e-04 -8.433871e-05 0.000000e+00 -8.433871e-05 2.636745e-04 0.000000e+00 0.000000e+00 0.000000e+00 0.000000e+00 7.683724e-04 -1.060421e-04 0.000000e+00 -1.060421e-04 3.631631e-04 0.000000e+00 0.000000e+00 0.000000e+00 0.000000e+00 8.846729e-04 -1.422499e-04 0.000000e+00 -1.422499e-04 5.056238e-04 0.000000e+00 0.000000e+00 0.000000e+00 0.000000e+00 9.972683e-04 -2.537301e-04 0.000000e+00 -2.537301e-04 7.531455e-04 0.000000e+00 0.000000e+00 0.000000e+00 0.000000e+00 9.597883e-04 -4.106792e-04 0.000000e+00 -4.106792e-04 1.355805e-03 0.000000e+00 0.000000e+00 0.000000e+00 0.000000e+00 4.913737e-04 1.171899e-04 0.000000e+00 1.171899e-04 -1.398029e-04 0.000000e+00 0.000000e+00 0.000000e+00 0.000000e+00 3.442117e-04 5.907031e-05 0.000000e+00 5.907031e-05 -9.827973e-05 0.000000e+00 0.000000e+00 0.000000e+00 0.000000e+00 2.586197e-04 5.241382e-05 0.000000e+00 5.241382e-05 -7.798781e-05 0.000000e+00 0.000000e+00 0.000000e+00 0.000000e+00 1.927163e-04 5.710006e-05 0.000000e+00 5.710006e-05 -6.162509e-05 0.000000e+00 0.000000e+00 0.000000e+00 0.000000e+00 1.637176e-04 9.203795e-05 0.000000e+00 9.203795e-05 -2.723448e-05 0.000000e+00 0.000000e+00 0.000000e+00 0.000000e+00 1.259092e-04 7.925521e-05 0.000000e+00 7.925521e-05 -2.957940e-05 0.000000e+00 0.000000e+00 0.000000e+00 0.000000e+00 1.825700e-05 5.350395e-05 0.000000e+00 5.350395e-05 4.844711e-06 0.000000e+00 0.000000e+00 0.000000e+00 0.000000e+00 -3.355754e-05 -1.917423e-06 0.000000e+00 -1.917423e-06 1.727436e-05 0.000000e+00 0.000000e+00 0.000000e+00 0.000000e+00 -8.889218e-06 -1.543494e-05 0.000000e+00 -1.543494e-05 -7.375362e-08 0.000000e+00 0.000000e+00 0.000000e+00 0.000000e+00 1.069154e-05 -5.618232e-06 0.000000e+00 -5.618232e-06 -1.935774e-05 0.000000e+00 0.000000e+00 0.000000e+00 0.000000e+00 6.910379e-06 1.236644e-05 0.000000e+00 1.236644e-05 -1.388249e-05 0.000000e+00 0.000000e+00 0.000000e+00 0.000000e+00 -4.986563e-06 1.084762e-05 0.000000e+00 1.084762e-05 4.546974e-06 0.000000e+00 0.000000e+00 0.000000e+00 0.000000e+00 -5.562852e-06 -2.013673e-06 0.000000e+00 -2.013673e-06 8.137090e-06 0.000000e+00 0.000000e+00 0.000000e+00 0.000000e+00 -2.104465e-04 9.168769e-05 0.000000e+00 9.168769e-05 6.306699e-05 0.000000e+00 0.000000e+00 0.000000e+00 0.000000e+00 -6.033596e-06 2.039335e-05 0.000000e+00 2.039335e-05 -7.614207e-06 0.000000e+00 0.000000e+00 0.000000e+00 0.000000e+00 -8.344951e-05 6.465561e-05 0.000000e+00 6.465561e-05 1.649586e-05 0.000000e+00 0.000000e+00 0.000000e+00 0.000000e+00 -3.350043e-04 6.425309e-05 0.000000e+00 6.425309e-05 1.140591e-04 0.000000e+00 0.000000e+00 0.000000e+00 0.000000e+00 -3.477157e-04 -4.656472e-05 0.000000e+00 -4.656472e-05 1.373207e-04 0.000000e+00 0.000000e+00 0.000000e+00 0.000000e+00 7.205798e-05 -1.384551e-04 0.000000e+00 -1.384551e-04 -2.596579e-04 0.000000e+00 0.000000e+00 0.000000e+00 0.000000e+00 2.165029e-04 -3.094490e-05 0.000000e+00 -3.094490e-05 -6.634081e-04 0.000000e+00 0.000000e+00 0.000000e+00 0.000000e+00 2.098955e-04 -3.055701e-05 0.000000e+00 -3.055701e-05 -5.907782e-04 0.000000e+00 0.000000e+00 0.000000e+00 0.000000e+00 2.252320e-04 -4.261916e-05 0.000000e+00 -4.261916e-05 -3.820382e-04 0.000000e+00 0.000000e+00 0.000000e+00 0.000000e+00 2.184049e-04 -3.738408e-05 0.000000e+00 -3.738408e-05 -4.377859e-04 0.000000e+00 0.000000e+00 0.000000e+00 0.000000e+00 2.119294e-04 -3.085126e-05 0.000000e+00 -3.085126e-05 -6.259378e-04 0.000000e+00 0.000000e+00 0.000000e+00 0.000000e+00 2.208828e-04 -3.859979e-05 0.000000e+00 -3.859979e-05 -4.088683e-04 0.000000e+00 0.000000e+00 0.000000e+00 0.000000e+00 2.143065e-04 -3.899955e-05 0.000000e+00 -3.899955e-05 -4.642275e-04 0.000000e+00 0.000000e+00 0.000000e+00 0.000000e+00 2.969418e-04 -5.575286e-05 0.000000e+00 -5.575286e-05 -2.012759e-04 0.000000e+00 0.000000e+00 0.000000e+00 0.000000e+00 2.747253e-04 -5.511789e-05 0.000000e+00 -5.511789e-05 -2.445088e-04 0.000000e+00 0.000000e+00 0.000000e+00 0.000000e+00 7.780189e-04 -2.714147e-04 0.000000e+00 -2.714147e-04 6.049816e-04 0.000000e+00 0.000000e+00 0.000000e+00 0.000000e+00 2.871136e-04 -5.542819e-05 0.000000e+00 -5.542819e-05 -2.233371e-04 0.000000e+00 0.000000e+00 0.000000e+00 0.000000e+00 2.638611e-04 -5.335705e-05 0.000000e+00 -5.335705e-05 -2.664966e-04 0.000000e+00 0.000000e+00 0.000000e+00 0.000000e+00 3.514250e-04 -6.973166e-05 0.000000e+00 -6.973166e-05 -1.179564e-04 0.000000e+00 0.000000e+00 0.000000e+00 0.000000e+00 3.857537e-04 -7.113452e-05 0.000000e+00 -7.113452e-05 -7.547794e-05 0.000000e+00 0.000000e+00 0.000000e+00 0.000000e+00 3.674469e-04 -7.109949e-05 0.000000e+00 -7.109949e-05 -9.709463e-05 0.000000e+00 0.000000e+00 0.000000e+00 0.000000e+00 3.352277e-04 -6.765464e-05 0.000000e+00 -6.765464e-05 -1.395230e-04 0.000000e+00 0.000000e+00 0.000000e+00 0.000000e+00 4.370121e-04 -8.817818e-05 0.000000e+00 -8.817818e-05 -2.461649e-06 0.000000e+00 0.000000e+00 0.000000e+00 0.000000e+00 5.514889e-04 -1.121876e-04 0.000000e+00 -1.121876e-04 1.450215e-04 0.000000e+00 0.000000e+00 0.000000e+00 0.000000e+00 4.778758e-04 -9.783865e-05 0.000000e+00 -9.783865e-05 5.325477e-05 0.000000e+00 0.000000e+00 0.000000e+00 0.000000e+00 5.213700e-04 -1.100359e-04 0.000000e+00 -1.100359e-04 1.145178e-04 0.000000e+00 0.000000e+00 0.000000e+00 0.000000e+00 7.217289e-04 -2.090037e-04 0.000000e+00 -2.090037e-04 4.390771e-04 0.000000e+00 0.000000e+00 0.000000e+00 0.000000e+00 6.510780e-04 -1.708541e-04 0.000000e+00 -1.708541e-04 3.125277e-04 0.000000e+00 0.000000e+00 0.000000e+00 0.000000e+00 4.968833e-04 -1.053142e-04 0.000000e+00 -1.053142e-04 8.295848e-05 0.000000e+00 0.000000e+00 0.000000e+00 0.000000e+00 6.811573e-04 -1.925137e-04 0.000000e+00 -1.925137e-04 3.730899e-04 0.000000e+00 0.000000e+00 0.000000e+00 0.000000e+00 6.216969e-04 -1.493191e-04 0.000000e+00 -1.493191e-04 2.568393e-04 0.000000e+00 0.000000e+00 0.000000e+00 0.000000e+00 7.871878e-04 -2.222277e-04 0.000000e+00 -2.222277e-04 4.972816e-04 0.000000e+00 0.000000e+00 0.000000e+00 0.000000e+00 3.263596e-04 1.212057e-04 0.000000e+00 1.212057e-04 -8.289782e-05 0.000000e+00 0.000000e+00 0.000000e+00 0.000000e+00 3.644655e-04 -1.384074e-04 0.000000e+00 -1.384074e-04 1.635239e-03 0.000000e+00 0.000000e+00 0.000000e+00 0.000000e+00 2.468881e-04 9.485181e-05 0.000000e+00 9.485181e-05 -7.420849e-05 0.000000e+00 0.000000e+00 0.000000e+00 0.000000e+00 3.826585e-04 1.561092e-04 0.000000e+00 1.561092e-04 -7.887324e-05 0.000000e+00 0.000000e+00 0.000000e+00 0.000000e+00 4.508863e-04 2.395015e-04 0.000000e+00 2.395015e-04 -5.330659e-05 0.000000e+00 0.000000e+00 0.000000e+00 0.000000e+00 5.967546e-04 -3.525120e-04 0.000000e+00 -3.525120e-04 1.271027e-03 0.000000e+00 0.000000e+00 0.000000e+00 0.000000e+00 2.818805e-04 1.042815e-04 0.000000e+00 1.042815e-04 -7.892766e-05 0.000000e+00 0.000000e+00 0.000000e+00 0.000000e+00 7.387330e-04 3.760173e-04 0.000000e+00 3.760173e-04 -1.521918e-04 0.000000e+00 0.000000e+00 0.000000e+00 0.000000e+00 1.003356e-04 1.242828e-04 0.000000e+00 1.242828e-04 -1.502711e-05 0.000000e+00 0.000000e+00 0.000000e+00 0.000000e+00 1.987215e-04 8.318417e-05 0.000000e+00 8.318417e-05 -6.212361e-05 0.000000e+00 0.000000e+00 0.000000e+00 0.000000e+00 1.332130e-04 1.146557e-04 0.000000e+00 1.146557e-04 -2.036012e-05 0.000000e+00 0.000000e+00 0.000000e+00 0.000000e+00 -2.732182e-06 -7.454978e-07 0.000000e+00 -7.454978e-07 -9.348889e-06 0.000000e+00 0.000000e+00 0.000000e+00 0.000000e+00 5.985015e-05 1.199104e-04 0.000000e+00 1.199104e-04 2.683328e-06 0.000000e+00 0.000000e+00 0.000000e+00 0.000000e+00 -7.539170e-06 8.349261e-06 0.000000e+00 8.349261e-06 -1.331373e-06 0.000000e+00 0.000000e+00 0.000000e+00 0.000000e+00 1.484448e-05 1.292843e-05 0.000000e+00 1.292843e-05 -1.822493e-05 0.000000e+00 0.000000e+00 0.000000e+00 0.000000e+00 -9.426804e-06 -1.161987e-05 0.000000e+00 -1.161987e-05 1.570737e-05 0.000000e+00 0.000000e+00 0.000000e+00 0.000000e+00 5.876129e-09 -2.069428e-05 0.000000e+00 -2.069428e-05 -7.521279e-08 0.000000e+00 0.000000e+00 0.000000e+00 0.000000e+00 2.238357e-04 -3.977855e-05 0.000000e+00 -3.977855e-05 -7.424673e-04 0.000000e+00 0.000000e+00 0.000000e+00 0.000000e+00 8.787207e-06 -1.543363e-05 0.000000e+00 -1.543363e-05 -1.091153e-05 0.000000e+00 0.000000e+00 0.000000e+00 0.000000e+00 1.850501e-05 -3.014922e-06 0.000000e+00 -3.014922e-06 -1.813564e-05 0.000000e+00 0.000000e+00 0.000000e+00 0.000000e+00 -9.238860e-05 1.234796e-04 0.000000e+00 1.234796e-04 1.454759e-05 0.000000e+00 0.000000e+00 0.000000e+00 0.000000e+00 -5.897569e-06 2.195065e-06 0.000000e+00 2.195065e-06 -4.977482e-06 0.000000e+00 0.000000e+00 0.000000e+00 0.000000e+00 -5.078350e-05 9.167330e-05 0.000000e+00 9.167330e-05 -3.635900e-06 0.000000e+00 0.000000e+00 0.000000e+00 0.000000e+00 -1.351353e-04 1.503683e-04 0.000000e+00 1.503683e-04 3.736491e-05 0.000000e+00 0.000000e+00 0.000000e+00 0.000000e+00 -1.321863e-07 5.146105e-07 0.000000e+00 5.146105e-07 -9.077825e-06 0.000000e+00 0.000000e+00 0.000000e+00 0.000000e+00 -2.246377e-04 1.262892e-04 0.000000e+00 1.262892e-04 9.214607e-05 0.000000e+00 0.000000e+00 0.000000e+00 0.000000e+00 -2.476591e-04 -1.393897e-04 0.000000e+00 -1.393897e-04 1.433372e-04 0.000000e+00 0.000000e+00 0.000000e+00 0.000000e+00 -1.942355e-05 5.617575e-05 0.000000e+00 5.617575e-05 -1.533913e-05 0.000000e+00 0.000000e+00 0.000000e+00 0.000000e+00 -1.839827e-04 1.474907e-04 0.000000e+00 1.474907e-04 6.541820e-05 0.000000e+00 0.000000e+00 0.000000e+00 0.000000e+00 -1.815238e-04 -1.970611e-04 0.000000e+00 -1.970611e-04 8.337861e-05 0.000000e+00 0.000000e+00 0.000000e+00 0.000000e+00 1.781397e-05 -2.189641e-04 0.000000e+00 -2.189641e-04 -1.485338e-04 0.000000e+00 0.000000e+00 0.000000e+00 0.000000e+00 -9.770548e-05 -2.056460e-04 0.000000e+00 -2.056460e-04 4.647495e-06 0.000000e+00 0.000000e+00 0.000000e+00 0.000000e+00 2.198607e-04 -3.308483e-05 0.000000e+00 -3.308483e-05 -7.015318e-04 0.000000e+00 0.000000e+00 0.000000e+00 0.000000e+00 4.580438e-04 -9.138405e-05 0.000000e+00 -9.138405e-05 2.399143e-05 0.000000e+00 0.000000e+00 0.000000e+00 0.000000e+00 4.442710e-04 7.078835e-04 0.000000e+00 7.078835e-04 1.557318e-03 0.000000e+00 0.000000e+00 0.000000e+00 0.000000e+00 -2.644033e-06 2.301226e-05 0.000000e+00 2.301226e-05 -1.914024e-05 0.000000e+00 0.000000e+00 0.000000e+00 0.000000e+00 1.262663e-04 -1.058758e-04 0.000000e+00 -1.058758e-04 -4.019978e-04 0.000000e+00 0.000000e+00 0.000000e+00 0.000000e+00 2.391351e-04 -4.340573e-05 0.000000e+00 -4.340573e-05 -3.346880e-04 0.000000e+00 0.000000e+00 0.000000e+00 0.000000e+00 1.807111e-05 -1.738974e-05 0.000000e+00 -1.738974e-05 -9.505795e-06 0.000000e+00 0.000000e+00 0.000000e+00 0.000000e+00 8.798066e-06 -2.184081e-05 0.000000e+00 -2.184081e-05 5.478935e-06 0.000000e+00 0.000000e+00 0.000000e+00 0.000000e+00 -1.414661e-05 1.410224e-05 0.000000e+00 1.410224e-05 2.532280e-05 0.000000e+00 0.000000e+00 0.000000e+00 0.000000e+00 2.362770e-05 9.136759e-05 0.000000e+00 9.136759e-05 2.082805e-05 0.000000e+00 0.000000e+00 0.000000e+00 0.000000e+00 9.239901e-05 1.619086e-04 0.000000e+00 1.619086e-04 -8.756068e-06 0.000000e+00 0.000000e+00 0.000000e+00 0.000000e+00 1.080543e-04 1.947312e-04 0.000000e+00 1.947312e-04 -2.839371e-05 0.000000e+00 0.000000e+00 0.000000e+00 0.000000e+00 4.037100e-05 2.101388e-04 0.000000e+00 2.101388e-04 -5.340938e-06 0.000000e+00 0.000000e+00 0.000000e+00 0.000000e+00 -4.149725e-05 2.195561e-04 0.000000e+00 2.195561e-04 1.597605e-05 0.000000e+00 0.000000e+00 0.000000e+00 0.000000e+00 -5.879556e-05 2.158243e-04 0.000000e+00 2.158243e-04 7.616858e-06 0.000000e+00 0.000000e+00 0.000000e+00 0.000000e+00 -5.657290e-05 2.003032e-04 0.000000e+00 2.003032e-04 -1.121380e-05 0.000000e+00 0.000000e+00 0.000000e+00 0.000000e+00 -3.858171e-05 1.737838e-04 0.000000e+00 1.737838e-04 -3.179491e-05 0.000000e+00 0.000000e+00 0.000000e+00 0.000000e+00 3.346694e-06 9.646712e-05 0.000000e+00 9.646712e-05 -6.180203e-05 0.000000e+00 0.000000e+00 0.000000e+00 0.000000e+00 1.365733e-05 5.650464e-05 0.000000e+00 5.650464e-05 -6.383069e-05 0.000000e+00 0.000000e+00 0.000000e+00 0.000000e+00 9.085615e-06 2.199271e-05 0.000000e+00 2.199271e-05 -5.043119e-05 0.000000e+00 0.000000e+00 0.000000e+00 0.000000e+00 -7.927463e-06 6.747111e-06 0.000000e+00 6.747111e-06 -1.504804e-05 0.000000e+00 0.000000e+00 0.000000e+00 0.000000e+00 -7.646884e-06 1.437600e-05 0.000000e+00 1.437600e-05 -6.838346e-06 0.000000e+00 0.000000e+00 0.000000e+00 0.000000e+00 7.894175e-04 7.384647e-04 0.000000e+00 7.384647e-04 4.229789e-04 0.000000e+00 0.000000e+00 0.000000e+00 0.000000e+00 4.765245e-04 3.998509e-04 0.000000e+00 3.998509e-04 8.261558e-05 0.000000e+00 0.000000e+00 0.000000e+00 0.000000e+00 1.023561e-04 -1.947650e-04 0.000000e+00 -1.947650e-04 -3.172224e-04 0.000000e+00 0.000000e+00 0.000000e+00 0.000000e+00 5.017147e-04 6.118895e-04 0.000000e+00 6.118895e-04 3.468413e-04 0.000000e+00 0.000000e+00 0.000000e+00 0.000000e+00 2.521422e-04 -6.165805e-05 0.000000e+00 -6.165805e-05 -8.465947e-04 0.000000e+00 0.000000e+00 0.000000e+00 0.000000e+00 2.078154e-04 -3.604819e-05 0.000000e+00 -3.604819e-05 -5.227430e-04 0.000000e+00 0.000000e+00 0.000000e+00 0.000000e+00 3.094189e-04 -6.020552e-05 0.000000e+00 -6.020552e-05 -1.805580e-04 0.000000e+00 0.000000e+00 0.000000e+00 0.000000e+00 2.344504e-04 -4.424900e-05 0.000000e+00 -4.424900e-05 -3.599780e-04 0.000000e+00 0.000000e+00 0.000000e+00 0.000000e+00 3.986144e-04 -7.646700e-05 0.000000e+00 -7.646700e-05 -5.140029e-05 0.000000e+00 0.000000e+00 0.000000e+00 0.000000e+00 5.824163e-04 -1.067738e-04 0.000000e+00 -1.067738e-04 1.709026e-04 0.000000e+00 0.000000e+00 0.000000e+00 0.000000e+00 1.939331e-04 3.494979e-04 0.000000e+00 3.494979e-04 1.649482e-03 0.000000e+00 0.000000e+00 0.000000e+00 0.000000e+00 2.195216e-04 8.903890e-05 0.000000e+00 8.903890e-05 -6.984887e-05 0.000000e+00 0.000000e+00 0.000000e+00 0.000000e+00 7.731293e-04 -3.255457e-04 0.000000e+00 -3.255457e-04 7.563445e-04 0.000000e+00 0.000000e+00 0.000000e+00 0.000000e+00 -2.560879e-04 8.510183e-05 0.000000e+00 8.510183e-05 1.211147e-04 0.000000e+00 0.000000e+00 0.000000e+00 0.000000e+00 1.802047e-04 9.904898e-05 0.000000e+00 9.904898e-05 -4.655092e-05 0.000000e+00 0.000000e+00 0.000000e+00 0.000000e+00 1.204042e-04 -1.210660e-04 0.000000e+00 -1.210660e-04 -4.351904e-04 0.000000e+00 0.000000e+00 0.000000e+00 0.000000e+00 5.764756e-05 -2.303587e-04 0.000000e+00 -2.303587e-04 -2.161633e-04 0.000000e+00 0.000000e+00 0.000000e+00 0.000000e+00 2.074768e-04 -3.255320e-05 0.000000e+00 -3.255320e-05 -5.546858e-04 0.000000e+00 0.000000e+00 0.000000e+00 0.000000e+00 -2.570411e-04 -6.423067e-05 0.000000e+00 -6.423067e-05 1.622993e-04 0.000000e+00 0.000000e+00 0.000000e+00 0.000000e+00 3.678525e-04 6.563502e-04 0.000000e+00 6.563502e-04 9.161613e-04 0.000000e+00 0.000000e+00 0.000000e+00 0.000000e+00 -3.050089e-05 -1.927235e-04 0.000000e+00 -1.927235e-04 -6.670530e-05 0.000000e+00 0.000000e+00 0.000000e+00 0.000000e+00 5.985128e-06 2.146422e-05 0.000000e+00 2.146422e-05 -1.206210e-05 0.000000e+00 0.000000e+00 0.000000e+00 0.000000e+00 2.483565e-04 -4.508943e-05 0.000000e+00 -4.508943e-05 -3.114131e-04 0.000000e+00 0.000000e+00 0.000000e+00 0.000000e+00 -2.678601e-06 2.079569e-05 0.000000e+00 2.079569e-05 -5.884879e-06 0.000000e+00 0.000000e+00 0.000000e+00 0.000000e+00 -8.511523e-07 5.546163e-06 0.000000e+00 5.546163e-06 -2.788763e-05 0.000000e+00 0.000000e+00 0.000000e+00 0.000000e+00 -1.567141e-05 1.374016e-04 0.000000e+00 1.374016e-04 -4.922796e-05 0.000000e+00 0.000000e+00 0.000000e+00 0.000000e+00 -8.075818e-05 1.687160e-04 0.000000e+00 1.687160e-04 4.556132e-06 0.000000e+00 0.000000e+00 0.000000e+00 0.000000e+00 -5.421654e-06 2.156555e-04 0.000000e+00 2.156555e-04 1.000764e-05 0.000000e+00 0.000000e+00 0.000000e+00 0.000000e+00 8.256973e-05 2.040745e-04 0.000000e+00 2.040745e-04 -2.110482e-05 0.000000e+00 0.000000e+00 0.000000e+00 0.000000e+00 1.125973e-04 1.784657e-04 0.000000e+00 1.784657e-04 -2.378641e-05 0.000000e+00 0.000000e+00 0.000000e+00 0.000000e+00 -2.163829e-06 5.226513e-05 0.000000e+00 5.226513e-05 2.734311e-05 0.000000e+00 0.000000e+00 0.000000e+00 0.000000e+00 2.330382e-04 -5.064326e-05 0.000000e+00 -5.064326e-05 -7.902968e-04 0.000000e+00 0.000000e+00 0.000000e+00 0.000000e+00 2.102130e-04 -3.808733e-05 0.000000e+00 -3.808733e-05 -4.920262e-04 0.000000e+00 0.000000e+00 0.000000e+00 0.000000e+00 2.545700e-04 -4.946282e-05 0.000000e+00 -4.946282e-05 -2.879139e-04 0.000000e+00 0.000000e+00 0.000000e+00 0.000000e+00 3.219150e-04 -6.413682e-05 0.000000e+00 -6.413682e-05 -1.607551e-04 0.000000e+00 0.000000e+00 0.000000e+00 0.000000e+00 4.159818e-04 -8.339953e-05 0.000000e+00 -8.339953e-05 -2.695792e-05 0.000000e+00 0.000000e+00 0.000000e+00 0.000000e+00 5.984923e-04 -1.290697e-04 0.000000e+00 -1.290697e-04 2.088639e-04 0.000000e+00 0.000000e+00 0.000000e+00 0.000000e+00 7.217341e-04 -3.694326e-04 0.000000e+00 -3.694326e-04 9.763203e-04 0.000000e+00 0.000000e+00 0.000000e+00 0.000000e+00 -2.751026e-04 1.832134e-05 0.000000e+00 1.832134e-05 1.504678e-04 0.000000e+00 0.000000e+00 0.000000e+00 0.000000e+00 1.400482e-04 -1.534867e-04 0.000000e+00 -1.534867e-04 -4.480698e-04 0.000000e+00 0.000000e+00 0.000000e+00 0.000000e+00 1.131899e-04 -2.087801e-04 0.000000e+00 -2.087801e-04 -3.451033e-04 0.000000e+00 0.000000e+00 0.000000e+00 0.000000e+00 1.708540e-04 -6.228964e-05 0.000000e+00 -6.228964e-05 -5.784408e-04 0.000000e+00 0.000000e+00 0.000000e+00 0.000000e+00 1.450196e-04 -1.961693e-04 0.000000e+00 -1.961693e-04 -4.018331e-04 0.000000e+00 0.000000e+00 0.000000e+00 0.000000e+00 1.739473e-04 -1.327992e-04 0.000000e+00 -1.327992e-04 -5.212791e-04 0.000000e+00 0.000000e+00 0.000000e+00 0.000000e+00 2.195436e-04 -4.123814e-05 0.000000e+00 -4.123814e-05 -6.507072e-04 0.000000e+00 0.000000e+00 0.000000e+00 0.000000e+00 2.625820e-04 -8.505791e-05 0.000000e+00 -8.505791e-05 -2.523501e-04 0.000000e+00 0.000000e+00 0.000000e+00 0.000000e+00 5.713951e-04 -2.212568e-04 0.000000e+00 -2.212568e-04 3.092225e-04 0.000000e+00 0.000000e+00 0.000000e+00 0.000000e+00 3.326025e-04 -1.072780e-04 0.000000e+00 -1.072780e-04 -1.228318e-04 0.000000e+00 0.000000e+00 0.000000e+00 0.000000e+00 -1.930745e-04 8.784571e-05 0.000000e+00 8.784571e-05 1.580619e-04 0.000000e+00 0.000000e+00 0.000000e+00 0.000000e+00 5.124153e-04 -1.734927e-04 0.000000e+00 -1.734927e-04 1.577139e-04 0.000000e+00 0.000000e+00 0.000000e+00 0.000000e+00 2.751679e-04 1.692047e-04 0.000000e+00 1.692047e-04 -5.442989e-05 0.000000e+00 0.000000e+00 0.000000e+00 0.000000e+00 2.259386e-04 -7.303945e-05 0.000000e+00 -7.303945e-05 -3.649336e-04 0.000000e+00 0.000000e+00 0.000000e+00 0.000000e+00 3.095491e-04 2.046073e-04 0.000000e+00 2.046073e-04 -3.681540e-05 0.000000e+00 0.000000e+00 0.000000e+00 0.000000e+00 1.506356e-04 1.232468e-04 0.000000e+00 1.232468e-04 -3.096672e-05 0.000000e+00 0.000000e+00 0.000000e+00 0.000000e+00 2.226919e-04 1.264778e-04 0.000000e+00 1.264778e-04 -6.563421e-05 0.000000e+00 0.000000e+00 0.000000e+00 0.000000e+00 1.086270e-04 2.748310e-04 0.000000e+00 2.748310e-04 1.412055e-03 0.000000e+00 0.000000e+00 0.000000e+00 0.000000e+00 2.019744e-04 1.122799e-04 0.000000e+00 1.122799e-04 -6.116203e-05 0.000000e+00 0.000000e+00 0.000000e+00 0.000000e+00 3.492109e-04 2.598404e-04 0.000000e+00 2.598404e-04 -1.381622e-06 0.000000e+00 0.000000e+00 0.000000e+00 0.000000e+00 2.147601e-04 -1.117604e-04 0.000000e+00 -1.117604e-04 1.377944e-03 0.000000e+00 0.000000e+00 0.000000e+00 0.000000e+00 2.489631e-04 1.440733e-04 0.000000e+00 1.440733e-04 -6.318282e-05 0.000000e+00 0.000000e+00 0.000000e+00 0.000000e+00 2.204911e-04 5.253868e-04 0.000000e+00 5.253868e-04 7.664634e-04 0.000000e+00 0.000000e+00 0.000000e+00 0.000000e+00 -2.125316e-04 -1.179911e-04 0.000000e+00 -1.179911e-04 1.976367e-04 0.000000e+00 0.000000e+00 0.000000e+00 0.000000e+00 -4.985659e-05 1.365944e-04 0.000000e+00 1.365944e-04 -1.489335e-05 0.000000e+00 0.000000e+00 0.000000e+00 0.000000e+00 -1.636841e-04 1.464770e-04 0.000000e+00 1.464770e-04 1.094068e-04 0.000000e+00 0.000000e+00 0.000000e+00 0.000000e+00 7.077724e-05 -2.655215e-04 0.000000e+00 -2.655215e-04 -2.182318e-04 0.000000e+00 0.000000e+00 0.000000e+00 0.000000e+00 2.066388e-04 -5.016663e-05 0.000000e+00 -5.016663e-05 -5.403119e-04 0.000000e+00 0.000000e+00 0.000000e+00 0.000000e+00 2.127689e-04 -5.857086e-05 0.000000e+00 -5.857086e-05 -4.465686e-04 0.000000e+00 0.000000e+00 0.000000e+00 0.000000e+00 -1.136929e-04 -2.604854e-04 0.000000e+00 -2.604854e-04 5.026150e-05 0.000000e+00 0.000000e+00 0.000000e+00 0.000000e+00 1.199698e-04 1.491356e-04 0.000000e+00 1.491356e-04 -2.012480e-05 0.000000e+00 0.000000e+00 0.000000e+00 0.000000e+00 3.481082e-04 3.490385e-04 0.000000e+00 3.490385e-04 1.168260e-04 0.000000e+00 0.000000e+00 0.000000e+00 0.000000e+00 -2.243796e-05 9.901203e-05 0.000000e+00 9.901203e-05 -3.064166e-05 0.000000e+00 0.000000e+00 0.000000e+00 0.000000e+00 -3.945783e-05 2.166084e-04 0.000000e+00 2.166084e-04 2.879624e-05 0.000000e+00 0.000000e+00 0.000000e+00 0.000000e+00 6.615580e-05 2.089714e-04 0.000000e+00 2.089714e-04 -5.974769e-06 0.000000e+00 0.000000e+00 0.000000e+00 0.000000e+00 1.069644e-05 -2.756152e-04 0.000000e+00 -2.756152e-04 -1.205898e-04 0.000000e+00 0.000000e+00 0.000000e+00 0.000000e+00 -4.368882e-05 -2.582105e-04 0.000000e+00 -2.582105e-04 -4.324924e-05 0.000000e+00 0.000000e+00 0.000000e+00 0.000000e+00 1.261293e-04 1.792246e-04 0.000000e+00 1.792246e-04 -3.291945e-05 0.000000e+00 0.000000e+00 0.000000e+00 0.000000e+00 1.141340e-04 1.955301e-04 0.000000e+00 1.955301e-04 -2.552881e-05 0.000000e+00 0.000000e+00 0.000000e+00 0.000000e+00 1.090367e-05 2.157126e-04 0.000000e+00 2.157126e-04 1.424287e-05 0.000000e+00 0.000000e+00 0.000000e+00 0.000000e+00 -7.564988e-05 2.114359e-04 0.000000e+00 2.114359e-04 3.048338e-05 0.000000e+00 0.000000e+00 0.000000e+00 0.000000e+00 -8.933865e-05 1.929376e-04 0.000000e+00 1.929376e-04 1.967398e-05 0.000000e+00 0.000000e+00 0.000000e+00 0.000000e+00 -3.347934e-06 6.121817e-05 0.000000e+00 6.121817e-05 -4.026729e-05 0.000000e+00 0.000000e+00 0.000000e+00 0.000000e+00 4.711499e-06 3.276660e-05 0.000000e+00 3.276660e-05 -4.052101e-05 0.000000e+00 0.000000e+00 0.000000e+00 0.000000e+00 1.736576e-04 -1.693161e-04 0.000000e+00 -1.693161e-04 -4.676844e-04 0.000000e+00 0.000000e+00 0.000000e+00 0.000000e+00 1.142984e-04 -2.528278e-04 0.000000e+00 -2.528278e-04 -2.887283e-04 0.000000e+00 0.000000e+00 0.000000e+00 0.000000e+00 -1.729117e-04 -2.147849e-04 0.000000e+00 -2.147849e-04 1.463380e-04 0.000000e+00 0.000000e+00 0.000000e+00 0.000000e+00 2.100287e-04 -4.326601e-05 0.000000e+00 -4.326601e-05 -6.033080e-04 0.000000e+00 0.000000e+00 0.000000e+00 0.000000e+00 4.081576e-04 -1.309516e-04 0.000000e+00 -1.309516e-04 -6.581890e-06 0.000000e+00 0.000000e+00 0.000000e+00 0.000000e+00 2.540535e-04 -7.890086e-05 0.000000e+00 -7.890086e-05 -2.779779e-04 0.000000e+00 0.000000e+00 0.000000e+00 0.000000e+00 2.222070e-04 -6.215296e-05 0.000000e+00 -6.215296e-05 -3.960837e-04 0.000000e+00 0.000000e+00 0.000000e+00 0.000000e+00 2.973285e-04 -8.750720e-05 0.000000e+00 -8.750720e-05 -1.908265e-04 0.000000e+00 0.000000e+00 0.000000e+00 0.000000e+00 4.797583e-04 -1.685592e-04 0.000000e+00 -1.685592e-04 1.240899e-04 0.000000e+00 0.000000e+00 0.000000e+00 0.000000e+00 5.535982e-04 -1.976379e-04 0.000000e+00 -1.976379e-04 2.458349e-04 0.000000e+00 0.000000e+00 0.000000e+00 0.000000e+00 4.024501e-04 -3.041885e-04 0.000000e+00 -3.041885e-04 1.149586e-03 0.000000e+00 0.000000e+00 0.000000e+00 0.000000e+00 5.975681e-04 -2.785256e-04 0.000000e+00 -2.785256e-04 4.683707e-04 0.000000e+00 0.000000e+00 0.000000e+00 0.000000e+00 3.628217e-04 -1.084382e-04 0.000000e+00 -1.084382e-04 -7.674089e-05 0.000000e+00 0.000000e+00 0.000000e+00 0.000000e+00 4.659635e-04 -1.535128e-04 0.000000e+00 -1.535128e-04 8.591644e-05 0.000000e+00 0.000000e+00 0.000000e+00 0.000000e+00 2.858295e-04 -8.315441e-05 0.000000e+00 -8.315441e-05 -2.092631e-04 0.000000e+00 0.000000e+00 0.000000e+00 0.000000e+00 6.383487e-04 -2.962967e-04 0.000000e+00 -2.962967e-04 5.645514e-04 0.000000e+00 0.000000e+00 0.000000e+00 0.000000e+00 2.090933e-04 -4.537841e-05 0.000000e+00 -4.537841e-05 -5.725682e-04 0.000000e+00 0.000000e+00 0.000000e+00 0.000000e+00 2.791347e-04 4.923310e-04 0.000000e+00 4.923310e-04 4.500165e-04 0.000000e+00 0.000000e+00 0.000000e+00 0.000000e+00 5.840029e-04 -2.532410e-04 0.000000e+00 -2.532410e-04 3.876471e-04 0.000000e+00 0.000000e+00 0.000000e+00 0.000000e+00 -1.432536e-04 1.765069e-04 0.000000e+00 1.765069e-04 7.282253e-05 0.000000e+00 0.000000e+00 0.000000e+00 0.000000e+00 2.059265e-04 -5.867577e-05 0.000000e+00 -5.867577e-05 -5.026771e-04 0.000000e+00 0.000000e+00 0.000000e+00 0.000000e+00 4.506370e-04 -1.407731e-04 0.000000e+00 -1.407731e-04 4.997973e-05 0.000000e+00 0.000000e+00 0.000000e+00 0.000000e+00 8.550459e-07 9.964184e-06 0.000000e+00 9.964184e-06 -2.608442e-05 0.000000e+00 0.000000e+00 0.000000e+00 0.000000e+00 5.511996e-04 -1.646901e-04 0.000000e+00 -1.646901e-04 1.898083e-04 0.000000e+00 0.000000e+00 0.000000e+00 0.000000e+00 1.398733e-04 1.556750e-04 0.000000e+00 1.556750e-04 -3.289880e-05 0.000000e+00 0.000000e+00 0.000000e+00 0.000000e+00 3.177764e-04 -1.026892e-04 0.000000e+00 -1.026892e-04 -1.456010e-04 0.000000e+00 0.000000e+00 0.000000e+00 0.000000e+00 4.282835e-04 -1.361112e-04 0.000000e+00 -1.361112e-04 2.106195e-05 0.000000e+00 0.000000e+00 0.000000e+00 0.000000e+00 -8.293867e-05 2.057202e-04 0.000000e+00 2.057202e-04 4.994928e-05 0.000000e+00 0.000000e+00 0.000000e+00 0.000000e+00 2.178857e-04 -5.392001e-05 0.000000e+00 -5.392001e-05 -4.221027e-04 0.000000e+00 0.000000e+00 0.000000e+00 0.000000e+00 2.297950e-04 -3.785165e-05 0.000000e+00 -3.785165e-05 -6.940069e-04 0.000000e+00 0.000000e+00 0.000000e+00 0.000000e+00 2.408288e-04 -6.774847e-05 0.000000e+00 -6.774847e-05 -3.198475e-04 0.000000e+00 0.000000e+00 0.000000e+00 0.000000e+00 2.112105e-04 -6.191783e-05 0.000000e+00 -6.191783e-05 -4.749354e-04 0.000000e+00 0.000000e+00 0.000000e+00 0.000000e+00 -2.149506e-04 -5.661064e-06 0.000000e+00 -5.661064e-06 1.963722e-04 0.000000e+00 0.000000e+00 0.000000e+00 0.000000e+00 3.832822e-04 -1.086403e-04 0.000000e+00 -1.086403e-04 -5.891786e-05 0.000000e+00 0.000000e+00 0.000000e+00 0.000000e+00 6.020883e-04 -3.388283e-04 0.000000e+00 -3.388283e-04 7.331606e-04 0.000000e+00 0.000000e+00 0.000000e+00 0.000000e+00 2.299639e-04 3.923814e-04 0.000000e+00 3.923814e-04 3.239197e-04 0.000000e+00 0.000000e+00 0.000000e+00 0.000000e+00 2.718693e-04 -4.529024e-05 0.000000e+00 -4.529024e-05 -8.241496e-04 0.000000e+00 0.000000e+00 0.000000e+00 0.000000e+00 2.324572e-04 -6.377327e-05 0.000000e+00 -6.377327e-05 -3.423921e-04 0.000000e+00 0.000000e+00 0.000000e+00 0.000000e+00 2.382988e-04 -4.127527e-05 0.000000e+00 -4.127527e-05 -7.378019e-04 0.000000e+00 0.000000e+00 0.000000e+00 0.000000e+00 1.954911e-04 -1.297040e-04 0.000000e+00 -1.297040e-04 -5.744061e-04 0.000000e+00 0.000000e+00 0.000000e+00 0.000000e+00 2.479637e-04 -4.540403e-05 0.000000e+00 -4.540403e-05 -7.710321e-04 0.000000e+00 0.000000e+00 0.000000e+00 0.000000e+00 3.499423e-04 -1.090028e-04 0.000000e+00 -1.090028e-04 -1.002843e-04 0.000000e+00 0.000000e+00 0.000000e+00 0.000000e+00 2.760870e-04 -8.715608e-05 0.000000e+00 -8.715608e-05 -2.286525e-04 0.000000e+00 0.000000e+00 0.000000e+00 0.000000e+00 -1.230937e-04 1.873222e-04 0.000000e+00 1.873222e-04 4.641109e-05 0.000000e+00 0.000000e+00 0.000000e+00 0.000000e+00 2.211206e-04 -1.038300e-04 0.000000e+00 -1.038300e-04 -6.293722e-04 0.000000e+00 0.000000e+00 0.000000e+00 0.000000e+00 1.496469e-04 -2.211702e-04 0.000000e+00 -2.211702e-04 -3.565054e-04 0.000000e+00 0.000000e+00 0.000000e+00 0.000000e+00 1.900173e-04 -7.055900e-05 0.000000e+00 -7.055900e-05 -6.802762e-04 0.000000e+00 0.000000e+00 0.000000e+00 0.000000e+00 1.938109e-04 -9.502110e-05 0.000000e+00 -9.502110e-05 -6.064891e-04 0.000000e+00 0.000000e+00 0.000000e+00 0.000000e+00 2.105494e-04 -4.954886e-05 0.000000e+00 -4.954886e-05 -6.803993e-04 0.000000e+00 0.000000e+00 0.000000e+00 0.000000e+00 2.114780e-04 -6.865357e-05 0.000000e+00 -6.865357e-05 -6.374655e-04 0.000000e+00 0.000000e+00 0.000000e+00 0.000000e+00 2.283422e-04 -2.529733e-05 0.000000e+00 -2.529733e-05 -7.324729e-04 0.000000e+00 0.000000e+00 0.000000e+00 0.000000e+00 1.981017e-04 -1.028612e-04 0.000000e+00 -1.028612e-04 -5.587476e-04 0.000000e+00 0.000000e+00 0.000000e+00 0.000000e+00 2.221910e-04 -4.765768e-05 0.000000e+00 -4.765768e-05 -6.706690e-04 0.000000e+00 0.000000e+00 0.000000e+00 0.000000e+00 2.247045e-04 1.208098e-05 0.000000e+00 1.208098e-05 -8.004832e-04 0.000000e+00 0.000000e+00 0.000000e+00 0.000000e+00 2.825166e-04 -2.386389e-05 0.000000e+00 -2.386389e-05 -8.342566e-04 0.000000e+00 0.000000e+00 0.000000e+00 0.000000e+00 1.903213e-04 -1.392314e-04 0.000000e+00 -1.392314e-04 -5.187732e-04 0.000000e+00 0.000000e+00 0.000000e+00 0.000000e+00 2.545897e-04 -3.640584e-05 0.000000e+00 -3.640584e-05 -7.556800e-04 0.000000e+00 0.000000e+00 0.000000e+00 0.000000e+00 2.501894e-04 -6.930198e-05 0.000000e+00 -6.930198e-05 -2.998351e-04 0.000000e+00 0.000000e+00 0.000000e+00 0.000000e+00 3.072673e-04 -9.515700e-05 0.000000e+00 -9.515700e-05 -1.682691e-04 0.000000e+00 0.000000e+00 0.000000e+00 0.000000e+00 -1.094065e-04 1.599153e-04 0.000000e+00 1.599153e-04 1.474301e-04 0.000000e+00 0.000000e+00 0.000000e+00 0.000000e+00 2.324105e-04 -9.061600e-05 0.000000e+00 -9.061600e-05 -3.330135e-04 0.000000e+00 0.000000e+00 0.000000e+00 0.000000e+00 3.897115e-04 -1.218214e-04 0.000000e+00 -1.218214e-04 -3.397145e-05 0.000000e+00 0.000000e+00 0.000000e+00 0.000000e+00 5.270600e-04 -3.473491e-04 0.000000e+00 -3.473491e-04 9.172206e-04 0.000000e+00 0.000000e+00 0.000000e+00 0.000000e+00 1.717781e-04 1.351093e-04 0.000000e+00 1.351093e-04 -4.554826e-05 0.000000e+00 0.000000e+00 0.000000e+00 0.000000e+00 7.215208e-05 -3.017576e-04 0.000000e+00 -3.017576e-04 -1.679487e-04 0.000000e+00 0.000000e+00 0.000000e+00 0.000000e+00 2.205941e-04 1.956258e-04 0.000000e+00 1.956258e-04 -2.907388e-05 0.000000e+00 0.000000e+00 0.000000e+00 0.000000e+00 6.140666e-05 1.233462e-04 0.000000e+00 1.233462e-04 1.218251e-03 0.000000e+00 0.000000e+00 0.000000e+00 0.000000e+00 -8.180562e-05 1.954916e-04 0.000000e+00 1.954916e-04 8.252025e-05 0.000000e+00 0.000000e+00 0.000000e+00 0.000000e+00 1.603210e-05 -3.103715e-04 0.000000e+00 -3.103715e-04 -8.785346e-05 0.000000e+00 0.000000e+00 0.000000e+00 0.000000e+00 4.618272e-04 -3.212785e-04 0.000000e+00 -3.212785e-04 5.840374e-04 0.000000e+00 0.000000e+00 0.000000e+00 0.000000e+00 1.078875e-04 3.948511e-04 0.000000e+00 3.948511e-04 1.100995e-03 0.000000e+00 0.000000e+00 0.000000e+00 0.000000e+00 1.534174e-04 1.682063e-04 0.000000e+00 1.682063e-04 -4.091876e-05 0.000000e+00 0.000000e+00 0.000000e+00 0.000000e+00 2.115793e-04 -5.486924e-05 0.000000e+00 -5.486924e-05 -6.152275e-04 0.000000e+00 0.000000e+00 0.000000e+00 0.000000e+00 2.458783e-04 -6.160483e-05 0.000000e+00 -6.160483e-05 -7.094140e-04 0.000000e+00 0.000000e+00 0.000000e+00 0.000000e+00 2.562722e-04 3.103070e-04 0.000000e+00 3.103070e-04 1.187931e-04 0.000000e+00 0.000000e+00 0.000000e+00 0.000000e+00 8.269573e-05 3.435518e-04 0.000000e+00 3.435518e-04 7.463337e-04 0.000000e+00 0.000000e+00 0.000000e+00 0.000000e+00 2.093304e-04 -7.613023e-05 0.000000e+00 -7.613023e-05 -5.933932e-04 0.000000e+00 0.000000e+00 0.000000e+00 0.000000e+00 -4.816159e-05 -2.995794e-04 0.000000e+00 -2.995794e-04 -9.271409e-06 0.000000e+00 0.000000e+00 0.000000e+00 0.000000e+00 9.332163e-05 2.101218e-04 0.000000e+00 2.101218e-04 -3.999734e-06 0.000000e+00 0.000000e+00 0.000000e+00 0.000000e+00 2.013605e-04 -9.816732e-05 0.000000e+00 -9.816732e-05 -5.218419e-04 0.000000e+00 0.000000e+00 0.000000e+00 0.000000e+00 2.256766e-04 2.259758e-04 0.000000e+00 2.259758e-04 4.880253e-06 0.000000e+00 0.000000e+00 0.000000e+00 0.000000e+00 2.914711e-04 -1.188517e-04 0.000000e+00 -1.188517e-04 -1.786500e-04 0.000000e+00 0.000000e+00 0.000000e+00 0.000000e+00 9.313167e-05 3.465542e-04 0.000000e+00 3.465542e-04 5.520890e-04 0.000000e+00 0.000000e+00 0.000000e+00 0.000000e+00 2.431387e-04 -9.763159e-05 0.000000e+00 -9.763159e-05 -2.991559e-04 0.000000e+00 0.000000e+00 0.000000e+00 0.000000e+00 -1.539761e-04 8.080522e-05 0.000000e+00 8.080522e-05 2.178139e-04 0.000000e+00 0.000000e+00 0.000000e+00 0.000000e+00 4.777561e-04 -2.606537e-04 0.000000e+00 -2.606537e-04 3.098714e-04 0.000000e+00 0.000000e+00 0.000000e+00 0.000000e+00 5.217456e-05 2.746584e-04 0.000000e+00 2.746584e-04 9.731431e-04 0.000000e+00 0.000000e+00 0.000000e+00 0.000000e+00 4.387775e-04 -2.081565e-04 0.000000e+00 -2.081565e-04 1.231555e-04 0.000000e+00 0.000000e+00 0.000000e+00 0.000000e+00 3.882640e-04 -1.796457e-04 0.000000e+00 -1.796457e-04 2.407841e-05 0.000000e+00 0.000000e+00 0.000000e+00 0.000000e+00 1.535856e-04 -1.396567e-04 0.000000e+00 -1.396567e-04 1.157536e-03 0.000000e+00 0.000000e+00 0.000000e+00 0.000000e+00 2.616430e-04 -1.219440e-04 0.000000e+00 -1.219440e-04 -2.331248e-04 0.000000e+00 0.000000e+00 0.000000e+00 0.000000e+00 2.410257e-04 2.634746e-04 0.000000e+00 2.634746e-04 5.235181e-05 0.000000e+00 0.000000e+00 0.000000e+00 0.000000e+00 1.506267e-04 1.893212e-04 0.000000e+00 1.893212e-04 -3.021528e-05 0.000000e+00 0.000000e+00 0.000000e+00 0.000000e+00 2.771134e-04 -1.191227e-04 0.000000e+00 -1.191227e-04 -2.038175e-04 0.000000e+00 0.000000e+00 0.000000e+00 0.000000e+00 1.645886e-04 3.227224e-04 0.000000e+00 3.227224e-04 2.688807e-04 0.000000e+00 0.000000e+00 0.000000e+00 0.000000e+00 1.874809e-04 1.526209e-04 0.000000e+00 1.526209e-04 -5.172941e-05 0.000000e+00 0.000000e+00 0.000000e+00 0.000000e+00 4.893609e-04 -3.308114e-04 0.000000e+00 -3.308114e-04 6.849961e-04 0.000000e+00 0.000000e+00 0.000000e+00 0.000000e+00 2.056247e-04 1.682142e-04 0.000000e+00 1.682142e-04 -4.810759e-05 0.000000e+00 0.000000e+00 0.000000e+00 0.000000e+00 2.057266e-04 -6.402979e-05 0.000000e+00 -6.402979e-05 -5.657089e-04 0.000000e+00 0.000000e+00 0.000000e+00 0.000000e+00 4.684575e-04 -3.069375e-04 0.000000e+00 -3.069375e-04 4.726453e-04 0.000000e+00 0.000000e+00 0.000000e+00 0.000000e+00 3.457893e-04 -1.469005e-04 0.000000e+00 -1.469005e-04 -7.794065e-05 0.000000e+00 0.000000e+00 0.000000e+00 0.000000e+00 4.352000e-04 -1.847088e-04 0.000000e+00 -1.847088e-04 8.109616e-05 0.000000e+00 0.000000e+00 0.000000e+00 0.000000e+00 2.486000e-04 -1.154771e-04 0.000000e+00 -1.154771e-04 -2.621706e-04 0.000000e+00 0.000000e+00 0.000000e+00 0.000000e+00 2.048252e-04 -8.240368e-05 0.000000e+00 -8.240368e-05 -4.471144e-04 0.000000e+00 0.000000e+00 0.000000e+00 0.000000e+00 3.087638e-04 -1.443809e-04 0.000000e+00 -1.443809e-04 -1.263892e-04 0.000000e+00 0.000000e+00 0.000000e+00 0.000000e+00 3.067719e-04 -1.920519e-05 0.000000e+00 -1.920519e-05 -9.066026e-04 0.000000e+00 0.000000e+00 0.000000e+00 0.000000e+00 1.917698e-04 -1.371925e-04 0.000000e+00 -1.371925e-04 -4.790909e-04 0.000000e+00 0.000000e+00 0.000000e+00 0.000000e+00 2.218916e-04 -1.070482e-04 0.000000e+00 -1.070482e-04 -3.541954e-04 0.000000e+00 0.000000e+00 0.000000e+00 0.000000e+00 2.140106e-04 -7.339366e-05 0.000000e+00 -7.339366e-05 -4.198308e-04 0.000000e+00 0.000000e+00 0.000000e+00 0.000000e+00 -1.826129e-04 -3.993820e-05 0.000000e+00 -3.993820e-05 2.567269e-04 0.000000e+00 0.000000e+00 0.000000e+00 0.000000e+00 3.259439e-04 -1.491217e-04 0.000000e+00 -1.491217e-04 -9.881125e-05 0.000000e+00 0.000000e+00 0.000000e+00 0.000000e+00 3.155587e-05 2.172481e-04 0.000000e+00 2.172481e-04 2.136426e-05 0.000000e+00 0.000000e+00 0.000000e+00 0.000000e+00 5.051932e-04 -2.806922e-04 0.000000e+00 -2.806922e-04 3.732711e-04 0.000000e+00 0.000000e+00 0.000000e+00 0.000000e+00 2.083224e-04 -7.400302e-05 0.000000e+00 -7.400302e-05 -5.250383e-04 0.000000e+00 0.000000e+00 0.000000e+00 0.000000e+00 3.575355e-04 -1.543171e-04 0.000000e+00 -1.543171e-04 -4.738509e-05 0.000000e+00 0.000000e+00 0.000000e+00 0.000000e+00 -1.730313e-04 -1.620170e-04 0.000000e+00 -1.620170e-04 2.415543e-04 0.000000e+00 0.000000e+00 0.000000e+00 0.000000e+00 1.776229e-04 -1.807227e-04 0.000000e+00 -1.807227e-04 -4.229940e-04 0.000000e+00 0.000000e+00 0.000000e+00 0.000000e+00 2.974938e-04 -1.335981e-04 0.000000e+00 -1.335981e-04 -1.540785e-04 0.000000e+00 0.000000e+00 0.000000e+00 0.000000e+00 -1.575972e-04 -8.441742e-05 0.000000e+00 -8.441742e-05 3.231744e-04 0.000000e+00 0.000000e+00 0.000000e+00 0.000000e+00 2.185218e-04 -9.055398e-05 0.000000e+00 -9.055398e-05 -3.867514e-04 0.000000e+00 0.000000e+00 0.000000e+00 0.000000e+00 -1.073467e-04 -2.872336e-04 0.000000e+00 -2.872336e-04 9.842011e-05 0.000000e+00 0.000000e+00 0.000000e+00 0.000000e+00 3.724100e-04 -1.713699e-04 0.000000e+00 -1.713699e-04 -1.044025e-05 0.000000e+00 0.000000e+00 0.000000e+00 0.000000e+00 4.936798e-04 -2.267606e-04 0.000000e+00 -2.267606e-04 2.250720e-04 0.000000e+00 0.000000e+00 0.000000e+00 0.000000e+00 1.222353e-04 -2.725512e-04 0.000000e+00 -2.725512e-04 -2.463612e-04 0.000000e+00 0.000000e+00 0.000000e+00 0.000000e+00 2.254340e-04 -1.225913e-04 0.000000e+00 -1.225913e-04 -3.161725e-04 0.000000e+00 0.000000e+00 0.000000e+00 0.000000e+00 2.636436e-05 -3.298221e-04 0.000000e+00 -3.298221e-04 -4.668052e-05 0.000000e+00 0.000000e+00 0.000000e+00 0.000000e+00 2.021872e-04 -8.981569e-05 0.000000e+00 -8.981569e-05 -4.799679e-04 0.000000e+00 0.000000e+00 0.000000e+00 0.000000e+00 1.443727e-04 2.305379e-04 0.000000e+00 2.305379e-04 3.558073e-05 0.000000e+00 0.000000e+00 0.000000e+00 0.000000e+00 1.379874e-04 2.819373e-04 0.000000e+00 2.819373e-04 1.850500e-04 0.000000e+00 0.000000e+00 0.000000e+00 0.000000e+00 4.099858e-04 -1.831705e-04 0.000000e+00 -1.831705e-04 5.531618e-05 0.000000e+00 0.000000e+00 0.000000e+00 0.000000e+00 -1.343789e-04 -2.509184e-04 0.000000e+00 -2.509184e-04 1.930413e-04 0.000000e+00 0.000000e+00 0.000000e+00 0.000000e+00 1.363466e-04 2.545900e-04 0.000000e+00 2.545900e-04 1.011779e-04 0.000000e+00 0.000000e+00 0.000000e+00 0.000000e+00 1.962270e-04 -1.280151e-04 0.000000e+00 -1.280151e-04 -4.492592e-04 0.000000e+00 0.000000e+00 0.000000e+00 0.000000e+00 -3.225539e-05 2.138044e-04 0.000000e+00 2.138044e-04 4.166177e-05 0.000000e+00 0.000000e+00 0.000000e+00 0.000000e+00 3.459110e-04 -2.200428e-04 0.000000e+00 -2.200428e-04 2.930723e-05 0.000000e+00 0.000000e+00 0.000000e+00 0.000000e+00 1.819619e-04 -1.727430e-04 0.000000e+00 -1.727430e-04 -3.917358e-04 0.000000e+00 0.000000e+00 0.000000e+00 0.000000e+00 1.615068e-04 -2.296727e-04 0.000000e+00 -2.296727e-04 -3.127789e-04 0.000000e+00 0.000000e+00 0.000000e+00 0.000000e+00 4.565539e-05 2.207975e-04 0.000000e+00 2.207975e-04 3.934222e-05 0.000000e+00 0.000000e+00 0.000000e+00 0.000000e+00 4.438594e-04 -2.315964e-04 0.000000e+00 -2.315964e-04 1.845350e-04 0.000000e+00 0.000000e+00 0.000000e+00 0.000000e+00 -6.436463e-05 1.716338e-04 0.000000e+00 1.716338e-04 2.067931e-04 0.000000e+00 0.000000e+00 0.000000e+00 0.000000e+00 -1.964504e-05 2.085936e-04 0.000000e+00 2.085936e-04 1.035026e-04 0.000000e+00 0.000000e+00 0.000000e+00 0.000000e+00 -5.863288e-06 2.182563e-04 0.000000e+00 2.182563e-04 5.168628e-05 0.000000e+00 0.000000e+00 0.000000e+00 0.000000e+00 4.158465e-04 -2.810941e-04 0.000000e+00 -2.810941e-04 2.836902e-04 0.000000e+00 0.000000e+00 0.000000e+00 0.000000e+00 -1.328940e-04 5.962564e-05 0.000000e+00 5.962564e-05 2.990710e-04 0.000000e+00 0.000000e+00 0.000000e+00 0.000000e+00 -1.340094e-04 -2.051826e-04 0.000000e+00 -2.051826e-04 2.857920e-04 0.000000e+00 0.000000e+00 0.000000e+00 0.000000e+00 3.668230e-04 -2.269373e-04 0.000000e+00 -2.269373e-04 6.736247e-05 0.000000e+00 0.000000e+00 0.000000e+00 0.000000e+00 2.112414e-04 -1.204601e-04 0.000000e+00 -1.204601e-04 -3.839675e-04 0.000000e+00 0.000000e+00 0.000000e+00 0.000000e+00 3.469097e-05 2.602474e-04 0.000000e+00 2.602474e-04 4.583874e-04 0.000000e+00 0.000000e+00 0.000000e+00 0.000000e+00 4.568935e-05 4.048820e-06 0.000000e+00 4.048820e-06 1.022777e-03 0.000000e+00 0.000000e+00 0.000000e+00 0.000000e+00 3.830892e-04 -2.593471e-04 0.000000e+00 -2.593471e-04 1.673163e-04 0.000000e+00 0.000000e+00 0.000000e+00 0.000000e+00 3.021317e-04 -2.764673e-04 0.000000e+00 -2.764673e-04 1.015354e-03 0.000000e+00 0.000000e+00 0.000000e+00 0.000000e+00 2.818263e-04 -1.752669e-04 0.000000e+00 -1.752669e-04 -1.352811e-04 0.000000e+00 0.000000e+00 0.000000e+00 0.000000e+00 3.795997e-04 -3.232142e-04 0.000000e+00 -3.232142e-04 8.523758e-04 0.000000e+00 0.000000e+00 0.000000e+00 0.000000e+00 1.211948e-04 2.173624e-04 0.000000e+00 2.173624e-04 7.911485e-06 0.000000e+00 0.000000e+00 0.000000e+00 0.000000e+00 1.370699e-04 -2.774734e-04 0.000000e+00 -2.774734e-04 -2.104583e-04 0.000000e+00 0.000000e+00 0.000000e+00 0.000000e+00 2.729447e-06 1.307089e-04 0.000000e+00 1.307089e-04 8.672076e-04 0.000000e+00 0.000000e+00 0.000000e+00 0.000000e+00 -3.681107e-05 -3.214778e-04 0.000000e+00 -3.214778e-04 2.767332e-05 0.000000e+00 0.000000e+00 0.000000e+00 0.000000e+00 8.889667e-05 -3.153163e-04 0.000000e+00 -3.153163e-04 -1.178855e-04 0.000000e+00 0.000000e+00 0.000000e+00 0.000000e+00 3.274958e-04 -3.232187e-04 0.000000e+00 -3.232187e-04 5.798240e-04 0.000000e+00 0.000000e+00 0.000000e+00 0.000000e+00 3.145477e-04 -1.955184e-04 0.000000e+00 -1.955184e-04 -5.832159e-05 0.000000e+00 0.000000e+00 0.000000e+00 0.000000e+00 1.738622e-04 2.004928e-04 0.000000e+00 2.004928e-04 -2.157320e-05 0.000000e+00 0.000000e+00 0.000000e+00 0.000000e+00 2.382554e-04 -1.621211e-04 0.000000e+00 -1.621211e-04 -2.447036e-04 0.000000e+00 0.000000e+00 0.000000e+00 0.000000e+00 3.357566e-04 -2.061205e-04 0.000000e+00 -2.061205e-04 -1.687129e-05 0.000000e+00 0.000000e+00 0.000000e+00 0.000000e+00 3.798016e-04 -3.088440e-04 0.000000e+00 -3.088440e-04 4.106423e-04 0.000000e+00 0.000000e+00 0.000000e+00 0.000000e+00 2.946601e-04 -1.902981e-04 0.000000e+00 -1.902981e-04 -9.668744e-05 0.000000e+00 0.000000e+00 0.000000e+00 0.000000e+00 2.086295e-04 -9.434942e-05 0.000000e+00 -9.434942e-05 -4.143992e-04 0.000000e+00 0.000000e+00 0.000000e+00 0.000000e+00 -8.039748e-05 -3.072602e-04 0.000000e+00 -3.072602e-04 1.280849e-04 0.000000e+00 0.000000e+00 0.000000e+00 0.000000e+00 2.113512e-04 -1.400618e-04 0.000000e+00 -1.400618e-04 -3.409017e-04 0.000000e+00 0.000000e+00 0.000000e+00 0.000000e+00 2.004725e-04 -1.127429e-04 0.000000e+00 -1.127429e-04 -4.267038e-04 0.000000e+00 0.000000e+00 0.000000e+00 0.000000e+00 2.545485e-04 -1.611306e-04 0.000000e+00 -1.611306e-04 -2.025794e-04 0.000000e+00 0.000000e+00 0.000000e+00 0.000000e+00 -8.010169e-06 1.902047e-04 0.000000e+00 1.902047e-04 6.718965e-04 0.000000e+00 0.000000e+00 0.000000e+00 0.000000e+00 3.112016e-04 -3.067720e-04 0.000000e+00 -3.067720e-04 7.292025e-04 0.000000e+00 0.000000e+00 0.000000e+00 0.000000e+00 2.762166e-04 -1.534144e-04 0.000000e+00 -1.534144e-04 -1.736341e-04 0.000000e+00 0.000000e+00 0.000000e+00 0.000000e+00 -7.563097e-05 -2.937209e-04 0.000000e+00 -2.937209e-04 1.997654e-04 0.000000e+00 0.000000e+00 0.000000e+00 0.000000e+00 1.862511e-04 -1.999605e-04 0.000000e+00 -1.999605e-04 -3.149081e-04 0.000000e+00 0.000000e+00 0.000000e+00 0.000000e+00 2.601939e-04 -2.184616e-04 0.000000e+00 -2.184616e-04 -1.070797e-04 0.000000e+00 0.000000e+00 0.000000e+00 0.000000e+00 4.345692e-05 -3.419159e-04 0.000000e+00 -3.419159e-04 4.082250e-06 0.000000e+00 0.000000e+00 0.000000e+00 0.000000e+00 1.679026e-04 -2.434342e-04 0.000000e+00 -2.434342e-04 -2.335161e-04 0.000000e+00 0.000000e+00 0.000000e+00 0.000000e+00 3.682925e-04 -2.791147e-04 0.000000e+00 -2.791147e-04 2.403371e-04 0.000000e+00 0.000000e+00 0.000000e+00 0.000000e+00 2.402347e-04 -1.286203e-04 0.000000e+00 -1.286203e-04 -2.842749e-04 0.000000e+00 0.000000e+00 0.000000e+00 0.000000e+00 -2.282108e-05 -3.313505e-04 0.000000e+00 -3.313505e-04 7.416934e-05 0.000000e+00 0.000000e+00 0.000000e+00 0.000000e+00 3.979003e-04 -2.263596e-04 0.000000e+00 -2.263596e-04 1.021284e-04 0.000000e+00 0.000000e+00 0.000000e+00 0.000000e+00 2.898671e-05 2.418995e-04 0.000000e+00 2.418995e-04 3.270742e-04 0.000000e+00 0.000000e+00 0.000000e+00 0.000000e+00 1.951666e-04 -1.516128e-04 0.000000e+00 -1.516128e-04 -3.769291e-04 0.000000e+00 0.000000e+00 0.000000e+00 0.000000e+00 4.525898e-05 -1.062859e-04 0.000000e+00 -1.062859e-04 8.628518e-04 0.000000e+00 0.000000e+00 0.000000e+00 0.000000e+00 2.975524e-04 -3.117176e-04 0.000000e+00 -3.117176e-04 3.476108e-04 0.000000e+00 0.000000e+00 0.000000e+00 0.000000e+00 3.087799e-04 -2.994972e-04 0.000000e+00 -2.994972e-04 2.229984e-04 0.000000e+00 0.000000e+00 0.000000e+00 0.000000e+00 -1.262156e-04 -1.374952e-04 0.000000e+00 -1.374952e-04 3.872124e-04 0.000000e+00 0.000000e+00 0.000000e+00 0.000000e+00 4.432034e-05 2.314455e-04 0.000000e+00 2.314455e-04 1.266408e-04 0.000000e+00 0.000000e+00 0.000000e+00 0.000000e+00 1.653606e-04 -2.122326e-04 0.000000e+00 -2.122326e-04 9.191212e-04 0.000000e+00 0.000000e+00 0.000000e+00 0.000000e+00 2.473908e-04 -3.135179e-04 0.000000e+00 -3.135179e-04 5.082261e-04 0.000000e+00 0.000000e+00 0.000000e+00 0.000000e+00 1.417685e-04 -2.931260e-04 0.000000e+00 -2.931260e-04 -1.393074e-04 0.000000e+00 0.000000e+00 0.000000e+00 0.000000e+00 2.266922e-04 -2.073761e-04 0.000000e+00 -2.073761e-04 -1.939313e-04 0.000000e+00 0.000000e+00 0.000000e+00 0.000000e+00 3.091280e-04 -2.642226e-04 0.000000e+00 -2.642226e-04 8.159714e-05 0.000000e+00 0.000000e+00 0.000000e+00 0.000000e+00 -2.705519e-05 1.612325e-07 0.000000e+00 1.612325e-07 7.792757e-04 0.000000e+00 0.000000e+00 0.000000e+00 0.000000e+00 1.835918e-04 -3.099996e-04 0.000000e+00 -3.099996e-04 4.419348e-04 0.000000e+00 0.000000e+00 0.000000e+00 0.000000e+00 2.693390e-04 -2.353127e-04 0.000000e+00 -2.353127e-04 -5.613166e-05 0.000000e+00 0.000000e+00 0.000000e+00 0.000000e+00 2.535112e-04 -1.941529e-04 0.000000e+00 -1.941529e-04 -1.585236e-04 0.000000e+00 0.000000e+00 0.000000e+00 0.000000e+00 -8.077596e-05 -2.490699e-04 0.000000e+00 -2.490699e-04 3.101930e-04 0.000000e+00 0.000000e+00 0.000000e+00 0.000000e+00 7.331305e-05 2.315209e-04 0.000000e+00 2.315209e-04 5.675216e-05 0.000000e+00 0.000000e+00 0.000000e+00 0.000000e+00 3.383061e-04 -2.695220e-04 0.000000e+00 -2.695220e-04 1.322499e-04 0.000000e+00 0.000000e+00 0.000000e+00 0.000000e+00 2.028284e-04 -2.039184e-04 0.000000e+00 -2.039184e-04 -2.455901e-04 0.000000e+00 0.000000e+00 0.000000e+00 0.000000e+00 -6.598899e-05 1.497500e-04 0.000000e+00 1.497500e-04 3.230594e-04 0.000000e+00 0.000000e+00 0.000000e+00 0.000000e+00 2.994841e-05 2.317126e-04 0.000000e+00 2.317126e-04 2.134914e-04 0.000000e+00 0.000000e+00 0.000000e+00 0.000000e+00 3.089866e-04 -2.526465e-04 0.000000e+00 -2.526465e-04 2.897766e-05 0.000000e+00 0.000000e+00 0.000000e+00 0.000000e+00 -1.243068e-04 1.211152e-05 0.000000e+00 1.211152e-05 3.949304e-04 0.000000e+00 0.000000e+00 0.000000e+00 0.000000e+00 1.864055e-04 -2.548211e-04 0.000000e+00 -2.548211e-04 -1.623448e-04 0.000000e+00 0.000000e+00 0.000000e+00 0.000000e+00 3.377925e-05 -1.734271e-04 0.000000e+00 -1.734271e-04 7.245376e-04 0.000000e+00 0.000000e+00 0.000000e+00 0.000000e+00 2.227975e-04 -3.189566e-04 0.000000e+00 -3.189566e-04 2.967285e-04 0.000000e+00 0.000000e+00 0.000000e+00 0.000000e+00 2.849412e-04 -2.445910e-04 0.000000e+00 -2.445910e-04 -1.047308e-05 0.000000e+00 0.000000e+00 0.000000e+00 0.000000e+00 2.310906e-04 -2.635758e-04 0.000000e+00 -2.635758e-04 -6.526286e-05 0.000000e+00 0.000000e+00 0.000000e+00 0.000000e+00 -2.330257e-05 -3.148970e-04 0.000000e+00 -3.148970e-04 2.177012e-04 0.000000e+00 0.000000e+00 0.000000e+00 0.000000e+00 2.563459e-04 -3.017866e-04 0.000000e+00 -3.017866e-04 1.649625e-04 0.000000e+00 0.000000e+00 0.000000e+00 0.000000e+00 2.195596e-04 -1.618995e-04 0.000000e+00 -1.618995e-04 -2.864853e-04 0.000000e+00 0.000000e+00 0.000000e+00 0.000000e+00 -2.184876e-06 -3.369438e-04 0.000000e+00 -3.369438e-04 1.267462e-04 0.000000e+00 0.000000e+00 0.000000e+00 0.000000e+00 2.266815e-04 -2.354371e-04 0.000000e+00 -2.354371e-04 -1.347685e-04 0.000000e+00 0.000000e+00 0.000000e+00 0.000000e+00 1.623156e-04 -2.606076e-04 0.000000e+00 -2.606076e-04 7.185990e-04 0.000000e+00 0.000000e+00 0.000000e+00 0.000000e+00 1.126846e-04 -2.727359e-04 0.000000e+00 -2.727359e-04 5.978597e-04 0.000000e+00 0.000000e+00 0.000000e+00 0.000000e+00 -6.530553e-05 -2.102603e-04 0.000000e+00 -2.102603e-04 4.108668e-04 0.000000e+00 0.000000e+00 0.000000e+00 0.000000e+00 -5.969640e-05 3.739029e-05 0.000000e+00 3.739029e-05 6.619094e-04 0.000000e+00 0.000000e+00 0.000000e+00 0.000000e+00 1.023433e-04 -3.289901e-04 0.000000e+00 -3.289901e-04 -3.887801e-05 0.000000e+00 0.000000e+00 0.000000e+00 0.000000e+00 1.558312e-04 -3.037971e-04 0.000000e+00 -3.037971e-04 -6.779292e-05 0.000000e+00 0.000000e+00 0.000000e+00 0.000000e+00 -6.656221e-05 1.268690e-04 0.000000e+00 1.268690e-04 4.389670e-04 0.000000e+00 0.000000e+00 0.000000e+00 0.000000e+00 2.058411e-04 -1.730011e-04 0.000000e+00 -1.730011e-04 -3.150940e-04 0.000000e+00 0.000000e+00 0.000000e+00 0.000000e+00 -1.025674e-04 -5.386162e-05 0.000000e+00 -5.386162e-05 4.860010e-04 0.000000e+00 0.000000e+00 0.000000e+00 0.000000e+00 2.334386e-04 -2.822423e-04 0.000000e+00 -2.822423e-04 -3.587563e-07 0.000000e+00 0.000000e+00 0.000000e+00 0.000000e+00 8.574489e-06 -3.049251e-04 0.000000e+00 -3.049251e-04 2.813878e-04 0.000000e+00 0.000000e+00 0.000000e+00 0.000000e+00 2.496738e-04 -2.920038e-04 0.000000e+00 -2.920038e-04 6.852059e-05 0.000000e+00 0.000000e+00 0.000000e+00 0.000000e+00 6.080980e-05 -3.431303e-04 0.000000e+00 -3.431303e-04 5.742260e-05 0.000000e+00 0.000000e+00 0.000000e+00 0.000000e+00 -4.665523e-05 -1.050927e-04 0.000000e+00 -1.050927e-04 6.639599e-04 0.000000e+00 0.000000e+00 0.000000e+00 0.000000e+00 1.176267e-04 -3.326451e-04 0.000000e+00 -3.326451e-04 4.734111e-05 0.000000e+00 0.000000e+00 0.000000e+00 0.000000e+00 1.897211e-04 -3.241042e-04 0.000000e+00 -3.241042e-04 2.260842e-04 0.000000e+00 0.000000e+00 0.000000e+00 0.000000e+00 -4.480201e-05 -1.837373e-04 0.000000e+00 -1.837373e-04 5.252200e-04 0.000000e+00 0.000000e+00 0.000000e+00 0.000000e+00 1.331764e-04 -3.085603e-04 0.000000e+00 -3.085603e-04 3.805876e-04 0.000000e+00 0.000000e+00 0.000000e+00 0.000000e+00 1.762103e-04 -3.173908e-04 0.000000e+00 -3.173908e-04 6.720182e-05 0.000000e+00 0.000000e+00 0.000000e+00 0.000000e+00 1.965440e-04 -2.750264e-04 0.000000e+00 -2.750264e-04 -9.003519e-05 0.000000e+00 0.000000e+00 0.000000e+00 0.000000e+00 1.804925e-04 -3.207347e-04 0.000000e+00 -3.207347e-04 1.497285e-04 0.000000e+00 0.000000e+00 0.000000e+00 0.000000e+00 1.112975e-05 -2.109951e-04 0.000000e+00 -2.109951e-04 6.078488e-04 0.000000e+00 0.000000e+00 0.000000e+00 0.000000e+00 -6.146097e-05 1.130097e-04 0.000000e+00 1.130097e-04 5.673181e-04 0.000000e+00 0.000000e+00 0.000000e+00 0.000000e+00 5.692002e-05 -2.684060e-04 0.000000e+00 -2.684060e-04 5.065482e-04 0.000000e+00 0.000000e+00 0.000000e+00 0.000000e+00 1.843387e-04 -3.036331e-04 0.000000e+00 -3.036331e-04 -1.526274e-05 0.000000e+00 0.000000e+00 0.000000e+00 0.000000e+00 -8.256623e-05 -4.624494e-05 0.000000e+00 -4.624494e-05 5.850693e-04 0.000000e+00 0.000000e+00 0.000000e+00 0.000000e+00 4.682336e-05 -3.380860e-04 0.000000e+00 -3.380860e-04 1.460769e-04 0.000000e+00 0.000000e+00 0.000000e+00 0.000000e+00 1.288848e-04 -3.236225e-04 0.000000e+00 -3.236225e-04 3.167041e-04 0.000000e+00 0.000000e+00 0.000000e+00 0.000000e+00 3.022150e-05 -2.808758e-04 0.000000e+00 -2.808758e-04 3.835138e-04 0.000000e+00 0.000000e+00 0.000000e+00 0.000000e+00 9.962310e-05 -3.335353e-04 0.000000e+00 -3.335353e-04 1.626875e-04 0.000000e+00 0.000000e+00 0.000000e+00 0.000000e+00 1.036847e-04 -3.257957e-04 0.000000e+00 -3.257957e-04 2.457373e-04 0.000000e+00 0.000000e+00 0.000000e+00 0.000000e+00 </DataArray>
</PointData>
<CellData Scalars="" Vectors="" Tensors="" >
</CellData>
</Piece>
</UnstructuredGrid>
</VTKFile>