<VTKFile type="UnstructuredGrid" version="0.1" byte_order="LittleEndian">
<UnstructuredGrid>
<Piece NumberOfPoints="1187" NumberOfCells="1187">
<Points>
 <DataArray type="Float64" NumberOfComponents="3" format="ascii"> -2.332000e-02 1.736043e-04 0.000000e+00 -2.232320e-02 1.539420e-04 0.000000e+00 -2.136317e-02 1.603477e-04 0.000000e+00 -2.040513e-02 1.642530e-04 0.000000e+00 -1.944433e-02 1.655560e-04 0.000000e+00 -1.848023e-02 1.652967e-04 0.000000e+00 -1.751903e-02 1.563843e-04 0.000000e+00 -1.656200e-02 1.559450e-04 0.000000e+00 -1.560550e-02 1.591977e-04 0.000000e+00 -1.464463e-02 1.630360e-04 0.000000e+00 -1.368757e-02 1.657183e-04 0.000000e+00 -1.272113e-02 1.614177e-04 0.000000e+00 -1.176670e-02 1.655930e-04 0.000000e+00 -1.080180e-02 1.615147e-04 0.000000e+00 -9.848193e-03 1.588433e-04 0.000000e+00 -8.875250e-03 1.613557e-04 0.000000e+00 -7.915243e-03 1.670577e-04 0.000000e+00 -6.956947e-03 1.640973e-04 0.000000e+00 -6.006427e-03 1.415340e-04 0.000000e+00 -5.035117e-03 1.576240e-04 0.000000e+00 -4.075140e-03 1.611887e-04 0.000000e+00 -3.122987e-03 1.483890e-04 0.000000e+00 -2.163810e-03 1.587610e-04 0.000000e+00 -1.195820e-03 1.744137e-04 0.000000e+00 -1.989733e-04 2.049480e-04 0.000000e+00 5.899183e-03 6.880700e-04 0.000000e+00 9.634380e-03 8.314163e-04 0.000000e+00 1.288147e-02 8.811043e-04 0.000000e+00 1.556457e-02 8.507557e-04 0.000000e+00 1.625697e-02 1.110600e-03 0.000000e+00 1.714523e-02 1.943163e-03 0.000000e+00 1.858460e-02 2.346393e-03 0.000000e+00 2.161180e-02 2.502910e-03 0.000000e+00 2.617350e-02 2.524113e-03 0.000000e+00 3.137873e-02 2.639627e-03 0.000000e+00 3.752137e-02 3.008683e-03 0.000000e+00 3.776597e-02 6.166347e-03 0.000000e+00 3.784643e-02 1.101230e-02 0.000000e+00 3.786090e-02 1.518913e-02 0.000000e+00 3.783230e-02 1.955867e-02 0.000000e+00 3.754713e-02 2.470217e-02 0.000000e+00 3.723927e-02 2.790707e-02 0.000000e+00 3.628640e-02 2.608390e-02 0.000000e+00 3.611833e-02 2.912723e-02 0.000000e+00 3.408643e-02 2.912723e-02 0.000000e+00 3.087660e-02 2.921273e-02 0.000000e+00 2.501827e-02 2.926087e-02 0.000000e+00 1.904280e-02 2.911593e-02 0.000000e+00 1.198477e-02 2.896897e-02 0.000000e+00 3.632203e-03 2.877927e-02 0.000000e+00 -6.986700e-03 2.871053e-02 0.000000e+00 -1.324537e-02 2.870067e-02 0.000000e+00 -1.980157e-02 2.827160e-02 0.000000e+00 -1.603787e-02 2.697227e-02 0.000000e+00 -2.214197e-02 2.605700e-02 0.000000e+00 -2.292793e-02 2.020170e-02 0.000000e+00 3.262367e-02 1.308173e-02 0.000000e+00 3.230910e-02 1.158190e-02 0.000000e+00 3.163363e-02 1.021931e-02 0.000000e+00 3.067930e-02 9.118857e-03 0.000000e+00 2.954320e-02 8.202103e-03 0.000000e+00 2.821697e-02 7.534673e-03 0.000000e+00 2.677307e-02 7.219233e-03 0.000000e+00 2.535023e-02 7.229130e-03 0.000000e+00 2.386283e-02 7.541663e-03 0.000000e+00 2.245127e-02 8.173457e-03 0.000000e+00 2.127943e-02 9.111423e-03 0.000000e+00 2.036480e-02 1.024937e-02 0.000000e+00 1.971930e-02 1.160353e-02 0.000000e+00 1.938457e-02 1.303760e-02 0.000000e+00 1.937697e-02 1.447027e-02 0.000000e+00 1.966720e-02 1.588373e-02 0.000000e+00 2.030720e-02 1.725297e-02 0.000000e+00 2.126137e-02 1.847507e-02 0.000000e+00 2.246777e-02 1.943387e-02 0.000000e+00 2.380200e-02 2.006090e-02 0.000000e+00 2.519913e-02 2.038260e-02 0.000000e+00 2.659083e-02 2.039017e-02 0.000000e+00 2.803923e-02 2.009040e-02 0.000000e+00 2.941547e-02 1.950650e-02 0.000000e+00 3.063903e-02 1.857997e-02 0.000000e+00 3.163043e-02 1.731373e-02 0.000000e+00 3.228907e-02 1.595550e-02 0.000000e+00 3.260633e-02 1.455787e-02 0.000000e+00 3.678733e-02 4.307610e-03 0.000000e+00 -2.364000e-02 1.736043e-04 0.000000e+00 -2.281467e-02 1.631223e-04 0.000000e+00 -2.309467e-02 3.367267e-04 0.000000e+00 -2.257787e-02 3.170643e-04 0.000000e+00 -2.184373e-02 1.550423e-04 0.000000e+00 -2.160690e-02 3.153900e-04 0.000000e+00 -2.087983e-02 1.651600e-04 0.000000e+00 -1.992243e-02 1.635233e-04 0.000000e+00 -1.896147e-02 1.715653e-04 0.000000e+00 -1.920580e-02 3.371213e-04 0.000000e+00 -1.872170e-02 3.368620e-04 0.000000e+00 -1.799830e-02 1.583367e-04 0.000000e+00 -1.704340e-02 1.550750e-04 0.000000e+00 -1.607933e-02 1.567140e-04 0.000000e+00 -1.512317e-02 1.617350e-04 0.000000e+00 -1.536867e-02 3.209327e-04 0.000000e+00 -1.488780e-02 3.247710e-04 0.000000e+00 -1.417147e-02 1.657430e-04 0.000000e+00 -1.320137e-02 1.615120e-04 0.000000e+00 -1.224380e-02 1.628883e-04 0.000000e+00 -1.248493e-02 3.243060e-04 0.000000e+00 -1.201050e-02 3.284813e-04 0.000000e+00 -1.128930e-02 1.641377e-04 0.000000e+00 -1.032373e-02 1.591453e-04 0.000000e+00 -9.361707e-03 1.591803e-04 0.000000e+00 -9.609900e-03 3.180237e-04 0.000000e+00 -9.116957e-03 3.205360e-04 0.000000e+00 -8.396620e-03 1.641813e-04 0.000000e+00 -8.151863e-03 3.312390e-04 0.000000e+00 -7.440907e-03 1.688460e-04 0.000000e+00 -6.475497e-03 1.541883e-04 0.000000e+00 -5.522450e-03 1.401560e-04 0.000000e+00 -5.768877e-03 2.816900e-04 0.000000e+00 -5.277567e-03 2.977800e-04 0.000000e+00 -4.557890e-03 1.618643e-04 0.000000e+00 -3.599783e-03 1.586310e-04 0.000000e+00 -2.639110e-03 1.465977e-04 0.000000e+00 -1.678670e-03 1.661163e-04 0.000000e+00 -1.922480e-03 3.248773e-04 0.000000e+00 -1.434490e-03 3.405300e-04 0.000000e+00 -7.058257e-04 1.853213e-04 0.000000e+00 4.950083e-03 1.130889e-03 0.000000e+00 3.849230e-03 5.918352e-04 0.000000e+00 7.838260e-03 7.557517e-04 0.000000e+00 1.133543e-02 8.656797e-04 0.000000e+00 1.427630e-02 8.817397e-04 0.000000e+00 1.640513e-02 1.806197e-03 0.000000e+00 1.733643e-02 2.723213e-03 0.000000e+00 1.805710e-02 2.874010e-03 0.000000e+00 1.993840e-02 2.425463e-03 0.000000e+00 2.375830e-02 2.577830e-03 0.000000e+00 2.505957e-02 3.101943e-03 0.000000e+00 3.005377e-02 3.205280e-03 0.000000e+00 2.871977e-02 2.565653e-03 0.000000e+00 3.409720e-02 2.803037e-03 0.000000e+00 3.707943e-02 7.335193e-03 0.000000e+00 3.781347e-02 8.701033e-03 0.000000e+00 3.715990e-02 9.769497e-03 0.000000e+00 3.788740e-02 1.314723e-02 0.000000e+00 3.774823e-02 1.729790e-02 0.000000e+00 3.770757e-02 2.198053e-02 0.000000e+00 1.732697e-02 2.813503e-02 0.000000e+00 1.557927e-02 2.901910e-02 0.000000e+00 3.269900e-02 2.833997e-02 0.000000e+00 2.935370e-02 2.845227e-02 0.000000e+00 2.781170e-02 2.923953e-02 0.000000e+00 2.639500e-02 2.850040e-02 0.000000e+00 2.223157e-02 2.922417e-02 0.000000e+00 1.381527e-02 2.798807e-02 0.000000e+00 8.031137e-03 2.889270e-02 0.000000e+00 -4.123090e-03 2.728437e-02 0.000000e+00 -1.198417e-03 2.857383e-02 0.000000e+00 -1.002719e-02 2.741120e-02 0.000000e+00 3.294570e-02 1.223310e-02 0.000000e+00 3.308240e-02 1.382250e-02 0.000000e+00 3.240927e-02 1.066846e-02 0.000000e+00 3.151247e-02 9.382083e-03 0.000000e+00 3.036437e-02 8.311407e-03 0.000000e+00 2.906530e-02 7.459887e-03 0.000000e+00 2.756433e-02 6.933003e-03 0.000000e+00 2.604700e-02 6.802027e-03 0.000000e+00 2.451277e-02 6.968320e-03 0.000000e+00 2.295897e-02 7.446843e-03 0.000000e+00 2.158077e-02 8.277360e-03 0.000000e+00 2.046297e-02 9.380470e-03 0.000000e+00 1.962013e-02 1.072123e-02 0.000000e+00 1.909593e-02 1.221973e-02 0.000000e+00 1.891300e-02 1.375080e-02 0.000000e+00 1.906483e-02 1.527593e-02 0.000000e+00 1.955993e-02 1.677317e-02 0.000000e+00 2.042313e-02 1.817600e-02 0.000000e+00 2.157573e-02 1.932917e-02 0.000000e+00 2.294480e-02 2.016120e-02 0.000000e+00 2.440160e-02 2.064950e-02 0.000000e+00 2.589963e-02 2.081680e-02 0.000000e+00 2.739473e-02 2.065897e-02 0.000000e+00 2.894647e-02 2.018490e-02 0.000000e+00 3.032357e-02 1.941143e-02 0.000000e+00 3.151980e-02 1.822977e-02 0.000000e+00 3.238047e-02 1.681127e-02 0.000000e+00 3.289473e-02 1.536320e-02 0.000000e+00 -1.138429e-03 8.096280e-03 0.000000e+00 -2.208693e-02 3.089843e-04 0.000000e+00 -2.112300e-02 3.255077e-04 0.000000e+00 -2.016757e-02 3.277763e-04 0.000000e+00 -1.775733e-02 3.147210e-04 0.000000e+00 -1.823853e-02 3.236333e-04 0.000000e+00 -1.728243e-02 3.114593e-04 0.000000e+00 -1.632133e-02 3.126590e-04 0.000000e+00 -1.393903e-02 3.314613e-04 0.000000e+00 -1.441610e-02 3.287790e-04 0.000000e+00 -1.344893e-02 3.272303e-04 0.000000e+00 -1.105110e-02 3.256523e-04 0.000000e+00 -1.153600e-02 3.297307e-04 0.000000e+00 -1.056553e-02 3.206600e-04 0.000000e+00 -8.631870e-03 3.255370e-04 0.000000e+00 -7.676150e-03 3.359037e-04 0.000000e+00 -6.712443e-03 3.182857e-04 0.000000e+00 -4.313030e-03 3.230530e-04 0.000000e+00 -4.793007e-03 3.194883e-04 0.000000e+00 -3.834923e-03 3.198197e-04 0.000000e+00 -2.882097e-03 2.949867e-04 0.000000e+00 -4.247990e-04 3.902693e-04 0.000000e+00 -9.416457e-04 3.597350e-04 0.000000e+00 6.837617e-03 1.229541e-03 0.000000e+00 1.043452e-02 1.369913e-03 0.000000e+00 1.359147e-02 1.341531e-03 0.000000e+00 1.928013e-02 2.771857e-03 0.000000e+00 2.269583e-02 3.080740e-03 0.000000e+00 2.752970e-02 3.089767e-03 0.000000e+00 3.266823e-02 3.442663e-03 0.000000e+00 3.723383e-02 1.202530e-02 0.000000e+00 3.710913e-02 1.624160e-02 0.000000e+00 3.703987e-02 2.079103e-02 0.000000e+00 2.364283e-02 2.848503e-02 0.000000e+00 1.001834e-02 2.786167e-02 0.000000e+00 1.148280e-03 2.735310e-02 0.000000e+00 -2.187153e-02 1.781887e-02 0.000000e+00 -1.584483e-02 3.159117e-04 0.000000e+00 -2.402920e-03 3.053587e-04 0.000000e+00 1.209650e-02 1.370374e-03 0.000000e+00 1.496447e-02 1.270496e-03 0.000000e+00 3.675470e-02 2.326907e-02 0.000000e+00 -1.968677e-02 3.290793e-04 0.000000e+00 -2.064497e-02 3.294130e-04 0.000000e+00 -1.680540e-02 3.110200e-04 0.000000e+00 -1.296250e-02 3.229297e-04 0.000000e+00 -1.009193e-02 3.179887e-04 0.000000e+00 -6.241923e-03 2.957223e-04 0.000000e+00 -7.197853e-03 3.329433e-04 0.000000e+00 -3.362770e-03 3.070200e-04 0.000000e+00 8.672683e-03 1.313877e-03 0.000000e+00 2.076100e-02 2.928373e-03 0.000000e+00 3.708053e-02 1.843863e-02 0.000000e+00 3.724830e-02 1.411830e-02 0.000000e+00 2.070107e-02 2.834010e-02 0.000000e+00 5.806120e-03 2.767197e-02 0.000000e+00 -2.113147e-02 6.741743e-04 0.000000e+00 -2.017700e-02 6.675697e-04 0.000000e+00 -1.681017e-02 6.413607e-04 0.000000e+00 -1.776050e-02 6.320880e-04 0.000000e+00 -2.065687e-02 6.803663e-04 0.000000e+00 -2.042647e-02 8.549997e-04 0.000000e+00 -1.728120e-02 6.240420e-04 0.000000e+00 -1.752097e-02 7.863340e-04 0.000000e+00 -1.704693e-02 7.979983e-04 0.000000e+00 -1.823567e-02 6.679367e-04 0.000000e+00 -1.799860e-02 8.200070e-04 0.000000e+00 -1.297003e-02 6.521550e-04 0.000000e+00 -1.395507e-02 6.872580e-04 0.000000e+00 -2.422197e-03 6.212563e-04 0.000000e+00 -1.345897e-02 6.659070e-04 0.000000e+00 -1.371363e-02 8.601917e-04 0.000000e+00 -1.321893e-02 8.294140e-04 0.000000e+00 -1.443523e-02 6.776690e-04 0.000000e+00 -1.420663e-02 8.704297e-04 0.000000e+00 -1.106217e-02 6.789157e-04 0.000000e+00 -1.010423e-02 6.359690e-04 0.000000e+00 -1.056813e-02 6.585800e-04 0.000000e+00 -1.081547e-02 8.526980e-04 0.000000e+00 -1.033863e-02 8.150457e-04 0.000000e+00 -1.155370e-02 6.818440e-04 0.000000e+00 -1.131807e-02 8.695143e-04 0.000000e+00 -8.626533e-03 6.718603e-04 0.000000e+00 -6.225067e-03 6.136127e-04 0.000000e+00 -7.670987e-03 6.826937e-04 0.000000e+00 -6.692707e-03 6.670623e-04 0.000000e+00 -6.438903e-03 8.208553e-04 0.000000e+00 -3.352210e-03 6.298753e-04 0.000000e+00 -4.315503e-03 6.706063e-04 0.000000e+00 -7.183523e-03 6.831767e-04 0.000000e+00 -7.421413e-03 8.658693e-04 0.000000e+00 -6.922880e-03 8.631073e-04 0.000000e+00 -3.822647e-03 6.598830e-04 0.000000e+00 -4.065337e-03 8.488053e-04 0.000000e+00 -3.576947e-03 8.215497e-04 0.000000e+00 -4.803527e-03 6.599717e-04 0.000000e+00 -4.570883e-03 8.499010e-04 0.000000e+00 -2.886033e-03 5.791333e-04 0.000000e+00 -3.116363e-03 7.553910e-04 0.000000e+00 -2.662323e-03 7.466420e-04 0.000000e+00 8.547863e-03 2.366473e-03 0.000000e+00 -3.893530e-04 7.865993e-04 0.000000e+00 1.206793e-02 2.382087e-03 0.000000e+00 6.754843e-03 2.251067e-03 0.000000e+00 7.630667e-03 2.829873e-03 0.000000e+00 4.990537e-03 2.142250e-03 0.000000e+00 5.856863e-03 2.720957e-03 0.000000e+00 -9.266963e-04 7.301950e-04 0.000000e+00 -6.554303e-04 9.521113e-04 0.000000e+00 1.034436e-02 2.423680e-03 0.000000e+00 1.121670e-02 2.931160e-03 0.000000e+00 3.125810e-03 1.048723e-03 0.000000e+00 2.066553e-02 3.906283e-03 0.000000e+00 1.505923e-02 2.117567e-03 0.000000e+00 1.917840e-02 3.580290e-03 0.000000e+00 1.974120e-02 4.211807e-03 0.000000e+00 3.511567e-02 2.311397e-02 0.000000e+00 1.580750e-02 2.393423e-03 0.000000e+00 2.260070e-02 4.251100e-03 0.000000e+00 3.586613e-02 1.862647e-02 0.000000e+00 3.603747e-02 1.191807e-02 0.000000e+00 3.005147e-02 4.419667e-03 0.000000e+00 3.250367e-02 4.738617e-03 0.000000e+00 3.524783e-02 4.101963e-03 0.000000e+00 -2.209340e-02 6.150420e-04 0.000000e+00 3.573183e-02 7.171230e-03 0.000000e+00 3.579240e-02 9.645447e-03 0.000000e+00 3.509837e-02 8.413020e-03 0.000000e+00 3.528257e-02 1.078102e-02 0.000000e+00 2.079387e-02 2.676097e-02 0.000000e+00 3.563480e-02 2.079390e-02 0.000000e+00 3.521283e-02 1.974937e-02 0.000000e+00 3.466347e-02 2.182830e-02 0.000000e+00 3.609167e-02 1.403767e-02 0.000000e+00 2.365937e-02 2.705360e-02 0.000000e+00 1.749990e-02 2.625723e-02 0.000000e+00 3.429497e-02 2.573990e-02 0.000000e+00 3.391667e-02 2.420307e-02 0.000000e+00 3.273947e-02 2.677580e-02 0.000000e+00 9.975903e-03 2.575977e-02 0.000000e+00 -4.668067e-03 2.470700e-02 0.000000e+00 2.635837e-02 2.710997e-02 0.000000e+00 2.499817e-02 2.643900e-02 0.000000e+00 1.376610e-02 2.603250e-02 0.000000e+00 1.570303e-02 2.518573e-02 0.000000e+00 1.189317e-02 2.491150e-02 0.000000e+00 -9.891197e-03 2.493080e-02 0.000000e+00 -1.994560e-02 1.818683e-02 0.000000e+00 -1.508767e-02 2.441360e-02 0.000000e+00 -2.106990e-02 2.280297e-02 0.000000e+00 -2.161170e-02 6.396367e-04 0.000000e+00 -2.185500e-02 7.853467e-04 0.000000e+00 -2.137643e-02 8.332610e-04 0.000000e+00 -8.140893e-03 6.772690e-04 0.000000e+00 -8.380313e-03 8.565347e-04 0.000000e+00 -7.899110e-03 8.598777e-04 0.000000e+00 1.605870e-04 4.904367e-04 0.000000e+00 2.933663e-02 2.694580e-02 0.000000e+00 3.090000e-02 2.614210e-02 0.000000e+00 2.775800e-02 2.634263e-02 0.000000e+00 -2.234150e-02 1.564757e-02 0.000000e+00 3.388193e-02 1.206330e-02 0.000000e+00 -1.584783e-02 6.313860e-04 0.000000e+00 3.214200e-02 8.751980e-03 0.000000e+00 3.083187e-02 7.693727e-03 0.000000e+00 2.947333e-02 6.606507e-03 0.000000e+00 2.767550e-02 6.075050e-03 0.000000e+00 2.432400e-02 6.221340e-03 0.000000e+00 2.261970e-02 6.558173e-03 0.000000e+00 2.106680e-02 7.550473e-03 0.000000e+00 1.881357e-02 1.035269e-02 0.000000e+00 1.799233e-02 1.375013e-02 0.000000e+00 1.869060e-02 1.718847e-02 0.000000e+00 1.968563e-02 1.877930e-02 0.000000e+00 2.102133e-02 2.008083e-02 0.000000e+00 2.255063e-02 2.098120e-02 0.000000e+00 2.590557e-02 2.166383e-02 0.000000e+00 2.757607e-02 2.145653e-02 0.000000e+00 2.930520e-02 2.098250e-02 0.000000e+00 3.226413e-02 1.873693e-02 0.000000e+00 3.320063e-02 1.716293e-02 0.000000e+00 2.277147e-03 8.143718e-04 0.000000e+00 3.355163e-03 2.058880e-03 0.000000e+00 4.119037e-03 2.613353e-03 0.000000e+00 3.487887e-02 5.796737e-03 0.000000e+00 -2.104710e-02 1.444430e-02 0.000000e+00 2.066997e-03 1.553265e-03 0.000000e+00 -2.309697e-02 6.830367e-04 0.000000e+00 2.142120e-02 4.651180e-03 0.000000e+00 -2.090020e-02 8.647800e-04 0.000000e+00 -1.920997e-02 6.935513e-04 0.000000e+00 -1.274020e-02 8.278563e-04 0.000000e+00 -1.249647e-02 6.615193e-04 0.000000e+00 -1.632307e-02 6.368347e-04 0.000000e+00 3.356367e-02 5.793763e-03 0.000000e+00 -9.863427e-03 8.021573e-04 0.000000e+00 -9.612833e-03 6.433573e-04 0.000000e+00 -1.656850e-02 8.104613e-04 0.000000e+00 -5.994700e-03 7.347690e-04 0.000000e+00 -5.774007e-03 5.570347e-04 0.000000e+00 2.255800e-04 9.051833e-04 0.000000e+00 9.419393e-03 2.937780e-03 0.000000e+00 -9.853433e-05 1.016025e-03 0.000000e+00 1.286917e-02 2.836703e-03 0.000000e+00 1.360773e-02 2.285417e-03 0.000000e+00 2.624673e-03 2.309320e-03 0.000000e+00 -2.194553e-03 8.079053e-04 0.000000e+00 -1.933947e-03 6.581240e-04 0.000000e+00 1.438733e-02 2.672697e-03 0.000000e+00 1.837113e-02 3.682443e-03 0.000000e+00 7.976040e-03 2.452527e-02 0.000000e+00 5.793457e-03 2.540643e-02 0.000000e+00 1.595987e-02 3.243063e-03 0.000000e+00 1.674870e-02 3.435887e-03 0.000000e+00 2.345150e-02 4.894410e-03 0.000000e+00 2.234090e-02 2.621360e-02 0.000000e+00 2.768227e-02 4.134707e-03 0.000000e+00 2.887003e-02 4.824980e-03 0.000000e+00 3.121187e-02 5.149967e-03 0.000000e+00 -2.130067e-02 1.282827e-02 0.000000e+00 -1.985610e-02 1.497737e-02 0.000000e+00 1.930853e-02 2.565900e-02 0.000000e+00 -1.969310e-02 6.670293e-04 0.000000e+00 -2.703100e-03 2.327877e-02 0.000000e+00 1.463047e-03 1.631935e-03 0.000000e+00 -1.993820e-02 8.412667e-04 0.000000e+00 -1.922457e-02 1.654860e-02 0.000000e+00 -1.945483e-02 8.599360e-04 0.000000e+00 -1.215918e-02 2.366160e-02 0.000000e+00 -1.886943e-02 2.203520e-02 0.000000e+00 -2.339790e-02 1.381913e-02 0.000000e+00 3.400910e-02 1.385767e-02 0.000000e+00 -1.561703e-02 7.924050e-04 0.000000e+00 -1.537720e-02 6.386657e-04 0.000000e+00 3.400423e-02 1.651773e-02 0.000000e+00 3.378973e-02 1.557377e-02 0.000000e+00 3.319493e-02 1.817257e-02 0.000000e+00 3.048700e-02 2.104420e-02 0.000000e+00 3.103637e-02 2.015153e-02 0.000000e+00 2.857930e-02 2.168557e-02 0.000000e+00 2.677810e-02 2.203477e-02 0.000000e+00 2.322713e-02 2.174373e-02 0.000000e+00 2.422090e-02 2.151233e-02 0.000000e+00 2.151920e-02 2.100553e-02 0.000000e+00 2.099827e-02 2.193663e-02 0.000000e+00 1.996947e-02 1.983003e-02 0.000000e+00 1.870037e-02 1.827157e-02 0.000000e+00 1.753440e-02 1.466473e-02 0.000000e+00 1.814293e-02 1.547107e-02 0.000000e+00 1.800960e-02 1.104843e-02 0.000000e+00 1.819280e-02 1.203317e-02 0.000000e+00 2.003213e-02 7.793663e-03 0.000000e+00 1.972963e-02 8.789597e-03 0.000000e+00 2.159803e-02 6.557900e-03 0.000000e+00 2.333480e-02 5.906013e-03 0.000000e+00 2.678890e-02 5.522403e-03 0.000000e+00 2.666180e-02 4.580420e-03 0.000000e+00 2.595167e-02 5.963150e-03 0.000000e+00 2.873617e-02 5.823340e-03 0.000000e+00 3.177633e-02 7.871073e-03 0.000000e+00 -1.665090e-02 2.273057e-02 0.000000e+00 3.417483e-02 1.093852e-02 0.000000e+00 -1.608407e-02 7.963640e-04 0.000000e+00 2.506613e-02 5.643273e-03 0.000000e+00 1.882490e-02 9.289963e-03 0.000000e+00 1.756077e-02 1.285037e-02 0.000000e+00 1.787597e-02 1.649417e-02 0.000000e+00 2.502437e-02 2.209247e-02 0.000000e+00 3.209617e-02 1.982723e-02 0.000000e+00 3.333877e-02 1.019487e-02 0.000000e+00 -2.258683e-02 6.357107e-04 0.000000e+00 -2.282593e-02 8.280787e-04 0.000000e+00 -2.233863e-02 7.786460e-04 0.000000e+00 -1.872067e-02 6.936587e-04 0.000000e+00 -1.896460e-02 8.847920e-04 0.000000e+00 -1.847633e-02 8.663967e-04 0.000000e+00 -1.489527e-02 6.508127e-04 0.000000e+00 -1.513917e-02 8.055097e-04 0.000000e+00 -1.467123e-02 8.379677e-04 0.000000e+00 -1.202210e-02 6.773313e-04 0.000000e+00 -1.226693e-02 8.489517e-04 0.000000e+00 -1.179600e-02 8.665563e-04 0.000000e+00 -9.124930e-03 6.613460e-04 0.000000e+00 -9.372613e-03 8.253240e-04 0.000000e+00 -8.877887e-03 8.484890e-04 0.000000e+00 -5.293817e-03 6.175843e-04 0.000000e+00 -5.543830e-03 7.353050e-04 0.000000e+00 -5.061887e-03 8.179117e-04 0.000000e+00 -1.435627e-03 6.882900e-04 0.000000e+00 -1.691273e-03 8.471230e-04 0.000000e+00 -1.182007e-03 8.926337e-04 0.000000e+00 2.539530e-02 4.113310e-03 0.000000e+00 3.586767e-02 1.610443e-02 0.000000e+00 1.321520e-03 2.492930e-02 0.000000e+00 -2.259507e-02 1.193533e-02 0.000000e+00 -2.258303e-02 1.040013e-02 0.000000e+00 -2.062893e-02 1.077192e-02 0.000000e+00 5.624867e-04 1.286269e-03 0.000000e+00 3.792780e-03 2.408993e-02 0.000000e+00 3.442803e-02 1.480360e-02 0.000000e+00 -1.880153e-02 1.980190e-02 0.000000e+00 -2.148737e-02 1.008898e-02 0.000000e+00 3.319267e-02 9.115627e-03 0.000000e+00 -2.043020e-02 1.197600e-02 0.000000e+00 -1.990343e-02 1.000308e-02 0.000000e+00 -2.029727e-02 8.987387e-03 0.000000e+00 -2.121147e-02 9.009147e-03 0.000000e+00 2.105560e-02 5.737430e-03 0.000000e+00 -2.091647e-02 1.256287e-03 0.000000e+00 -1.421800e-02 1.270137e-03 0.000000e+00 3.319577e-02 6.996180e-03 0.000000e+00 -4.605877e-03 1.223703e-03 0.000000e+00 -1.132327e-02 1.269920e-03 0.000000e+00 4.062860e-03 2.192527e-02 0.000000e+00 -6.372183e-03 1.203270e-03 0.000000e+00 9.379530e-03 4.036273e-03 0.000000e+00 -1.655530e-02 1.218693e-03 0.000000e+00 7.580757e-03 3.932737e-03 0.000000e+00 8.458090e-03 4.567830e-03 0.000000e+00 1.796320e-02 4.402587e-03 0.000000e+00 1.293797e-02 3.861143e-03 0.000000e+00 -5.262590e-05 1.424830e-03 0.000000e+00 1.452027e-02 3.629000e-03 0.000000e+00 1.380947e-02 4.266160e-03 0.000000e+00 1.534453e-02 3.923510e-03 0.000000e+00 5.835037e-03 3.779433e-03 0.000000e+00 6.683107e-03 4.412407e-03 0.000000e+00 -6.442880e-04 1.361610e-03 0.000000e+00 -3.323022e-04 1.604903e-03 0.000000e+00 1.122253e-02 4.017227e-03 0.000000e+00 1.214257e-02 4.492593e-03 0.000000e+00 1.375263e-03 3.070085e-04 0.000000e+00 1.301493e-03 2.336470e-03 0.000000e+00 -3.277010e-03 2.101097e-02 0.000000e+00 2.251423e-02 2.490727e-02 0.000000e+00 8.089197e-03 2.242460e-02 0.000000e+00 -1.876427e-02 1.390437e-02 0.000000e+00 3.698614e-04 1.614533e-03 0.000000e+00 -1.947213e-02 1.251523e-03 0.000000e+00 1.974917e-02 2.420257e-02 0.000000e+00 3.387750e-02 8.240943e-03 0.000000e+00 -1.799170e-02 1.179814e-03 0.000000e+00 -1.176068e-02 2.144077e-02 0.000000e+00 3.238230e-02 2.381337e-02 0.000000e+00 -7.395687e-03 2.365277e-02 0.000000e+00 1.993857e-02 5.931157e-03 0.000000e+00 1.937983e-02 5.150430e-03 0.000000e+00 1.944633e-02 6.994817e-03 0.000000e+00 3.448660e-02 1.294710e-02 0.000000e+00 4.141643e-03 3.723167e-03 0.000000e+00 4.991317e-03 4.310540e-03 0.000000e+00 -6.312497e-03 6.714737e-03 0.000000e+00 2.496660e-02 2.305317e-02 0.000000e+00 1.683837e-02 1.681310e-02 0.000000e+00 1.652663e-02 1.277687e-02 0.000000e+00 3.041873e-02 6.731043e-03 0.000000e+00 -1.768927e-02 1.650597e-02 0.000000e+00 -1.908480e-02 1.251903e-02 0.000000e+00 -1.555473e-02 2.079750e-02 0.000000e+00 -1.359300e-02 2.025970e-02 0.000000e+00 -1.691940e-02 1.939447e-02 0.000000e+00 1.798517e-02 8.923917e-03 0.000000e+00 1.696250e-02 1.067353e-02 0.000000e+00 1.650410e-02 1.479313e-02 0.000000e+00 1.592790e-02 1.380503e-02 0.000000e+00 1.607503e-02 1.591840e-02 0.000000e+00 1.770087e-02 1.881257e-02 0.000000e+00 1.916480e-02 2.062803e-02 0.000000e+00 1.788147e-02 2.011830e-02 0.000000e+00 1.969573e-02 2.180993e-02 0.000000e+00 2.297093e-02 2.271157e-02 0.000000e+00 2.690143e-02 2.298603e-02 0.000000e+00 2.879597e-02 2.255727e-02 0.000000e+00 -6.512660e-03 7.574000e-03 0.000000e+00 -1.995007e-02 8.117607e-03 0.000000e+00 3.504740e-02 1.688067e-02 0.000000e+00 -1.894403e-02 1.014177e-02 0.000000e+00 -7.349987e-03 2.114787e-02 0.000000e+00 -5.196277e-03 1.993430e-02 0.000000e+00 -9.446997e-03 2.020507e-02 0.000000e+00 -2.067583e-02 1.447960e-03 0.000000e+00 -2.042917e-02 1.231087e-03 0.000000e+00 -8.886500e-03 1.250753e-03 0.000000e+00 -1.469827e-02 1.216292e-03 0.000000e+00 -1.447363e-02 1.455700e-03 0.000000e+00 -1.705957e-02 1.154897e-03 0.000000e+00 -1.680960e-02 1.406491e-03 0.000000e+00 -1.276757e-02 1.177555e-03 0.000000e+00 -6.878477e-03 1.251793e-03 0.000000e+00 -6.581583e-03 1.438163e-03 0.000000e+00 -5.121853e-03 1.180634e-03 0.000000e+00 -4.898487e-03 1.396497e-03 0.000000e+00 6.176693e-03 2.114110e-02 0.000000e+00 -1.181397e-03 1.277357e-03 0.000000e+00 -9.149440e-04 1.524417e-03 0.000000e+00 1.706143e-02 4.306827e-03 0.000000e+00 -3.548013e-03 1.192055e-03 0.000000e+00 -1.033743e-02 1.176084e-03 0.000000e+00 -7.393873e-03 1.229387e-03 0.000000e+00 -7.111580e-03 1.435380e-03 0.000000e+00 1.840910e-02 5.239057e-03 0.000000e+00 -1.323273e-02 1.157485e-03 0.000000e+00 -1.301120e-02 1.329925e-03 0.000000e+00 -2.752223e-03 1.078088e-03 0.000000e+00 1.031033e-02 4.608240e-03 0.000000e+00 -3.058167e-04 2.343233e-02 0.000000e+00 2.463687e-02 4.735417e-03 0.000000e+00 -2.019217e-02 1.386713e-03 0.000000e+00 -1.995067e-02 1.184323e-03 0.000000e+00 2.366580e-03 3.065250e-03 0.000000e+00 -4.355273e-03 1.423023e-03 0.000000e+00 -4.070113e-03 1.227420e-03 0.000000e+00 1.009526e-02 2.170593e-02 0.000000e+00 -1.746697e-02 1.479723e-02 0.000000e+00 3.507447e-02 1.790477e-02 0.000000e+00 -1.923220e-02 1.499817e-03 0.000000e+00 -1.896953e-02 1.299470e-03 0.000000e+00 -7.892657e-03 1.218833e-03 0.000000e+00 -7.636993e-03 1.405167e-03 0.000000e+00 3.216070e-02 2.239113e-02 0.000000e+00 1.692673e-02 9.611747e-03 0.000000e+00 -5.908683e-03 1.051952e-03 0.000000e+00 -6.072330e-03 1.313210e-03 0.000000e+00 -5.621790e-03 1.053866e-03 0.000000e+00 3.324287e-02 2.149517e-02 0.000000e+00 1.838910e-02 7.061943e-03 0.000000e+00 1.791060e-02 6.086910e-03 0.000000e+00 1.778547e-02 7.916903e-03 0.000000e+00 1.647350e-03 3.013730e-03 0.000000e+00 1.189937e-02 2.295833e-02 0.000000e+00 -1.181543e-02 1.253783e-03 0.000000e+00 -1.157833e-02 1.469477e-03 0.000000e+00 -8.375413e-03 1.240317e-03 0.000000e+00 -8.630247e-03 1.457907e-03 0.000000e+00 -8.129540e-03 1.420007e-03 0.000000e+00 1.665350e-02 1.804840e-02 0.000000e+00 1.541827e-02 1.847280e-02 0.000000e+00 -1.776230e-02 1.294650e-03 0.000000e+00 -1.752967e-02 1.089090e-03 0.000000e+00 -2.140577e-02 1.217903e-03 0.000000e+00 -1.561423e-02 1.132254e-03 0.000000e+00 -1.846850e-02 1.276543e-03 0.000000e+00 -1.822093e-02 1.437890e-03 0.000000e+00 -2.330020e-02 1.083144e-03 0.000000e+00 2.390693e-02 2.344087e-02 0.000000e+00 2.177350e-02 2.288013e-02 0.000000e+00 1.611157e-02 1.158477e-02 0.000000e+00 3.092113e-02 2.471650e-02 0.000000e+00 3.546280e-02 1.497133e-02 0.000000e+00 3.606617e-04 2.127843e-02 0.000000e+00 2.258078e-03 2.061073e-02 0.000000e+00 -1.355598e-03 2.000827e-02 0.000000e+00 -1.972287e-02 1.401673e-03 0.000000e+00 -1.010707e-02 1.326747e-03 0.000000e+00 -9.867473e-03 1.131897e-03 0.000000e+00 -2.556247e-03 1.304888e-03 0.000000e+00 -2.238703e-03 1.160091e-03 0.000000e+00 2.643367e-03 4.001433e-03 0.000000e+00 3.394317e-03 4.362860e-03 0.000000e+00 -2.117707e-02 1.450323e-03 0.000000e+00 -2.310203e-02 1.450570e-03 0.000000e+00 -2.281310e-02 1.205986e-03 0.000000e+00 3.402560e-02 1.855147e-02 0.000000e+00 2.498137e-02 2.521023e-02 0.000000e+00 -1.607943e-02 1.115453e-03 0.000000e+00 1.881230e-02 2.295780e-02 0.000000e+00 -1.652817e-02 1.773677e-02 0.000000e+00 -2.186673e-02 1.100641e-03 0.000000e+00 -2.165277e-02 1.339573e-03 0.000000e+00 2.791607e-02 2.327950e-02 0.000000e+00 3.086020e-02 2.209207e-02 0.000000e+00 -2.045917e-02 7.224357e-03 0.000000e+00 -2.233617e-02 1.093514e-03 0.000000e+00 -2.257153e-02 1.328486e-03 0.000000e+00 -2.210267e-02 1.245204e-03 0.000000e+00 -1.630523e-02 1.364156e-03 0.000000e+00 -1.106987e-02 1.462387e-03 0.000000e+00 -1.081797e-02 1.235763e-03 0.000000e+00 -1.396703e-02 1.472770e-03 0.000000e+00 -1.371423e-02 1.245997e-03 0.000000e+00 -1.584040e-02 1.290324e-03 0.000000e+00 2.381590e-02 2.451850e-02 0.000000e+00 1.709490e-02 2.249103e-02 0.000000e+00 1.669500e-02 2.083343e-02 0.000000e+00 1.559117e-02 2.335937e-02 0.000000e+00 -2.119297e-02 7.251023e-03 0.000000e+00 3.407990e-02 1.960833e-02 0.000000e+00 -1.846783e-02 9.088497e-03 0.000000e+00 -1.908003e-02 8.080033e-03 0.000000e+00 -2.159807e-02 8.166033e-03 0.000000e+00 3.308127e-02 2.031973e-02 0.000000e+00 -2.174757e-02 6.357997e-03 0.000000e+00 -2.243517e-02 6.670187e-03 0.000000e+00 -2.149623e-02 5.561960e-03 0.000000e+00 -2.313723e-02 4.654507e-03 0.000000e+00 -2.184190e-02 4.821557e-03 0.000000e+00 -2.142183e-02 4.208163e-03 0.000000e+00 -2.172737e-02 3.609793e-03 0.000000e+00 -2.084030e-02 4.205837e-03 0.000000e+00 -2.149360e-02 3.043390e-03 0.000000e+00 -2.233293e-02 3.631170e-03 0.000000e+00 -2.246367e-02 4.419383e-03 0.000000e+00 -2.257330e-02 3.067217e-03 0.000000e+00 -2.068393e-02 5.585367e-03 0.000000e+00 -2.020147e-02 6.354737e-03 0.000000e+00 -2.044807e-02 4.842637e-03 0.000000e+00 -2.226810e-02 2.529950e-03 0.000000e+00 -2.179397e-02 2.527500e-03 0.000000e+00 -1.515540e-02 1.123848e-03 0.000000e+00 -1.539063e-02 1.296853e-03 0.000000e+00 -1.493853e-02 1.347475e-03 0.000000e+00 -1.228723e-02 1.218807e-03 0.000000e+00 -1.254413e-02 1.381073e-03 0.000000e+00 -1.206183e-02 1.434413e-03 0.000000e+00 3.214527e-02 6.989957e-03 0.000000e+00 6.389880e-03 1.902650e-02 0.000000e+00 -1.586587e-02 1.658010e-03 0.000000e+00 -1.832413e-02 1.145363e-02 0.000000e+00 -9.392020e-03 1.205290e-03 0.000000e+00 -9.636287e-03 1.353064e-03 0.000000e+00 -9.152950e-03 1.443577e-03 0.000000e+00 -3.249300e-03 1.330035e-03 0.000000e+00 -1.719170e-03 1.210353e-03 0.000000e+00 -2.005993e-03 1.373540e-03 0.000000e+00 -1.462913e-03 1.436243e-03 0.000000e+00 1.648870e-02 5.063407e-03 0.000000e+00 1.689197e-02 6.007020e-03 0.000000e+00 -1.704230e-02 1.148207e-02 0.000000e+00 3.122137e-02 6.198890e-03 0.000000e+00 -1.056943e-02 1.402683e-03 0.000000e+00 -2.252480e-02 2.045517e-03 0.000000e+00 1.030179e-02 5.799427e-03 0.000000e+00 2.140783e-02 2.399820e-02 0.000000e+00 -3.239919e-04 2.043840e-03 0.000000e+00 1.366043e-02 2.225297e-02 0.000000e+00 1.032663e-02 1.971087e-02 0.000000e+00 -3.798490e-03 1.409003e-03 0.000000e+00 -1.617587e-02 1.434620e-02 0.000000e+00 -3.204307e-03 1.748133e-03 0.000000e+00 4.320971e-04 2.018573e-03 0.000000e+00 1.613933e-02 8.912403e-03 0.000000e+00 -2.065897e-02 1.835063e-03 0.000000e+00 1.020964e-03 1.152077e-03 0.000000e+00 -2.234517e-02 7.895970e-03 0.000000e+00 -2.305423e-02 9.050233e-03 0.000000e+00 -2.304607e-02 2.604983e-03 0.000000e+00 4.973437e-03 5.352780e-03 0.000000e+00 1.262162e-03 3.638083e-03 0.000000e+00 2.749337e-02 2.511667e-02 0.000000e+00 -2.096830e-02 3.020557e-03 0.000000e+00 2.989507e-02 2.290207e-02 0.000000e+00 -2.062053e-02 3.584633e-03 0.000000e+00 -1.617197e-02 1.723140e-03 0.000000e+00 -1.328490e-02 1.839800e-02 0.000000e+00 -1.485540e-02 1.727810e-02 0.000000e+00 -2.298653e-02 1.924353e-03 0.000000e+00 2.607693e-02 2.465523e-02 0.000000e+00 -2.078753e-02 2.558330e-03 0.000000e+00 7.870787e-04 2.389910e-03 0.000000e+00 1.792010e-05 2.267807e-03 0.000000e+00 2.597113e-02 2.357580e-02 0.000000e+00 1.491887e-02 1.151110e-02 0.000000e+00 -2.007123e-02 3.467573e-03 0.000000e+00 8.393337e-03 5.827850e-03 0.000000e+00 9.306243e-03 6.487480e-03 0.000000e+00 -2.314423e-02 5.869487e-03 0.000000e+00 1.527917e-02 1.995210e-02 0.000000e+00 -1.259567e-02 1.740287e-03 0.000000e+00 -2.094380e-02 2.112367e-03 0.000000e+00 -1.730253e-02 1.283696e-03 0.000000e+00 1.403352e-03 4.364327e-03 0.000000e+00 2.065327e-03 4.676157e-03 0.000000e+00 -1.560227e-02 1.880023e-03 0.000000e+00 -1.535320e-02 1.676937e-03 0.000000e+00 4.497693e-03 1.769773e-02 0.000000e+00 -4.969913e-03 1.795367e-03 0.000000e+00 -3.042387e-03 1.085045e-03 0.000000e+00 5.235677e-04 2.906910e-03 0.000000e+00 4.540733e-05 2.757087e-03 0.000000e+00 6.527940e-04 3.477823e-03 0.000000e+00 -7.080913e-03 1.845693e-03 0.000000e+00 -8.635597e-03 1.886973e-03 0.000000e+00 -9.423800e-04 1.962860e-03 0.000000e+00 -6.634137e-04 2.238990e-03 0.000000e+00 -1.395223e-02 1.915293e-03 0.000000e+00 -5.431743e-03 1.298868e-03 0.000000e+00 5.720470e-03 6.006920e-03 0.000000e+00 6.586420e-03 5.597653e-03 0.000000e+00 1.500233e-02 9.008217e-03 0.000000e+00 1.434810e-02 1.025143e-02 0.000000e+00 -1.310030e-02 1.721963e-03 0.000000e+00 -1.290820e-02 1.928807e-03 0.000000e+00 7.230303e-04 5.660440e-04 0.000000e+00 3.466220e-03 5.564160e-03 0.000000e+00 4.195667e-03 5.966707e-03 0.000000e+00 1.399070e-02 5.334313e-03 0.000000e+00 -1.472540e-02 1.559627e-02 0.000000e+00 -2.914127e-03 1.897733e-03 0.000000e+00 -2.617640e-03 1.667727e-03 0.000000e+00 1.374833e-02 2.050330e-02 0.000000e+00 1.223713e-02 5.621407e-03 0.000000e+00 3.553440e-02 1.295937e-02 0.000000e+00 8.533750e-03 1.831493e-02 0.000000e+00 -1.982320e-02 1.812960e-03 0.000000e+00 1.221863e-02 1.921360e-02 0.000000e+00 -3.810183e-03 1.837467e-03 0.000000e+00 -3.514713e-03 2.038617e-03 0.000000e+00 -1.601317e-02 1.273710e-02 0.000000e+00 -2.012940e-02 1.796157e-03 0.000000e+00 -1.871777e-02 1.518483e-03 0.000000e+00 -1.054170e-02 1.787013e-03 0.000000e+00 1.667390e-02 7.839290e-03 0.000000e+00 -7.617220e-03 1.751590e-03 0.000000e+00 -7.343433e-03 1.986123e-03 0.000000e+00 -2.034953e-02 2.027633e-03 0.000000e+00 -1.451710e-02 1.883743e-03 0.000000e+00 -1.424667e-02 2.140703e-03 0.000000e+00 -1.999300e-02 2.835090e-03 0.000000e+00 -1.817387e-02 1.847387e-03 0.000000e+00 -1.158917e-02 1.908830e-03 0.000000e+00 -1.347337e-02 1.379783e-03 0.000000e+00 -7.987167e-03 6.701330e-03 0.000000e+00 1.321377e-02 6.058110e-03 0.000000e+00 -1.980787e-02 4.769940e-03 0.000000e+00 -1.628837e-02 2.102513e-03 0.000000e+00 2.973440e-02 2.410427e-02 0.000000e+00 -1.769260e-02 1.627513e-03 0.000000e+00 -1.787493e-02 1.922173e-03 0.000000e+00 -1.739723e-02 1.621343e-03 0.000000e+00 1.130857e-02 6.337227e-03 0.000000e+00 -1.209114e-03 1.815727e-02 0.000000e+00 -1.105033e-02 1.894543e-03 0.000000e+00 -1.131457e-02 2.141430e-03 0.000000e+00 -1.077070e-02 2.052250e-03 0.000000e+00 -2.122127e-02 1.919300e-03 0.000000e+00 1.556063e-02 4.872913e-03 0.000000e+00 1.478577e-02 1.385910e-02 0.000000e+00 -2.160133e-02 2.047027e-03 0.000000e+00 -1.965080e-02 4.016080e-03 0.000000e+00 7.419317e-03 6.378003e-03 0.000000e+00 -2.036153e-02 2.489923e-03 0.000000e+00 -4.711743e-03 1.994110e-03 0.000000e+00 -4.389713e-03 1.794560e-03 0.000000e+00 2.479725e-03 1.849780e-02 0.000000e+00 -1.961513e-02 2.090693e-03 0.000000e+00 -1.962000e-02 2.616773e-03 0.000000e+00 -1.927487e-02 1.927700e-03 0.000000e+00 -1.024073e-02 1.970717e-03 0.000000e+00 -1.003810e-02 1.737050e-03 0.000000e+00 2.840220e-02 2.433070e-02 0.000000e+00 -2.839806e-03 1.707190e-02 0.000000e+00 1.419180e-02 1.275727e-02 0.000000e+00 -8.766773e-03 6.468413e-03 0.000000e+00 -1.944673e-02 6.297737e-03 0.000000e+00 -1.883440e-02 7.129783e-03 0.000000e+00 -2.347927e-02 3.404060e-03 0.000000e+00 -4.905557e-03 1.784623e-02 0.000000e+00 -1.239120e-02 1.986960e-03 0.000000e+00 -1.211427e-02 1.843353e-03 0.000000e+00 -2.507346e-03 1.531240e-02 0.000000e+00 1.491760e-02 5.646557e-03 0.000000e+00 -1.687710e-02 1.822007e-03 0.000000e+00 -1.722177e-02 1.908060e-03 0.000000e+00 -1.665217e-02 2.165210e-03 0.000000e+00 -1.156863e-02 1.759353e-02 0.000000e+00 -8.929953e-03 2.113863e-03 0.000000e+00 -9.191053e-03 1.877620e-03 0.000000e+00 -5.565400e-03 1.658247e-03 0.000000e+00 -5.326937e-03 1.938883e-03 0.000000e+00 1.625890e-02 6.904440e-03 0.000000e+00 -1.668350e-02 1.015628e-02 0.000000e+00 -1.928900e-02 5.455670e-03 0.000000e+00 7.287923e-04 1.731450e-02 0.000000e+00 -1.602497e-02 2.461033e-03 0.000000e+00 -1.454623e-02 1.242220e-02 0.000000e+00 -1.871353e-02 2.036793e-03 0.000000e+00 -1.900797e-02 2.245663e-03 0.000000e+00 -1.841720e-02 2.204350e-03 0.000000e+00 9.272310e-03 7.908027e-03 0.000000e+00 5.406847e-03 7.079490e-03 0.000000e+00 -1.748913e-02 9.074580e-03 0.000000e+00 -1.187870e-02 2.102077e-03 0.000000e+00 -1.339997e-02 1.762370e-03 0.000000e+00 -8.119757e-03 1.819140e-03 0.000000e+00 -8.370980e-03 2.068517e-03 0.000000e+00 -7.863100e-03 1.964390e-03 0.000000e+00 -6.282423e-03 1.662493e-02 0.000000e+00 1.341867e-02 7.401017e-03 0.000000e+00 7.169850e-03 7.685097e-03 0.000000e+00 6.023330e-03 7.977317e-03 0.000000e+00 8.109937e-03 8.555490e-03 0.000000e+00 -1.907997e-02 3.900743e-03 0.000000e+00 1.442253e-02 1.745567e-02 0.000000e+00 1.521260e-02 6.734470e-03 0.000000e+00 -8.936043e-03 2.560963e-03 0.000000e+00 -9.530517e-03 2.042283e-03 0.000000e+00 -1.858753e-02 5.335500e-03 0.000000e+00 -1.721137e-02 7.948403e-03 0.000000e+00 1.489443e-02 1.613657e-02 0.000000e+00 1.449060e-02 7.765133e-03 0.000000e+00 -1.506217e-02 1.719250e-03 0.000000e+00 -5.722840e-03 6.350240e-03 0.000000e+00 -1.486537e-02 2.016110e-03 0.000000e+00 1.290363e-02 1.283903e-02 0.000000e+00 -6.481560e-03 1.889177e-03 0.000000e+00 4.597220e-03 1.556333e-02 0.000000e+00 -2.180413e-02 1.699720e-03 0.000000e+00 -5.919093e-03 1.674503e-03 0.000000e+00 1.418137e-02 1.506537e-02 0.000000e+00 8.679277e-03 1.630933e-02 0.000000e+00 6.634933e-03 1.488650e-02 0.000000e+00 -6.118923e-03 2.015577e-03 0.000000e+00 -2.209237e-02 1.623540e-03 0.000000e+00 1.290100e-02 1.513930e-02 0.000000e+00 -5.440393e-03 2.361677e-03 0.000000e+00 -6.747787e-03 2.113120e-03 0.000000e+00 -6.884593e-03 6.191627e-03 0.000000e+00 -3.612637e-03 6.436050e-03 0.000000e+00 8.712427e-04 1.544710e-02 0.000000e+00 2.721702e-03 1.449600e-02 0.000000e+00 -7.342040e-04 1.453037e-02 0.000000e+00 -1.794443e-02 7.012070e-03 0.000000e+00 -2.361790e-02 7.368343e-04 0.000000e+00 -3.923863e-03 1.428817e-02 0.000000e+00 -8.584053e-03 2.775157e-03 0.000000e+00 -8.313347e-03 2.509600e-03 0.000000e+00 -1.684213e-02 2.630087e-03 0.000000e+00 1.991533e-03 5.710110e-03 0.000000e+00 2.641477e-03 6.236687e-03 0.000000e+00 1.221723e-02 1.401480e-02 0.000000e+00 -7.292483e-04 2.734400e-03 0.000000e+00 -1.785530e-02 6.059853e-03 0.000000e+00 -6.783110e-03 2.573143e-03 0.000000e+00 -1.362603e-02 2.071107e-03 0.000000e+00 -1.496333e-03 1.819270e-03 0.000000e+00 -1.242253e-03 2.098827e-03 0.000000e+00 -1.195750e-02 2.566263e-03 0.000000e+00 -2.054667e-03 1.779927e-03 0.000000e+00 -1.801263e-03 1.999767e-03 0.000000e+00 1.296877e-02 1.042496e-02 0.000000e+00 1.225137e-02 1.176640e-02 0.000000e+00 -3.623393e-04 3.028530e-03 0.000000e+00 -1.627190e-02 7.904603e-03 0.000000e+00 1.439277e-04 3.924113e-03 0.000000e+00 -1.326063e-02 1.503653e-02 0.000000e+00 -2.348770e-03 1.929317e-03 0.000000e+00 -1.433060e-02 1.096297e-02 0.000000e+00 -1.564497e-02 2.303673e-03 0.000000e+00 -3.510617e-03 2.524937e-03 0.000000e+00 -1.324417e-02 1.347157e-02 0.000000e+00 -1.543873e-02 9.952083e-03 0.000000e+00 -1.065270e-02 2.497867e-03 0.000000e+00 4.418123e-03 7.038540e-03 0.000000e+00 1.135227e-02 7.508490e-03 0.000000e+00 1.033455e-02 1.573907e-02 0.000000e+00 1.031156e-02 8.391237e-03 0.000000e+00 -1.429883e-02 2.682617e-03 0.000000e+00 -9.614553e-03 2.512657e-03 0.000000e+00 -9.281180e-03 2.795093e-03 0.000000e+00 -5.633190e-03 1.482637e-02 0.000000e+00 -4.672330e-03 2.446987e-03 0.000000e+00 -1.853557e-02 4.534433e-03 0.000000e+00 -4.116247e-03 2.027420e-03 0.000000e+00 -9.563047e-03 1.821953e-02 0.000000e+00 -1.167436e-02 1.591390e-02 0.000000e+00 -1.130407e-02 2.620610e-03 0.000000e+00 -1.092183e-02 2.819340e-03 0.000000e+00 -5.878687e-03 2.422113e-03 0.000000e+00 -1.774403e-02 2.256007e-03 0.000000e+00 -1.738623e-02 2.248063e-03 0.000000e+00 -1.043736e-02 1.510007e-02 0.000000e+00 -5.043957e-03 2.671037e-03 0.000000e+00 -1.661263e-02 3.032210e-03 0.000000e+00 -1.615927e-02 2.925853e-03 0.000000e+00 -1.530490e-02 8.826580e-03 0.000000e+00 -1.788193e-02 2.643970e-03 0.000000e+00 -1.355037e-02 2.552597e-03 0.000000e+00 -1.165747e-02 2.852197e-03 0.000000e+00 1.848327e-04 4.713570e-03 0.000000e+00 8.348890e-04 4.993523e-03 0.000000e+00 -3.111490e-03 2.688160e-03 0.000000e+00 -2.825407e-03 2.351440e-03 0.000000e+00 -9.488293e-03 7.056850e-03 0.000000e+00 -1.028449e-02 2.440730e-03 0.000000e+00 -1.392873e-02 2.938697e-03 0.000000e+00 -8.161880e-03 1.682443e-02 0.000000e+00 -1.825617e-02 2.667100e-03 0.000000e+00 -1.253403e-02 2.373363e-03 0.000000e+00 -1.288663e-02 2.336837e-03 0.000000e+00 -1.233590e-02 2.693943e-03 0.000000e+00 -1.315607e-02 2.673423e-03 0.000000e+00 -6.811970e-03 1.365983e-02 0.000000e+00 -1.711017e-02 5.774600e-03 0.000000e+00 -3.930453e-04 3.624643e-03 0.000000e+00 -1.173653e-02 3.380237e-03 0.000000e+00 -1.300040e-02 1.071463e-02 0.000000e+00 1.061252e-02 1.415900e-02 0.000000e+00 -1.582760e-02 7.009580e-03 0.000000e+00 -1.619673e-02 6.166447e-03 0.000000e+00 -6.036470e-03 2.818337e-03 0.000000e+00 -1.535920e-02 2.569007e-03 0.000000e+00 -2.865293e-03 6.514370e-03 0.000000e+00 -1.187350e-02 1.296927e-02 0.000000e+00 -1.065296e-02 1.372040e-02 0.000000e+00 -1.184537e-02 1.167157e-02 0.000000e+00 -1.891530e-02 3.224713e-03 0.000000e+00 -7.420233e-03 2.372283e-03 0.000000e+00 -7.764477e-03 2.356900e-03 0.000000e+00 -7.193037e-03 2.691877e-03 0.000000e+00 3.727220e-03 7.854223e-03 0.000000e+00 1.248573e-02 8.135577e-03 0.000000e+00 1.194527e-02 1.640010e-02 0.000000e+00 -4.269800e-03 2.476160e-03 0.000000e+00 -1.788833e-02 4.352280e-03 0.000000e+00 -6.495797e-03 2.888003e-03 0.000000e+00 -9.475977e-04 3.883497e-03 0.000000e+00 -5.739203e-03 3.297240e-03 0.000000e+00 1.223147e-02 9.438670e-03 0.000000e+00 -6.610013e-03 3.399960e-03 0.000000e+00 -3.599217e-03 1.270117e-02 0.000000e+00 -1.723153e-02 2.626887e-03 0.000000e+00 -3.959640e-03 2.772527e-03 0.000000e+00 -9.736680e-03 1.756013e-03 0.000000e+00 -1.840017e-02 3.179683e-03 0.000000e+00 -5.184983e-03 3.210377e-03 0.000000e+00 6.821800e-03 1.312750e-02 0.000000e+00 -1.200188e-03 2.899803e-03 0.000000e+00 -1.387831e-03 3.452787e-03 0.000000e+00 -4.043500e-03 3.305787e-03 0.000000e+00 -1.438377e-02 8.331100e-03 0.000000e+00 -1.384543e-02 3.556480e-03 0.000000e+00 -1.755063e-02 2.919223e-03 0.000000e+00 -1.744230e-02 3.436230e-03 0.000000e+00 -8.493413e-03 3.288777e-03 0.000000e+00 -1.473227e-02 7.242393e-03 0.000000e+00 -1.468030e-02 2.832790e-03 0.000000e+00 -1.057470e-03 4.532543e-03 0.000000e+00 -6.125120e-03 3.665847e-03 0.000000e+00 -8.930457e-03 1.538460e-02 0.000000e+00 -4.699720e-03 3.569023e-03 0.000000e+00 -4.805580e-03 4.196547e-03 0.000000e+00 -1.134593e-02 3.706283e-03 0.000000e+00 -1.088463e-02 3.376973e-03 0.000000e+00 -1.791760e-02 3.673560e-03 0.000000e+00 -1.298827e-02 3.175387e-03 0.000000e+00 -1.252070e-02 3.159380e-03 0.000000e+00 1.148431e-03 5.901070e-03 0.000000e+00 -7.526313e-03 6.125930e-03 0.000000e+00 -6.348597e-03 1.218810e-02 0.000000e+00 9.944867e-03 1.307290e-02 0.000000e+00 1.089731e-02 1.185607e-02 0.000000e+00 -2.461100e-03 2.350120e-03 0.000000e+00 1.075313e-02 9.606397e-03 0.000000e+00 -1.222137e-02 3.559740e-03 0.000000e+00 -1.719517e-02 4.868093e-03 0.000000e+00 -4.620123e-04 5.063147e-03 0.000000e+00 -1.001478e-02 2.728000e-03 0.000000e+00 1.275373e-02 1.764527e-02 0.000000e+00 -7.362847e-03 3.119283e-03 0.000000e+00 -7.963500e-03 2.652733e-03 0.000000e+00 -4.845170e-03 1.176763e-02 0.000000e+00 -1.490040e-02 3.914223e-03 0.000000e+00 8.487523e-03 1.261080e-02 0.000000e+00 1.013637e-02 1.068235e-02 0.000000e+00 -8.229780e-03 1.401857e-02 0.000000e+00 8.653530e-03 1.097362e-02 0.000000e+00 2.589219e-03 1.276427e-02 0.000000e+00 -1.329927e-02 3.672343e-03 0.000000e+00 7.731677e-03 1.001202e-02 0.000000e+00 4.151930e-03 9.101213e-03 0.000000e+00 -9.338280e-03 1.308823e-02 0.000000e+00 -7.067137e-03 3.512507e-03 0.000000e+00 5.459317e-03 9.183357e-03 0.000000e+00 -2.366837e-02 7.629943e-03 0.000000e+00 -1.689370e-02 3.546017e-03 0.000000e+00 -1.918807e-02 2.742643e-03 0.000000e+00 3.843907e-03 1.169663e-02 0.000000e+00 -9.268630e-03 3.276373e-03 0.000000e+00 -8.832853e-03 3.555863e-03 0.000000e+00 -5.758563e-04 1.288380e-02 0.000000e+00 8.971070e-04 1.206880e-02 0.000000e+00 -2.024352e-03 1.207883e-02 0.000000e+00 -2.239873e-02 1.694233e-03 0.000000e+00 -1.432877e-02 4.114027e-03 0.000000e+00 -1.414667e-02 6.556673e-03 0.000000e+00 -1.801880e-03 2.471090e-03 0.000000e+00 -1.699353e-03 4.750107e-03 0.000000e+00 -6.133437e-03 4.232630e-03 0.000000e+00 -5.518310e-03 4.536950e-03 0.000000e+00 -1.044850e-02 3.660183e-03 0.000000e+00 -1.139543e-02 4.312073e-03 0.000000e+00 -1.434227e-03 2.540360e-03 0.000000e+00 -7.188567e-03 1.122603e-02 0.000000e+00 -7.302283e-03 4.046530e-03 0.000000e+00 -1.550540e-02 5.481517e-03 0.000000e+00 -2.167613e-03 2.672053e-03 0.000000e+00 -1.539767e-02 3.087490e-03 0.000000e+00 -1.581773e-02 3.286977e-03 0.000000e+00 -1.494727e-02 3.272157e-03 0.000000e+00 -1.067011e-02 1.124327e-02 0.000000e+00 -7.789067e-03 3.095523e-03 0.000000e+00 -8.048273e-03 3.466010e-03 0.000000e+00 -1.238680e-02 4.119857e-03 0.000000e+00 -1.299713e-02 4.216453e-03 0.000000e+00 2.680020e-03 7.454917e-03 0.000000e+00 -2.970020e-03 3.209820e-03 0.000000e+00 -7.857200e-03 4.023793e-03 0.000000e+00 -3.453007e-03 3.579857e-03 0.000000e+00 -3.493653e-03 4.179940e-03 0.000000e+00 -2.390450e-03 3.195033e-03 0.000000e+00 -4.606983e-03 1.039577e-02 0.000000e+00 -6.130560e-04 5.782130e-03 0.000000e+00 -1.266643e-02 9.575283e-03 0.000000e+00 -1.332287e-02 8.581087e-03 0.000000e+00 -1.268200e-02 7.725413e-03 0.000000e+00 -1.315730e-02 6.789707e-03 0.000000e+00 3.280390e-03 1.013619e-02 0.000000e+00 1.974900e-03 9.722170e-03 0.000000e+00 1.799240e-03 8.287883e-03 0.000000e+00 8.463053e-04 1.058714e-02 0.000000e+00 -9.626547e-03 3.592587e-03 0.000000e+00 -6.853477e-03 4.500767e-03 0.000000e+00 -5.055653e-03 6.331243e-03 0.000000e+00 -4.190007e-03 4.533393e-03 0.000000e+00 -1.195147e-02 4.546143e-03 0.000000e+00 -1.581953e-02 4.818047e-03 0.000000e+00 -1.003932e-02 3.326650e-03 0.000000e+00 -2.030290e-03 3.625170e-03 0.000000e+00 -3.204090e-03 9.853840e-03 0.000000e+00 -1.455067e-02 5.638930e-03 0.000000e+00 -1.039437e-02 4.353167e-03 0.000000e+00 -1.497640e-02 2.423243e-03 0.000000e+00 -1.088000e-02 4.675747e-03 0.000000e+00 -2.381790e-02 2.182400e-03 0.000000e+00 -9.383557e-03 1.190880e-02 0.000000e+00 -1.655773e-02 3.962253e-03 0.000000e+00 -5.784650e-03 9.531123e-03 0.000000e+00 -6.862807e-03 9.940920e-03 0.000000e+00 -8.335000e-03 4.442427e-03 0.000000e+00 -2.919210e-03 4.527097e-03 0.000000e+00 6.227577e-03 1.034767e-02 0.000000e+00 -1.867412e-03 1.060337e-02 0.000000e+00 -1.065447e-02 1.018453e-02 0.000000e+00 -1.149577e-02 9.473480e-03 0.000000e+00 -1.867620e-03 5.471200e-03 0.000000e+00 -1.376780e-03 5.972620e-03 0.000000e+00 -1.104653e-02 8.517377e-03 0.000000e+00 -1.157633e-02 7.763507e-03 0.000000e+00 -1.659587e-02 4.596470e-03 0.000000e+00 -7.007970e-03 5.068920e-03 0.000000e+00 -3.196677e-03 8.573187e-03 0.000000e+00 -9.762650e-03 4.616700e-03 0.000000e+00 -1.593513e-02 3.809570e-03 0.000000e+00 -1.327447e-02 4.932837e-03 0.000000e+00 -5.498397e-03 5.181830e-03 0.000000e+00 -9.607103e-03 5.344920e-03 0.000000e+00 -1.276360e-02 5.442600e-03 0.000000e+00 -1.263253e-02 6.207270e-03 0.000000e+00 -1.205093e-02 5.152503e-03 0.000000e+00 -8.290273e-03 5.111377e-03 0.000000e+00 -7.676610e-03 5.384690e-03 0.000000e+00 -3.055120e-03 5.228960e-03 0.000000e+00 -2.536117e-03 5.696400e-03 0.000000e+00 -2.506078e-04 6.572903e-03 0.000000e+00 -4.697180e-04 9.926680e-03 0.000000e+00 -4.262470e-03 5.236267e-03 0.000000e+00 -4.858130e-03 5.544300e-03 0.000000e+00 -3.702027e-03 5.584677e-03 0.000000e+00 -8.424880e-03 1.119940e-02 0.000000e+00 -1.090533e-02 5.383190e-03 0.000000e+00 -1.152023e-02 5.625877e-03 0.000000e+00 -1.026416e-02 5.788830e-03 0.000000e+00 6.173822e-04 6.719787e-03 0.000000e+00 -8.660552e-04 7.175573e-03 0.000000e+00 -8.764823e-03 1.001159e-02 0.000000e+00 -9.707867e-03 9.662257e-03 0.000000e+00 -1.029816e-02 6.652047e-03 0.000000e+00 -2.228497e-03 8.033143e-03 0.000000e+00 8.143252e-04 7.898173e-03 0.000000e+00 -1.405993e-02 4.946273e-03 0.000000e+00 5.483707e-03 1.182597e-02 0.000000e+00 -6.567883e-03 5.545747e-03 0.000000e+00 -5.981993e-03 5.589420e-03 0.000000e+00 -7.858340e-03 9.308147e-03 0.000000e+00 -1.526510e-03 6.728503e-03 0.000000e+00 -9.964460e-03 8.622287e-03 0.000000e+00 -8.919583e-03 5.619700e-03 0.000000e+00 -8.865513e-03 4.151730e-03 0.000000e+00 -2.231940e-03 4.273443e-03 0.000000e+00 -2.346527e-03 7.045053e-03 0.000000e+00 -4.443163e-03 7.905127e-03 0.000000e+00 -1.176603e-02 6.318157e-03 0.000000e+00 -9.404010e-03 4.189653e-03 0.000000e+00 -8.121687e-03 8.318447e-03 0.000000e+00 -5.628243e-03 8.321133e-03 0.000000e+00 -9.284763e-03 7.981923e-03 0.000000e+00 -4.370603e-03 6.874583e-03 0.000000e+00 -7.545610e-03 7.626290e-03 0.000000e+00 -1.546820e-02 4.252150e-03 0.000000e+00 -1.118513e-02 6.938687e-03 0.000000e+00 -3.260382e-04 8.671997e-03 0.000000e+00  </DataArray>
</Points>
<Cells>
 <DataArray type="Int32" Name="connectivity" format="ascii">0 1 2 3 4 5 6 7 8 9 10 11 12 13 14 15 16 17 18 19 20 21 22 23 24 25 26 27 28 29 30 31 32 33 34 35 36 37 38 39 40 41 42 43 44 45 46 47 48 49 50 51 52 53 54 55 56 57 58 59 60 61 62 63 64 65 66 67 68 69 70 71 72 73 74 75 76 77 78 79 80 81 82 83 84 85 86 87 88 89 90 91 92 93 94 95 96 97 98 99 100 101 102 103 104 105 106 107 108 109 110 111 112 113 114 115 116 117 118 119 120 121 122 123 124 125 126 127 128 129 130 131 132 133 134 135 136 137 138 139 140 141 142 143 144 145 146 147 148 149 150 151 152 153 154 155 156 157 158 159 160 161 162 163 164 165 166 167 168 169 170 171 172 173 174 175 176 177 178 179 180 181 182 183 184 185 186 187 188 189 190 191 192 193 194 195 196 197 198 199 200 201 202 203 204 205 206 207 208 209 210 211 212 213 214 215 216 217 218 219 220 221 222 223 224 225 226 227 228 229 230 231 232 233 234 235 236 237 238 239 240 241 242 243 244 245 246 247 248 249 250 251 252 253 254 255 256 257 258 259 260 261 262 263 264 265 266 267 268 269 270 271 272 273 274 275 276 277 278 279 280 281 282 283 284 285 286 287 288 289 290 291 292 293 294 295 296 297 298 299 300 301 302 303 304 305 306 307 308 309 310 311 312 313 314 315 316 317 318 319 320 321 322 323 324 325 326 327 328 329 330 331 332 333 334 335 336 337 338 339 340 341 342 343 344 345 346 347 348 349 350 351 352 353 354 355 356 357 358 359 360 361 362 363 364 365 366 367 368 369 370 371 372 373 374 375 376 377 378 379 380 381 382 383 384 385 386 387 388 389 390 391 392 393 394 395 396 397 398 399 400 401 402 403 404 405 406 407 408 409 410 411 412 413 414 415 416 417 418 419 420 421 422 423 424 425 426 427 428 429 430 431 432 433 434 435 436 437 438 439 440 441 442 443 444 445 446 447 448 449 450 451 452 453 454 455 456 457 458 459 460 461 462 463 464 465 466 467 468 469 470 471 472 473 474 475 476 477 478 479 480 481 482 483 484 485 486 487 488 489 490 491 492 493 494 495 496 497 498 499 500 501 502 503 504 505 506 507 508 509 510 511 512 513 514 515 516 517 518 519 520 521 522 523 524 525 526 527 528 529 530 531 532 533 534 535 536 537 538 539 540 541 542 543 544 545 546 547 548 549 550 551 552 553 554 555 556 557 558 559 560 561 562 563 564 565 566 567 568 569 570 571 572 573 574 575 576 577 578 579 580 581 582 583 584 585 586 587 588 589 590 591 592 593 594 595 596 597 598 599 600 601 602 603 604 605 606 607 608 609 610 611 612 613 614 615 616 617 618 619 620 621 622 623 624 625 626 627 628 629 630 631 632 633 634 635 636 637 638 639 640 641 642 643 644 645 646 647 648 649 650 651 652 653 654 655 656 657 658 659 660 661 662 663 664 665 666 667 668 669 670 671 672 673 674 675 676 677 678 679 680 681 682 683 684 685 686 687 688 689 690 691 692 693 694 695 696 697 698 699 700 701 702 703 704 705 706 707 708 709 710 711 712 713 714 715 716 717 718 719 720 721 722 723 724 725 726 727 728 729 730 731 732 733 734 735 736 737 738 739 740 741 742 743 744 745 746 747 748 749 750 751 752 753 754 755 756 757 758 759 760 761 762 763 764 765 766 767 768 769 770 771 772 773 774 775 776 777 778 779 780 781 782 783 784 785 786 787 788 789 790 791 792 793 794 795 796 797 798 799 800 801 802 803 804 805 806 807 808 809 810 811 812 813 814 815 816 817 818 819 820 821 822 823 824 825 826 827 828 829 830 831 832 833 834 835 836 837 838 839 840 841 842 843 844 845 846 847 848 849 850 851 852 853 854 855 856 857 858 859 860 861 862 863 864 865 866 867 868 869 870 871 872 873 874 875 876 877 878 879 880 881 882 883 884 885 886 887 888 889 890 891 892 893 894 895 896 897 898 899 900 901 902 903 904 905 906 907 908 909 910 911 912 913 914 915 916 917 918 919 920 921 922 923 924 925 926 927 928 929 930 931 932 933 934 935 936 937 938 939 940 941 942 943 944 945 946 947 948 949 950 951 952 953 954 955 956 957 958 959 960 961 962 963 964 965 966 967 968 969 970 971 972 973 974 975 976 977 978 979 980 981 982 983 984 985 986 987 988 989 990 991 992 993 994 995 996 997 998 999 1000 1001 1002 1003 1004 1005 1006 1007 1008 1009 1010 1011 1012 1013 1014 1015 1016 1017 1018 1019 1020 1021 1022 1023 1024 1025 1026 1027 1028 1029 1030 1031 1032 1033 1034 1035 1036 1037 1038 1039 1040 1041 1042 1043 1044 1045 1046 1047 1048 1049 1050 1051 1052 1053 1054 1055 1056 1057 1058 1059 1060 1061 1062 1063 1064 1065 1066 1067 1068 1069 1070 1071 1072 1073 1074 1075 1076 1077 1078 1079 1080 1081 1082 1083 1084 1085 1086 1087 1088 1089 1090 1091 1092 1093 1094 1095 1096 1097 1098 1099 1100 1101 1102 1103 1104 1105 1106 1107 1108 1109 1110 1111 1112 1113 1114 1115 1116 1117 1118 1119 1120 1121 1122 1123 1124 1125 1126 1127 1128 1129 1130 1131 1132 1133 1134 1135 1136 1137 1138 1139 1140 1141 1142 1143 1144 1145 1146 1147 1148 1149 1150 1151 1152 1153 1154 1155 1156 1157 1158 1159 1160 1161 1162 1163 1164 1165 1166 1167 1168 1169 1170 1171 1172 1173 1174 1175 1176 1177 1178 1179 1180 1181 1182 1183 1184 1185 1186  </DataArray>
 <DataArray type="Int32" Name="offsets" format="ascii">1 2 3 4 5 6 7 8 9 10 11 12 13 14 15 16 17 18 19 20 21 22 23 24 25 26 27 28 29 30 31 32 33 34 35 36 37 38 39 40 41 42 43 44 45 46 47 48 49 50 51 52 53 54 55 56 57 58 59 60 61 62 63 64 65 66 67 68 69 70 71 72 73 74 75 76 77 78 79 80 81 82 83 84 85 86 87 88 89 90 91 92 93 94 95 96 97 98 99 100 101 102 103 104 105 106 107 108 109 110 111 112 113 114 115 116 117 118 119 120 121 122 123 124 125 126 127 128 129 130 131 132 133 134 135 136 137 138 139 140 141 142 143 144 145 146 147 148 149 150 151 152 153 154 155 156 157 158 159 160 161 162 163 164 165 166 167 168 169 170 171 172 173 174 175 176 177 178 179 180 181 182 183 184 185 186 187 188 189 190 191 192 193 194 195 196 197 198 199 200 201 202 203 204 205 206 207 208 209 210 211 212 213 214 215 216 217 218 219 220 221 222 223 224 225 226 227 228 229 230 231 232 233 234 235 236 237 238 239 240 241 242 243 244 245 246 247 248 249 250 251 252 253 254 255 256 257 258 259 260 261 262 263 264 265 266 267 268 269 270 271 272 273 274 275 276 277 278 279 280 281 282 283 284 285 286 287 288 289 290 291 292 293 294 295 296 297 298 299 300 301 302 303 304 305 306 307 308 309 310 311 312 313 314 315 316 317 318 319 320 321 322 323 324 325 326 327 328 329 330 331 332 333 334 335 336 337 338 339 340 341 342 343 344 345 346 347 348 349 350 351 352 353 354 355 356 357 358 359 360 361 362 363 364 365 366 367 368 369 370 371 372 373 374 375 376 377 378 379 380 381 382 383 384 385 386 387 388 389 390 391 392 393 394 395 396 397 398 399 400 401 402 403 404 405 406 407 408 409 410 411 412 413 414 415 416 417 418 419 420 421 422 423 424 425 426 427 428 429 430 431 432 433 434 435 436 437 438 439 440 441 442 443 444 445 446 447 448 449 450 451 452 453 454 455 456 457 458 459 460 461 462 463 464 465 466 467 468 469 470 471 472 473 474 475 476 477 478 479 480 481 482 483 484 485 486 487 488 489 490 491 492 493 494 495 496 497 498 499 500 501 502 503 504 505 506 507 508 509 510 511 512 513 514 515 516 517 518 519 520 521 522 523 524 525 526 527 528 529 530 531 532 533 534 535 536 537 538 539 540 541 542 543 544 545 546 547 548 549 550 551 552 553 554 555 556 557 558 559 560 561 562 563 564 565 566 567 568 569 570 571 572 573 574 575 576 577 578 579 580 581 582 583 584 585 586 587 588 589 590 591 592 593 594 595 596 597 598 599 600 601 602 603 604 605 606 607 608 609 610 611 612 613 614 615 616 617 618 619 620 621 622 623 624 625 626 627 628 629 630 631 632 633 634 635 636 637 638 639 640 641 642 643 644 645 646 647 648 649 650 651 652 653 654 655 656 657 658 659 660 661 662 663 664 665 666 667 668 669 670 671 672 673 674 675 676 677 678 679 680 681 682 683 684 685 686 687 688 689 690 691 692 693 694 695 696 697 698 699 700 701 702 703 704 705 706 707 708 709 710 711 712 713 714 715 716 717 718 719 720 721 722 723 724 725 726 727 728 729 730 731 732 733 734 735 736 737 738 739 740 741 742 743 744 745 746 747 748 749 750 751 752 753 754 755 756 757 758 759 760 761 762 763 764 765 766 767 768 769 770 771 772 773 774 775 776 777 778 779 780 781 782 783 784 785 786 787 788 789 790 791 792 793 794 795 796 797 798 799 800 801 802 803 804 805 806 807 808 809 810 811 812 813 814 815 816 817 818 819 820 821 822 823 824 825 826 827 828 829 830 831 832 833 834 835 836 837 838 839 840 841 842 843 844 845 846 847 848 849 850 851 852 853 854 855 856 857 858 859 860 861 862 863 864 865 866 867 868 869 870 871 872 873 874 875 876 877 878 879 880 881 882 883 884 885 886 887 888 889 890 891 892 893 894 895 896 897 898 899 900 901 902 903 904 905 906 907 908 909 910 911 912 913 914 915 916 917 918 919 920 921 922 923 924 925 926 927 928 929 930 931 932 933 934 935 936 937 938 939 940 941 942 943 944 945 946 947 948 949 950 951 952 953 954 955 956 957 958 959 960 961 962 963 964 965 966 967 968 969 970 971 972 973 974 975 976 977 978 979 980 981 982 983 984 985 986 987 988 989 990 991 992 993 994 995 996 997 998 999 1000 1001 1002 1003 1004 1005 1006 1007 1008 1009 1010 1011 1012 1013 1014 1015 1016 1017 1018 1019 1020 1021 1022 1023 1024 1025 1026 1027 1028 1029 1030 1031 1032 1033 1034 1035 1036 1037 1038 1039 1040 1041 1042 1043 1044 1045 1046 1047 1048 1049 1050 1051 1052 1053 1054 1055 1056 1057 1058 1059 1060 1061 1062 1063 1064 1065 1066 1067 1068 1069 1070 1071 1072 1073 1074 1075 1076 1077 1078 1079 1080 1081 1082 1083 1084 1085 1086 1087 1088 1089 1090 1091 1092 1093 1094 1095 1096 1097 1098 1099 1100 1101 1102 1103 1104 1105 1106 1107 1108 1109 1110 1111 1112 1113 1114 1115 1116 1117 1118 1119 1120 1121 1122 1123 1124 1125 1126 1127 1128 1129 1130 1131 1132 1133 1134 1135 1136 1137 1138 1139 1140 1141 1142 1143 1144 1145 1146 1147 1148 1149 1150 1151 1152 1153 1154 1155 1156 1157 1158 1159 1160 1161 1162 1163 1164 1165 1166 1167 1168 1169 1170 1171 1172 1173 1174 1175 1176 1177 1178 1179 1180 1181 1182 1183 1184 1185 1186 1187  </DataArray>
 <DataArray type="UInt8" Name="types" format="ascii">1 1 1 1 1 1 1 1 1 1 1 1 1 1 1 1 1 1 1 1 1 1 1 1 1 1 1 1 1 1 1 1 1 1 1 1 1 1 1 1 1 1 1 1 1 1 1 1 1 1 1 1 1 1 1 1 1 1 1 1 1 1 1 1 1 1 1 1 1 1 1 1 1 1 1 1 1 1 1 1 1 1 1 1 1 1 1 1 1 1 1 1 1 1 1 1 1 1 1 1 1 1 1 1 1 1 1 1 1 1 1 1 1 1 1 1 1 1 1 1 1 1 1 1 1 1 1 1 1 1 1 1 1 1 1 1 1 1 1 1 1 1 1 1 1 1 1 1 1 1 1 1 1 1 1 1 1 1 1 1 1 1 1 1 1 1 1 1 1 1 1 1 1 1 1 1 1 1 1 1 1 1 1 1 1 1 1 1 1 1 1 1 1 1 1 1 1 1 1 1 1 1 1 1 1 1 1 1 1 1 1 1 1 1 1 1 1 1 1 1 1 1 1 1 1 1 1 1 1 1 1 1 1 1 1 1 1 1 1 1 1 1 1 1 1 1 1 1 1 1 1 1 1 1 1 1 1 1 1 1 1 1 1 1 1 1 1 1 1 1 1 1 1 1 1 1 1 1 1 1 1 1 1 1 1 1 1 1 1 1 1 1 1 1 1 1 1 1 1 1 1 1 1 1 1 1 1 1 1 1 1 1 1 1 1 1 1 1 1 1 1 1 1 1 1 1 1 1 1 1 1 1 1 1 1 1 1 1 1 1 1 1 1 1 1 1 1 1 1 1 1 1 1 1 1 1 1 1 1 1 1 1 1 1 1 1 1 1 1 1 1 1 1 1 1 1 1 1 1 1 1 1 1 1 1 1 1 1 1 1 1 1 1 1 1 1 1 1 1 1 1 1 1 1 1 1 1 1 1 1 1 1 1 1 1 1 1 1 1 1 1 1 1 1 1 1 1 1 1 1 1 1 1 1 1 1 1 1 1 1 1 1 1 1 1 1 1 1 1 1 1 1 1 1 1 1 1 1 1 1 1 1 1 1 1 1 1 1 1 1 1 1 1 1 1 1 1 1 1 1 1 1 1 1 1 1 1 1 1 1 1 1 1 1 1 1 1 1 1 1 1 1 1 1 1 1 1 1 1 1 1 1 1 1 1 1 1 1 1 1 1 1 1 1 1 1 1 1 1 1 1 1 1 1 1 1 1 1 1 1 1 1 1 1 1 1 1 1 1 1 1 1 1 1 1 1 1 1 1 1 1 1 1 1 1 1 1 1 1 1 1 1 1 1 1 1 1 1 1 1 1 1 1 1 1 1 1 1 1 1 1 1 1 1 1 1 1 1 1 1 1 1 1 1 1 1 1 1 1 1 1 1 1 1 1 1 1 1 1 1 1 1 1 1 1 1 1 1 1 1 1 1 1 1 1 1 1 1 1 1 1 1 1 1 1 1 1 1 1 1 1 1 1 1 1 1 1 1 1 1 1 1 1 1 1 1 1 1 1 1 1 1 1 1 1 1 1 1 1 1 1 1 1 1 1 1 1 1 1 1 1 1 1 1 1 1 1 1 1 1 1 1 1 1 1 1 1 1 1 1 1 1 1 1 1 1 1 1 1 1 1 1 1 1 1 1 1 1 1 1 1 1 1 1 1 1 1 1 1 1 1 1 1 1 1 1 1 1 1 1 1 1 1 1 1 1 1 1 1 1 1 1 1 1 1 1 1 1 1 1 1 1 1 1 1 1 1 1 1 1 1 1 1 1 1 1 1 1 1 1 1 1 1 1 1 1 1 1 1 1 1 1 1 1 1 1 1 1 1 1 1 1 1 1 1 1 1 1 1 1 1 1 1 1 1 1 1 1 1 1 1 1 1 1 1 1 1 1 1 1 1 1 1 1 1 1 1 1 1 1 1 1 1 1 1 1 1 1 1 1 1 1 1 1 1 1 1 1 1 1 1 1 1 1 1 1 1 1 1 1 1 1 1 1 1 1 1 1 1 1 1 1 1 1 1 1 1 1 1 1 1 1 1 1 1 1 1 1 1 1 1 1 1 1 1 1 1 1 1 1 1 1 1 1 1 1 1 1 1 1 1 1 1 1 1 1 1 1 1 1 1 1 1 1 1 1 1 1 1 1 1 1 1 1 1 1 1 1 1 1 1 1 1 1 1 1 1 1 1 1 1 1 1 1 1 1 1 1 1 1 1 1 1 1 1 1 1 1 1 1 1 1 1 1 1 1 1 1 1 1 1 1 1 1 1 1 1 1 1 1 1 1 1 1 1 1 1 1 1 1 1 1 1 1 1 1 1 1 1 1 1 1 1 1 1 1 1 1 1 1 1 1 1 1 1 1 1 1 1 1 1 1 1 1 1 1 1 1 1 1 1 1 1 1 1 1 1 1 1 1 1 1 1 1 1 1 1 1 1 1 1 1 1 1 1 1 1 1 1 1 1 1 1 1 1 1 1 1 1 1 1 1 1 1 1 1 1 1 1 1 1 1 1 1 1 1 1 1 1 1 1 1 1 1 1 1 1 1 1 1 1 1 1 1 1 1 1 1 1 1 1 1 1 1 1 1 1 1 1 1 1 1 1 1 1 1 1 1 1 1 1 1 1 1 1 1 1 1 1 1 1 1 1 1 1 1 1 1 1 1 1 1 1 1 1 1 1  </DataArray>
</Cells>
<PointData Scalars="" Vectors="IST_PrincipalStressTensor IST_PrincStressVector1 " Tensors="IST_StressTensor IST_StrainTensor " >
  <DataArray type="Float64" Name="IST_StressTensor" NumberOfComponents="9" format="ascii">-1.242338e+01 -4.931208e+00 0.000000e+00 -4.931208e+00 -9.871351e+01 0.000000e+00 0.000000e+00 0.000000e+00 0.000000e+00 -4.006663e+00 -2.237610e+00 0.000000e+00 -2.237610e+00 -8.822156e+01 0.000000e+00 0.000000e+00 0.000000e+00 0.000000e+00 3.862881e-01 -1.633908e+00 0.000000e+00 -1.633908e+00 -7.866894e+01 0.000000e+00 0.000000e+00 0.000000e+00 0.000000e+00 3.268482e+00 -1.456164e+00 0.000000e+00 -1.456164e+00 -6.962146e+01 0.000000e+00 0.000000e+00 0.000000e+00 0.000000e+00 5.981272e+00 -1.444348e+00 0.000000e+00 -1.444348e+00 -6.132632e+01 0.000000e+00 0.000000e+00 0.000000e+00 0.000000e+00 8.808094e+00 -1.476031e+00 0.000000e+00 -1.476031e+00 -5.323514e+01 0.000000e+00 0.000000e+00 0.000000e+00 0.000000e+00 1.196305e+01 -1.394072e+00 0.000000e+00 -1.394072e+00 -4.586896e+01 0.000000e+00 0.000000e+00 0.000000e+00 0.000000e+00 1.535223e+01 -1.447534e+00 0.000000e+00 -1.447534e+00 -3.884774e+01 0.000000e+00 0.000000e+00 0.000000e+00 0.000000e+00 1.909216e+01 -1.517614e+00 0.000000e+00 -1.517614e+00 -3.215205e+01 0.000000e+00 0.000000e+00 0.000000e+00 0.000000e+00 2.312627e+01 -1.614640e+00 0.000000e+00 -1.614640e+00 -2.571472e+01 0.000000e+00 0.000000e+00 0.000000e+00 0.000000e+00 2.741284e+01 -1.740945e+00 0.000000e+00 -1.740945e+00 -1.911774e+01 0.000000e+00 0.000000e+00 0.000000e+00 0.000000e+00 3.218901e+01 -1.768627e+00 0.000000e+00 -1.768627e+00 -1.292576e+01 0.000000e+00 0.000000e+00 0.000000e+00 0.000000e+00 3.733894e+01 -1.927028e+00 0.000000e+00 -1.927028e+00 -6.761993e+00 0.000000e+00 0.000000e+00 0.000000e+00 0.000000e+00 4.282820e+01 -2.044183e+00 0.000000e+00 -2.044183e+00 -4.954714e-02 0.000000e+00 0.000000e+00 0.000000e+00 0.000000e+00 4.895394e+01 -2.146524e+00 0.000000e+00 -2.146524e+00 6.580505e+00 0.000000e+00 0.000000e+00 0.000000e+00 0.000000e+00 5.550063e+01 -2.413659e+00 0.000000e+00 -2.413659e+00 1.413903e+01 0.000000e+00 0.000000e+00 0.000000e+00 0.000000e+00 6.279263e+01 -2.756294e+00 0.000000e+00 -2.756294e+00 2.227691e+01 0.000000e+00 0.000000e+00 0.000000e+00 0.000000e+00 7.126885e+01 -3.096874e+00 0.000000e+00 -3.096874e+00 3.063818e+01 0.000000e+00 0.000000e+00 0.000000e+00 0.000000e+00 8.083124e+01 -3.166431e+00 0.000000e+00 -3.166431e+00 4.110121e+01 0.000000e+00 0.000000e+00 0.000000e+00 0.000000e+00 9.220056e+01 -4.213081e+00 0.000000e+00 -4.213081e+00 5.277489e+01 0.000000e+00 0.000000e+00 0.000000e+00 0.000000e+00 1.065268e+02 -5.458168e+00 0.000000e+00 -5.458168e+00 6.692121e+01 0.000000e+00 0.000000e+00 0.000000e+00 0.000000e+00 1.261315e+02 -7.191465e+00 0.000000e+00 -7.191465e+00 8.599994e+01 0.000000e+00 0.000000e+00 0.000000e+00 0.000000e+00 1.560535e+02 -1.249426e+01 0.000000e+00 -1.249426e+01 1.131230e+02 0.000000e+00 0.000000e+00 0.000000e+00 0.000000e+00 2.131756e+02 -3.037283e+01 0.000000e+00 -3.037283e+01 1.650431e+02 0.000000e+00 0.000000e+00 0.000000e+00 0.000000e+00 3.238365e+02 -9.675035e+01 0.000000e+00 -9.675035e+01 3.324628e+02 0.000000e+00 0.000000e+00 0.000000e+00 0.000000e+00 3.594679e+01 1.856057e+00 0.000000e+00 1.856057e+00 1.224324e+00 0.000000e+00 0.000000e+00 0.000000e+00 0.000000e+00 3.151041e+01 2.127594e+00 0.000000e+00 2.127594e+00 -5.212329e-01 0.000000e+00 0.000000e+00 0.000000e+00 0.000000e+00 2.432221e+01 2.864885e+00 0.000000e+00 2.864885e+00 -3.234537e-01 0.000000e+00 0.000000e+00 0.000000e+00 0.000000e+00 1.254577e+01 3.834212e+00 0.000000e+00 3.834212e+00 6.237969e-01 0.000000e+00 0.000000e+00 0.000000e+00 0.000000e+00 1.534135e+01 4.480057e+00 0.000000e+00 4.480057e+00 1.744211e+00 0.000000e+00 0.000000e+00 0.000000e+00 0.000000e+00 2.683835e+01 9.986857e+00 0.000000e+00 9.986857e+00 4.856441e+00 0.000000e+00 0.000000e+00 0.000000e+00 0.000000e+00 3.143264e+01 6.975122e+00 0.000000e+00 6.975122e+00 3.571686e+00 0.000000e+00 0.000000e+00 0.000000e+00 0.000000e+00 7.680719e+00 3.716350e+00 0.000000e+00 3.716350e+00 6.385712e-01 0.000000e+00 0.000000e+00 0.000000e+00 0.000000e+00 -5.966880e+00 1.991335e+00 0.000000e+00 1.991335e+00 2.206334e+00 0.000000e+00 0.000000e+00 0.000000e+00 0.000000e+00 -5.360640e+00 -1.151755e+00 0.000000e+00 -1.151755e+00 7.074309e-01 0.000000e+00 0.000000e+00 0.000000e+00 0.000000e+00 -4.813560e-01 -4.961366e-01 0.000000e+00 -4.961366e-01 -5.113710e-01 0.000000e+00 0.000000e+00 0.000000e+00 0.000000e+00 -1.346389e-01 -5.422626e-01 0.000000e+00 -5.422626e-01 -2.019500e+00 0.000000e+00 0.000000e+00 0.000000e+00 0.000000e+00 5.282221e-01 4.880525e-01 0.000000e+00 4.880525e-01 -3.036624e+00 0.000000e+00 0.000000e+00 0.000000e+00 0.000000e+00 -3.880934e-02 9.501056e-01 0.000000e+00 9.501056e-01 3.373723e-01 0.000000e+00 0.000000e+00 0.000000e+00 0.000000e+00 -4.031323e-01 3.458348e-01 0.000000e+00 3.458348e-01 3.069718e+00 0.000000e+00 0.000000e+00 0.000000e+00 0.000000e+00 -2.091703e-01 -5.339642e-01 0.000000e+00 -5.339642e-01 1.783378e+00 0.000000e+00 0.000000e+00 0.000000e+00 0.000000e+00 1.822167e-01 -4.558857e-01 0.000000e+00 -4.558857e-01 4.810238e-01 0.000000e+00 0.000000e+00 0.000000e+00 0.000000e+00 4.544031e-02 -5.780118e-01 0.000000e+00 -5.780118e-01 2.749960e-01 0.000000e+00 0.000000e+00 0.000000e+00 0.000000e+00 4.992861e-01 -5.414019e-01 0.000000e+00 -5.414019e-01 -1.748890e-01 0.000000e+00 0.000000e+00 0.000000e+00 0.000000e+00 1.547546e+00 -3.012620e-01 0.000000e+00 -3.012620e-01 1.413742e-02 0.000000e+00 0.000000e+00 0.000000e+00 0.000000e+00 2.363848e+00 9.390488e-02 0.000000e+00 9.390488e-02 -9.224998e-01 0.000000e+00 0.000000e+00 0.000000e+00 0.000000e+00 -2.610102e+00 2.249945e+00 0.000000e+00 2.249945e+00 -1.114608e+00 0.000000e+00 0.000000e+00 0.000000e+00 0.000000e+00 -1.997861e+01 4.664596e+00 0.000000e+00 4.664596e+00 -5.465121e-01 0.000000e+00 0.000000e+00 0.000000e+00 0.000000e+00 -4.289498e+01 5.057604e+00 0.000000e+00 5.057604e+00 8.971185e-01 0.000000e+00 0.000000e+00 0.000000e+00 0.000000e+00 -5.917121e+01 2.524278e+00 0.000000e+00 2.524278e+00 3.356237e+00 0.000000e+00 0.000000e+00 0.000000e+00 0.000000e+00 -4.534491e+01 -5.672511e+00 0.000000e+00 -5.672511e+00 4.559322e+00 0.000000e+00 0.000000e+00 0.000000e+00 0.000000e+00 -2.111295e+01 -8.601717e+00 0.000000e+00 -8.601717e+00 9.858389e-01 0.000000e+00 0.000000e+00 0.000000e+00 0.000000e+00 -3.449288e+00 -3.238248e+00 0.000000e+00 -3.238248e+00 -2.831610e+00 0.000000e+00 0.000000e+00 0.000000e+00 0.000000e+00 -1.571372e+01 -7.644661e+00 0.000000e+00 -7.644661e+00 -2.347015e+00 0.000000e+00 0.000000e+00 0.000000e+00 0.000000e+00 -2.818102e+00 -3.105374e+00 0.000000e+00 -3.105374e+00 -3.089797e+00 0.000000e+00 0.000000e+00 0.000000e+00 0.000000e+00 -8.469426e-01 -8.351924e+00 0.000000e+00 -8.351924e+00 -1.876979e+01 0.000000e+00 0.000000e+00 0.000000e+00 0.000000e+00 1.473537e+00 2.514983e+00 0.000000e+00 2.514983e+00 -1.992658e+00 0.000000e+00 0.000000e+00 0.000000e+00 0.000000e+00 3.122113e+00 1.275873e+00 0.000000e+00 1.275873e+00 -1.987590e+00 0.000000e+00 0.000000e+00 0.000000e+00 0.000000e+00 3.891973e+00 -3.559418e-01 0.000000e+00 -3.559418e-01 -1.048805e+00 0.000000e+00 0.000000e+00 0.000000e+00 0.000000e+00 3.487976e+00 -1.434578e+00 0.000000e+00 -1.434578e+00 7.911596e-01 0.000000e+00 0.000000e+00 0.000000e+00 0.000000e+00 1.833964e+00 -1.284676e+00 0.000000e+00 -1.284676e+00 3.033821e+00 0.000000e+00 0.000000e+00 0.000000e+00 0.000000e+00 5.892197e-02 9.810137e-01 0.000000e+00 9.810137e-01 5.105468e+00 0.000000e+00 0.000000e+00 0.000000e+00 0.000000e+00 4.436233e-02 4.107601e+00 0.000000e+00 4.107601e+00 5.884327e+00 0.000000e+00 0.000000e+00 0.000000e+00 0.000000e+00 4.456916e-01 8.497738e+00 0.000000e+00 8.497738e+00 5.587566e+00 0.000000e+00 0.000000e+00 0.000000e+00 0.000000e+00 1.973766e+00 1.271449e+01 0.000000e+00 1.271449e+01 4.877295e+00 0.000000e+00 0.000000e+00 0.000000e+00 0.000000e+00 7.211908e+00 1.660105e+01 0.000000e+00 1.660105e+01 3.655393e+00 0.000000e+00 0.000000e+00 0.000000e+00 0.000000e+00 9.941155e+00 1.832595e+01 0.000000e+00 1.832595e+01 1.740292e+00 0.000000e+00 0.000000e+00 0.000000e+00 0.000000e+00 1.095821e+01 1.884428e+01 0.000000e+00 1.884428e+01 8.607242e-02 0.000000e+00 0.000000e+00 0.000000e+00 0.000000e+00 1.003269e+01 1.852187e+01 0.000000e+00 1.852187e+01 -6.918669e-01 0.000000e+00 0.000000e+00 0.000000e+00 0.000000e+00 6.829226e+00 1.800561e+01 0.000000e+00 1.800561e+01 -8.781970e-01 0.000000e+00 0.000000e+00 0.000000e+00 0.000000e+00 2.350392e+00 1.795750e+01 0.000000e+00 1.795750e+01 -7.694725e-01 0.000000e+00 0.000000e+00 0.000000e+00 0.000000e+00 -2.216584e+00 1.888824e+01 0.000000e+00 1.888824e+01 -5.510769e-01 0.000000e+00 0.000000e+00 0.000000e+00 0.000000e+00 -4.508524e+00 2.041422e+01 0.000000e+00 2.041422e+01 -1.694453e+00 0.000000e+00 0.000000e+00 0.000000e+00 0.000000e+00 -4.385006e+00 2.082906e+01 0.000000e+00 2.082906e+01 -4.309049e+00 0.000000e+00 0.000000e+00 0.000000e+00 0.000000e+00 -2.301524e+00 1.928024e+01 0.000000e+00 1.928024e+01 -7.237291e+00 0.000000e+00 0.000000e+00 0.000000e+00 0.000000e+00 4.092814e-02 1.607080e+01 0.000000e+00 1.607080e+01 -9.258732e+00 0.000000e+00 0.000000e+00 0.000000e+00 0.000000e+00 1.555606e+00 1.251350e+01 0.000000e+00 1.251350e+01 -1.045053e+01 0.000000e+00 0.000000e+00 0.000000e+00 0.000000e+00 2.300854e+00 8.238903e+00 0.000000e+00 8.238903e+00 -1.101487e+01 0.000000e+00 0.000000e+00 0.000000e+00 0.000000e+00 1.796523e+00 4.102466e+00 0.000000e+00 4.102466e+00 -1.001500e+01 0.000000e+00 0.000000e+00 0.000000e+00 0.000000e+00 2.621971e-01 1.127349e+00 0.000000e+00 1.127349e+00 -8.068722e+00 0.000000e+00 0.000000e+00 0.000000e+00 0.000000e+00 -1.797520e+00 5.307363e-01 0.000000e+00 5.307363e-01 -4.861601e+00 0.000000e+00 0.000000e+00 0.000000e+00 0.000000e+00 -2.292298e+00 1.341846e+00 0.000000e+00 1.341846e+00 -2.939864e+00 0.000000e+00 0.000000e+00 0.000000e+00 0.000000e+00 -1.525371e+00 2.276492e+00 0.000000e+00 2.276492e+00 -2.026618e+00 0.000000e+00 0.000000e+00 0.000000e+00 0.000000e+00 -2.219498e-01 2.768246e+00 0.000000e+00 2.768246e+00 -1.890311e+00 0.000000e+00 0.000000e+00 0.000000e+00 0.000000e+00 8.744732e-03 -6.194212e-01 0.000000e+00 -6.194212e-01 -5.159882e-01 0.000000e+00 0.000000e+00 0.000000e+00 0.000000e+00 -2.074026e+01 -4.260509e+00 0.000000e+00 -4.260509e+00 -1.012086e+02 0.000000e+00 0.000000e+00 0.000000e+00 0.000000e+00 -7.316476e+00 -3.148411e+00 0.000000e+00 -3.148411e+00 -9.365416e+01 0.000000e+00 0.000000e+00 0.000000e+00 0.000000e+00 -5.574559e+00 -2.209754e+00 0.000000e+00 -2.209754e+00 -9.442560e+01 0.000000e+00 0.000000e+00 0.000000e+00 0.000000e+00 -3.264763e+00 -9.030909e-01 0.000000e+00 -9.030909e-01 -9.005128e+01 0.000000e+00 0.000000e+00 0.000000e+00 0.000000e+00 -1.490747e+00 -1.824258e+00 0.000000e+00 -1.824258e+00 -8.338189e+01 0.000000e+00 0.000000e+00 0.000000e+00 0.000000e+00 7.030563e-03 -1.121976e-01 0.000000e+00 -1.121976e-01 -8.073366e+01 0.000000e+00 0.000000e+00 0.000000e+00 0.000000e+00 1.866416e+00 -1.545820e+00 0.000000e+00 -1.545820e+00 -7.394447e+01 0.000000e+00 0.000000e+00 0.000000e+00 0.000000e+00 4.583680e+00 -1.429244e+00 0.000000e+00 -1.429244e+00 -6.533423e+01 0.000000e+00 0.000000e+00 0.000000e+00 0.000000e+00 7.344555e+00 -1.517142e+00 0.000000e+00 -1.517142e+00 -5.718687e+01 0.000000e+00 0.000000e+00 0.000000e+00 0.000000e+00 6.477139e+00 1.211538e-02 0.000000e+00 1.211538e-02 -5.921271e+01 0.000000e+00 0.000000e+00 0.000000e+00 0.000000e+00 8.195569e+00 -6.003581e-02 0.000000e+00 -6.003581e-02 -5.518940e+01 0.000000e+00 0.000000e+00 0.000000e+00 0.000000e+00 1.031987e+01 -1.418163e+00 0.000000e+00 -1.418163e+00 -4.937211e+01 0.000000e+00 0.000000e+00 0.000000e+00 0.000000e+00 1.368840e+01 -1.411664e+00 0.000000e+00 -1.411664e+00 -4.252070e+01 0.000000e+00 0.000000e+00 0.000000e+00 0.000000e+00 1.714874e+01 -1.489174e+00 0.000000e+00 -1.489174e+00 -3.536908e+01 0.000000e+00 0.000000e+00 0.000000e+00 0.000000e+00 2.103244e+01 -1.582224e+00 0.000000e+00 -1.582224e+00 -2.881457e+01 0.000000e+00 0.000000e+00 0.000000e+00 0.000000e+00 1.987613e+01 -4.137832e-01 0.000000e+00 -4.137832e-01 -3.045475e+01 0.000000e+00 0.000000e+00 0.000000e+00 0.000000e+00 2.197216e+01 -5.167803e-01 0.000000e+00 -5.167803e-01 -2.723106e+01 0.000000e+00 0.000000e+00 0.000000e+00 0.000000e+00 2.525924e+01 -1.685915e+00 0.000000e+00 -1.685915e+00 -2.250859e+01 0.000000e+00 0.000000e+00 0.000000e+00 0.000000e+00 2.973192e+01 -1.743744e+00 0.000000e+00 -1.743744e+00 -1.594288e+01 0.000000e+00 0.000000e+00 0.000000e+00 0.000000e+00 3.471624e+01 -1.833628e+00 0.000000e+00 -1.833628e+00 -9.874900e+00 0.000000e+00 0.000000e+00 0.000000e+00 0.000000e+00 3.324303e+01 -7.434049e-01 0.000000e+00 -7.434049e-01 -1.142207e+01 0.000000e+00 0.000000e+00 0.000000e+00 0.000000e+00 3.570792e+01 -7.945443e-01 0.000000e+00 -7.945443e-01 -8.327085e+00 0.000000e+00 0.000000e+00 0.000000e+00 0.000000e+00 4.007169e+01 -1.982260e+00 0.000000e+00 -1.982260e+00 -3.565635e+00 0.000000e+00 0.000000e+00 0.000000e+00 0.000000e+00 4.577801e+01 -2.066976e+00 0.000000e+00 -2.066976e+00 3.370391e+00 0.000000e+00 0.000000e+00 0.000000e+00 0.000000e+00 5.219059e+01 -2.282212e+00 0.000000e+00 -2.282212e+00 1.015119e+01 0.000000e+00 0.000000e+00 0.000000e+00 0.000000e+00 5.015594e+01 -1.046326e+00 0.000000e+00 -1.046326e+00 8.319619e+00 0.000000e+00 0.000000e+00 0.000000e+00 0.000000e+00 5.349166e+01 -1.027019e+00 0.000000e+00 -1.027019e+00 1.202171e+01 0.000000e+00 0.000000e+00 0.000000e+00 0.000000e+00 5.902252e+01 -2.575456e+00 0.000000e+00 -2.575456e+00 1.820396e+01 0.000000e+00 0.000000e+00 0.000000e+00 0.000000e+00 6.041534e+01 -1.262178e+00 0.000000e+00 -1.262178e+00 2.003134e+01 0.000000e+00 0.000000e+00 0.000000e+00 0.000000e+00 6.693745e+01 -2.943428e+00 0.000000e+00 -2.943428e+00 2.621018e+01 0.000000e+00 0.000000e+00 0.000000e+00 0.000000e+00 7.578541e+01 -3.145510e+00 0.000000e+00 -3.145510e+00 3.581912e+01 0.000000e+00 0.000000e+00 0.000000e+00 0.000000e+00 8.643608e+01 -3.441695e+00 0.000000e+00 -3.441695e+00 4.643590e+01 0.000000e+00 0.000000e+00 0.000000e+00 0.000000e+00 8.287926e+01 -1.656588e+00 0.000000e+00 -1.656588e+00 4.363221e+01 0.000000e+00 0.000000e+00 0.000000e+00 0.000000e+00 8.730219e+01 -1.853279e+00 0.000000e+00 -1.853279e+00 4.910233e+01 0.000000e+00 0.000000e+00 0.000000e+00 0.000000e+00 9.893543e+01 -4.786656e+00 0.000000e+00 -4.786656e+00 5.940530e+01 0.000000e+00 0.000000e+00 0.000000e+00 0.000000e+00 1.155238e+02 -6.305159e+00 0.000000e+00 -6.305159e+00 7.532646e+01 0.000000e+00 0.000000e+00 0.000000e+00 0.000000e+00 1.393458e+02 -8.890888e+00 0.000000e+00 -8.890888e+00 9.820513e+01 0.000000e+00 0.000000e+00 0.000000e+00 0.000000e+00 1.790790e+02 -1.873626e+01 0.000000e+00 -1.873626e+01 1.341827e+02 0.000000e+00 0.000000e+00 0.000000e+00 0.000000e+00 1.497809e+02 -8.750946e+00 0.000000e+00 -8.750946e+00 1.185836e+02 0.000000e+00 0.000000e+00 0.000000e+00 0.000000e+00 1.614552e+02 -1.391744e+01 0.000000e+00 -1.391744e+01 1.391135e+02 0.000000e+00 0.000000e+00 0.000000e+00 0.000000e+00 2.636419e+02 -5.384453e+01 0.000000e+00 -5.384453e+01 2.196869e+02 0.000000e+00 0.000000e+00 0.000000e+00 0.000000e+00 5.641647e+01 1.342114e+00 0.000000e+00 1.342114e+00 -2.307758e-01 0.000000e+00 0.000000e+00 0.000000e+00 0.000000e+00 3.372364e+01 2.441734e-01 0.000000e+00 2.441734e-01 -2.010102e+00 0.000000e+00 0.000000e+00 0.000000e+00 0.000000e+00 3.390473e+01 1.687299e+00 0.000000e+00 1.687299e+00 -2.375047e-01 0.000000e+00 0.000000e+00 0.000000e+00 0.000000e+00 2.827580e+01 2.515838e+00 0.000000e+00 2.515838e+00 -3.230882e-01 0.000000e+00 0.000000e+00 0.000000e+00 0.000000e+00 1.935093e+01 3.355307e+00 0.000000e+00 3.355307e+00 -4.611339e-01 0.000000e+00 0.000000e+00 0.000000e+00 0.000000e+00 1.716747e+01 7.439160e+00 0.000000e+00 7.439160e+00 6.836309e-01 0.000000e+00 0.000000e+00 0.000000e+00 0.000000e+00 2.232890e+01 6.329538e+00 0.000000e+00 6.329538e+00 3.617459e+00 0.000000e+00 0.000000e+00 0.000000e+00 0.000000e+00 2.023820e+01 8.387029e+00 0.000000e+00 8.387029e+00 4.225042e+00 0.000000e+00 0.000000e+00 0.000000e+00 0.000000e+00 1.725172e+01 4.420370e+00 0.000000e+00 4.420370e+00 7.092685e-01 0.000000e+00 0.000000e+00 0.000000e+00 0.000000e+00 -7.981256e-02 3.145650e+00 0.000000e+00 3.145650e+00 1.733465e+00 0.000000e+00 0.000000e+00 0.000000e+00 0.000000e+00 -1.137042e+00 1.348116e+00 0.000000e+00 1.348116e+00 -8.563987e-01 0.000000e+00 0.000000e+00 0.000000e+00 0.000000e+00 -3.476559e+00 -6.441384e-01 0.000000e+00 -6.441384e-01 -5.826206e-01 0.000000e+00 0.000000e+00 0.000000e+00 0.000000e+00 -7.549318e+00 3.806682e-02 0.000000e+00 3.806682e-02 1.518739e+00 0.000000e+00 0.000000e+00 0.000000e+00 0.000000e+00 -2.275777e+00 -1.126755e+00 0.000000e+00 -1.126755e+00 -9.675346e-02 0.000000e+00 0.000000e+00 0.000000e+00 0.000000e+00 3.851866e-02 -6.445872e-01 0.000000e+00 -6.445872e-01 -1.806618e+00 0.000000e+00 0.000000e+00 0.000000e+00 0.000000e+00 5.072373e-01 -1.828196e-01 0.000000e+00 -1.828196e-01 -3.218150e+00 0.000000e+00 0.000000e+00 0.000000e+00 0.000000e+00 2.754477e-02 -5.002844e-02 0.000000e+00 -5.002844e-02 -2.421920e+00 0.000000e+00 0.000000e+00 0.000000e+00 0.000000e+00 3.029921e-01 8.439502e-01 0.000000e+00 8.439502e-01 -1.663135e+00 0.000000e+00 0.000000e+00 0.000000e+00 0.000000e+00 -3.239984e-01 6.916827e-01 0.000000e+00 6.916827e-01 1.961712e+00 0.000000e+00 0.000000e+00 0.000000e+00 0.000000e+00 -3.129098e-01 -1.257882e-01 0.000000e+00 -1.257882e-01 2.862834e+00 0.000000e+00 0.000000e+00 0.000000e+00 0.000000e+00 -1.980092e+01 4.939033e+00 0.000000e+00 4.939033e+00 2.399394e-03 0.000000e+00 0.000000e+00 0.000000e+00 0.000000e+00 -3.145560e+01 5.064560e+00 0.000000e+00 5.064560e+00 -1.157412e-01 0.000000e+00 0.000000e+00 0.000000e+00 0.000000e+00 5.389960e-01 -4.554810e-01 0.000000e+00 -4.554810e-01 1.846133e-01 0.000000e+00 0.000000e+00 0.000000e+00 0.000000e+00 4.263666e-02 3.353686e-01 0.000000e+00 3.353686e-01 2.669181e-01 0.000000e+00 0.000000e+00 0.000000e+00 0.000000e+00 1.222890e+00 1.077929e+00 0.000000e+00 1.077929e+00 -1.199759e+00 0.000000e+00 0.000000e+00 0.000000e+00 0.000000e+00 -2.491795e+00 1.515941e+00 0.000000e+00 1.515941e+00 1.814142e-01 0.000000e+00 0.000000e+00 0.000000e+00 0.000000e+00 -9.694756e+00 3.575964e+00 0.000000e+00 3.575964e+00 -1.075543e+00 0.000000e+00 0.000000e+00 0.000000e+00 0.000000e+00 -2.831614e+01 5.012111e+00 0.000000e+00 5.012111e+00 -3.925040e-01 0.000000e+00 0.000000e+00 0.000000e+00 0.000000e+00 -5.300228e+01 4.201220e+00 0.000000e+00 4.201220e+00 1.984220e+00 0.000000e+00 0.000000e+00 0.000000e+00 0.000000e+00 -3.711930e+01 -6.119201e+00 0.000000e+00 -6.119201e+00 -1.115168e+00 0.000000e+00 0.000000e+00 0.000000e+00 0.000000e+00 -5.741240e+01 -1.256105e+00 0.000000e+00 -1.256105e+00 4.540557e+00 0.000000e+00 0.000000e+00 0.000000e+00 0.000000e+00 -2.702743e+01 -6.683527e+00 0.000000e+00 -6.683527e+00 -1.830889e+00 0.000000e+00 0.000000e+00 0.000000e+00 0.000000e+00 2.779812e+00 1.351263e+00 0.000000e+00 1.351263e+00 -1.476609e+00 0.000000e+00 0.000000e+00 0.000000e+00 0.000000e+00 8.802314e-01 2.224432e+00 0.000000e+00 2.224432e+00 -1.561848e+00 0.000000e+00 0.000000e+00 0.000000e+00 0.000000e+00 3.961412e+00 -2.667806e-01 0.000000e+00 -2.667806e-01 -8.987384e-01 0.000000e+00 0.000000e+00 0.000000e+00 0.000000e+00 3.877175e+00 -1.796871e+00 0.000000e+00 -1.796871e+00 6.346464e-01 0.000000e+00 0.000000e+00 0.000000e+00 0.000000e+00 3.216086e+00 -2.527801e+00 0.000000e+00 -2.527801e+00 3.354559e+00 0.000000e+00 0.000000e+00 0.000000e+00 0.000000e+00 1.675578e+00 -1.183320e+00 0.000000e+00 -1.183320e+00 6.705476e+00 0.000000e+00 0.000000e+00 0.000000e+00 0.000000e+00 1.246993e+00 2.137440e+00 0.000000e+00 2.137440e+00 8.408144e+00 0.000000e+00 0.000000e+00 0.000000e+00 0.000000e+00 2.323797e+00 6.464939e+00 0.000000e+00 6.464939e+00 1.002805e+01 0.000000e+00 0.000000e+00 0.000000e+00 0.000000e+00 4.760684e+00 1.097309e+01 0.000000e+00 1.097309e+01 8.921030e+00 0.000000e+00 0.000000e+00 0.000000e+00 0.000000e+00 9.114739e+00 1.531211e+01 0.000000e+00 1.531211e+01 8.213894e+00 0.000000e+00 0.000000e+00 0.000000e+00 0.000000e+00 1.136993e+01 1.740613e+01 0.000000e+00 1.740613e+01 4.849307e+00 0.000000e+00 0.000000e+00 0.000000e+00 0.000000e+00 1.177504e+01 1.812762e+01 0.000000e+00 1.812762e+01 2.281266e+00 0.000000e+00 0.000000e+00 0.000000e+00 0.000000e+00 1.039108e+01 1.864911e+01 0.000000e+00 1.864911e+01 4.124712e-01 0.000000e+00 0.000000e+00 0.000000e+00 0.000000e+00 7.864545e+00 1.889636e+01 0.000000e+00 1.889636e+01 -2.148551e-01 0.000000e+00 0.000000e+00 0.000000e+00 0.000000e+00 4.477255e+00 1.915886e+01 0.000000e+00 1.915886e+01 -2.322263e-01 0.000000e+00 0.000000e+00 0.000000e+00 0.000000e+00 5.042314e-01 1.971630e+01 0.000000e+00 1.971630e+01 -1.660894e-01 0.000000e+00 0.000000e+00 0.000000e+00 0.000000e+00 -3.001595e+00 2.057584e+01 0.000000e+00 2.057584e+01 -1.411721e+00 0.000000e+00 0.000000e+00 0.000000e+00 0.000000e+00 -5.148215e+00 2.096919e+01 0.000000e+00 2.096919e+01 -4.386236e+00 0.000000e+00 0.000000e+00 0.000000e+00 0.000000e+00 -5.738917e+00 2.015766e+01 0.000000e+00 2.015766e+01 -8.136823e+00 0.000000e+00 0.000000e+00 0.000000e+00 0.000000e+00 -4.796020e+00 1.768955e+01 0.000000e+00 1.768955e+01 -1.119470e+01 0.000000e+00 0.000000e+00 0.000000e+00 0.000000e+00 -3.187280e+00 1.420635e+01 0.000000e+00 1.420635e+01 -1.301679e+01 0.000000e+00 0.000000e+00 0.000000e+00 0.000000e+00 -1.439041e+00 1.026547e+01 0.000000e+00 1.026547e+01 -1.446047e+01 0.000000e+00 0.000000e+00 0.000000e+00 0.000000e+00 -6.341188e-01 5.756193e+00 0.000000e+00 5.756193e+00 -1.425730e+01 0.000000e+00 0.000000e+00 0.000000e+00 0.000000e+00 -1.024106e+00 1.964714e+00 0.000000e+00 1.964714e+00 -1.193293e+01 0.000000e+00 0.000000e+00 0.000000e+00 0.000000e+00 -2.222439e+00 -1.676300e-01 0.000000e+00 -1.676300e-01 -8.293692e+00 0.000000e+00 0.000000e+00 0.000000e+00 0.000000e+00 -2.696836e+00 4.939579e-02 0.000000e+00 4.939579e-02 -4.640697e+00 0.000000e+00 0.000000e+00 0.000000e+00 0.000000e+00 -2.167939e+00 1.124612e+00 0.000000e+00 1.124612e+00 -2.609156e+00 0.000000e+00 0.000000e+00 0.000000e+00 0.000000e+00 -9.569729e-01 2.032356e+00 0.000000e+00 2.032356e+00 -1.693072e+00 0.000000e+00 0.000000e+00 0.000000e+00 0.000000e+00 9.197094e+00 4.177014e+00 0.000000e+00 4.177014e+00 6.580489e+01 0.000000e+00 0.000000e+00 0.000000e+00 0.000000e+00 -1.600560e+00 -3.939782e-01 0.000000e+00 -3.939782e-01 -8.536122e+01 0.000000e+00 0.000000e+00 0.000000e+00 0.000000e+00 1.399259e+00 5.732657e-02 0.000000e+00 5.732657e-02 -7.615390e+01 0.000000e+00 0.000000e+00 0.000000e+00 0.000000e+00 4.031275e+00 6.891978e-02 0.000000e+00 6.891978e-02 -6.736009e+01 0.000000e+00 0.000000e+00 0.000000e+00 0.000000e+00 1.120554e+01 -2.050340e-01 0.000000e+00 -2.050340e-01 -4.763585e+01 0.000000e+00 0.000000e+00 0.000000e+00 0.000000e+00 9.717844e+00 -1.044960e-01 0.000000e+00 -1.044960e-01 -5.130956e+01 0.000000e+00 0.000000e+00 0.000000e+00 0.000000e+00 1.277624e+01 -2.442688e-01 0.000000e+00 -2.442688e-01 -4.419350e+01 0.000000e+00 0.000000e+00 0.000000e+00 0.000000e+00 1.613691e+01 -3.066728e-01 0.000000e+00 -3.066728e-01 -3.712682e+01 0.000000e+00 0.000000e+00 0.000000e+00 0.000000e+00 2.615710e+01 -5.425408e-01 0.000000e+00 -5.425408e-01 -2.070757e+01 0.000000e+00 0.000000e+00 0.000000e+00 0.000000e+00 2.394943e+01 -4.922919e-01 0.000000e+00 -4.922919e-01 -2.403934e+01 0.000000e+00 0.000000e+00 0.000000e+00 0.000000e+00 2.855050e+01 -6.700363e-01 0.000000e+00 -6.700363e-01 -1.748615e+01 0.000000e+00 0.000000e+00 0.000000e+00 0.000000e+00 4.124924e+01 -8.414596e-01 0.000000e+00 -8.414596e-01 -1.789489e+00 0.000000e+00 0.000000e+00 0.000000e+00 0.000000e+00 3.848325e+01 -8.382876e-01 0.000000e+00 -8.382876e-01 -5.114837e+00 0.000000e+00 0.000000e+00 0.000000e+00 0.000000e+00 4.421938e+01 -8.845378e-01 0.000000e+00 -8.845378e-01 1.670318e+00 0.000000e+00 0.000000e+00 0.000000e+00 0.000000e+00 5.681982e+01 -1.088139e+00 0.000000e+00 -1.088139e+00 1.597490e+01 0.000000e+00 0.000000e+00 0.000000e+00 0.000000e+00 6.430641e+01 -1.460253e+00 0.000000e+00 -1.460253e+00 2.404957e+01 0.000000e+00 0.000000e+00 0.000000e+00 0.000000e+00 7.346807e+01 -1.384406e+00 0.000000e+00 -1.384406e+00 3.306206e+01 0.000000e+00 0.000000e+00 0.000000e+00 0.000000e+00 1.009200e+02 -2.591829e+00 0.000000e+00 -2.591829e+00 6.250229e+01 0.000000e+00 0.000000e+00 0.000000e+00 0.000000e+00 9.395998e+01 -2.240212e+00 0.000000e+00 -2.240212e+00 5.553571e+01 0.000000e+00 0.000000e+00 0.000000e+00 0.000000e+00 1.086416e+02 -3.002082e+00 0.000000e+00 -3.002082e+00 7.029272e+01 0.000000e+00 0.000000e+00 0.000000e+00 0.000000e+00 1.283422e+02 -4.173597e+00 0.000000e+00 -4.173597e+00 9.081131e+01 0.000000e+00 0.000000e+00 0.000000e+00 0.000000e+00 1.638345e+02 -2.918982e+01 0.000000e+00 -2.918982e+01 2.253191e+02 0.000000e+00 0.000000e+00 0.000000e+00 0.000000e+00 1.682354e+02 -2.200980e+01 0.000000e+00 -2.200980e+01 1.697743e+02 0.000000e+00 0.000000e+00 0.000000e+00 0.000000e+00 4.476137e+01 2.409137e+00 0.000000e+00 2.409137e+00 -2.170964e-01 0.000000e+00 0.000000e+00 0.000000e+00 0.000000e+00 3.249891e+01 2.538504e+00 0.000000e+00 2.538504e+00 1.347527e-01 0.000000e+00 0.000000e+00 0.000000e+00 0.000000e+00 2.406278e+01 3.124687e+00 0.000000e+00 3.124687e+00 6.477946e-02 0.000000e+00 0.000000e+00 0.000000e+00 0.000000e+00 1.839513e+01 4.930462e+00 0.000000e+00 4.930462e+00 -4.667196e-01 0.000000e+00 0.000000e+00 0.000000e+00 0.000000e+00 6.203416e+00 2.983459e+00 0.000000e+00 2.983459e+00 -5.513847e-01 0.000000e+00 0.000000e+00 0.000000e+00 0.000000e+00 -3.698969e+00 -1.407958e-01 0.000000e+00 -1.407958e-01 -9.489712e-01 0.000000e+00 0.000000e+00 0.000000e+00 0.000000e+00 -2.206822e+00 -9.729108e-01 0.000000e+00 -9.729108e-01 -2.703568e-01 0.000000e+00 0.000000e+00 0.000000e+00 0.000000e+00 -3.866024e-02 5.882365e-01 0.000000e+00 5.882365e-01 -2.020974e+00 0.000000e+00 0.000000e+00 0.000000e+00 0.000000e+00 -1.039979e-01 9.945248e-01 0.000000e+00 9.945248e-01 -1.043524e-01 0.000000e+00 0.000000e+00 0.000000e+00 0.000000e+00 -3.460246e-02 -3.340363e-03 0.000000e+00 -3.340363e-03 9.542277e-01 0.000000e+00 0.000000e+00 0.000000e+00 0.000000e+00 -6.715925e+00 2.806944e+00 0.000000e+00 2.806944e+00 1.578017e-02 0.000000e+00 0.000000e+00 0.000000e+00 0.000000e+00 -3.535275e+01 4.344233e+00 0.000000e+00 4.344233e+00 -7.428665e-01 0.000000e+00 0.000000e+00 0.000000e+00 0.000000e+00 -4.177699e+01 -1.110370e-01 0.000000e+00 -1.110370e-01 -7.434723e-01 0.000000e+00 0.000000e+00 0.000000e+00 0.000000e+00 1.020411e+00 -7.342859e+00 0.000000e+00 -7.342859e+00 -2.433921e+01 0.000000e+00 0.000000e+00 0.000000e+00 0.000000e+00 1.803298e+01 -3.725457e-01 0.000000e+00 -3.725457e-01 -3.373508e+01 0.000000e+00 0.000000e+00 0.000000e+00 0.000000e+00 1.373035e+02 -5.866291e+00 0.000000e+00 -5.866291e+00 1.028354e+02 0.000000e+00 0.000000e+00 0.000000e+00 0.000000e+00 2.796899e+01 2.757865e+00 0.000000e+00 2.757865e+00 1.223547e-01 0.000000e+00 0.000000e+00 0.000000e+00 0.000000e+00 2.010983e+01 3.527136e+00 0.000000e+00 3.527136e+00 -1.727680e-01 0.000000e+00 0.000000e+00 0.000000e+00 0.000000e+00 -9.940644e-02 -3.554292e-01 0.000000e+00 -3.554292e-01 6.569946e-01 0.000000e+00 0.000000e+00 0.000000e+00 0.000000e+00 5.261290e+00 1.686287e-02 0.000000e+00 1.686287e-02 -6.324877e+01 0.000000e+00 0.000000e+00 0.000000e+00 0.000000e+00 2.857384e+00 1.079449e-01 0.000000e+00 1.079449e-01 -7.163871e+01 0.000000e+00 0.000000e+00 0.000000e+00 0.000000e+00 1.442935e+01 -1.982061e-01 0.000000e+00 -1.982061e-01 -4.065398e+01 0.000000e+00 0.000000e+00 0.000000e+00 0.000000e+00 3.088152e+01 -7.246565e-01 0.000000e+00 -7.246565e-01 -1.444055e+01 0.000000e+00 0.000000e+00 0.000000e+00 0.000000e+00 4.706973e+01 -1.015264e+00 0.000000e+00 -1.015264e+00 4.972054e+00 0.000000e+00 0.000000e+00 0.000000e+00 0.000000e+00 7.828741e+01 -1.384230e+00 0.000000e+00 -1.384230e+00 3.839754e+01 0.000000e+00 0.000000e+00 0.000000e+00 0.000000e+00 6.868921e+01 -1.512504e+00 0.000000e+00 -1.512504e+00 2.825722e+01 0.000000e+00 0.000000e+00 0.000000e+00 0.000000e+00 1.183942e+02 -3.194474e+00 0.000000e+00 -3.194474e+00 7.987436e+01 0.000000e+00 0.000000e+00 0.000000e+00 0.000000e+00 3.812743e+01 2.501077e+00 0.000000e+00 2.501077e+00 1.947965e-01 0.000000e+00 0.000000e+00 0.000000e+00 0.000000e+00 1.301703e+01 3.876341e+00 0.000000e+00 3.876341e+00 -1.532013e-01 0.000000e+00 0.000000e+00 0.000000e+00 0.000000e+00 -1.231720e-02 3.691734e-01 0.000000e+00 3.691734e-01 8.920831e-01 0.000000e+00 0.000000e+00 0.000000e+00 0.000000e+00 -1.757335e-04 9.885437e-01 0.000000e+00 9.885437e-01 -1.043209e+00 0.000000e+00 0.000000e+00 0.000000e+00 0.000000e+00 -1.244588e+01 3.980602e+00 0.000000e+00 3.980602e+00 -4.542740e-02 0.000000e+00 0.000000e+00 0.000000e+00 0.000000e+00 -4.062388e+01 2.808172e+00 0.000000e+00 2.808172e+00 -1.180229e+00 0.000000e+00 0.000000e+00 0.000000e+00 0.000000e+00 1.517542e+00 -3.092102e+00 0.000000e+00 -3.092102e+00 -7.656511e+01 0.000000e+00 0.000000e+00 0.000000e+00 0.000000e+00 3.916495e+00 -2.909819e+00 0.000000e+00 -2.909819e+00 -6.762693e+01 0.000000e+00 0.000000e+00 0.000000e+00 0.000000e+00 1.447014e+01 -3.218737e+00 0.000000e+00 -3.218737e+00 -4.065913e+01 0.000000e+00 0.000000e+00 0.000000e+00 0.000000e+00 1.109321e+01 -3.078001e+00 0.000000e+00 -3.078001e+00 -4.770508e+01 0.000000e+00 0.000000e+00 0.000000e+00 0.000000e+00 2.649031e+00 -3.006656e+00 0.000000e+00 -3.006656e+00 -7.217501e+01 0.000000e+00 0.000000e+00 0.000000e+00 0.000000e+00 3.886591e+00 -1.172308e+00 0.000000e+00 -1.172308e+00 -6.969379e+01 0.000000e+00 0.000000e+00 0.000000e+00 0.000000e+00 1.276694e+01 -3.100287e+00 0.000000e+00 -3.100287e+00 -4.401621e+01 0.000000e+00 0.000000e+00 0.000000e+00 0.000000e+00 1.200618e+01 -1.849761e+00 0.000000e+00 -1.849761e+00 -4.586045e+01 0.000000e+00 0.000000e+00 0.000000e+00 0.000000e+00 1.300823e+01 -1.921522e+00 0.000000e+00 -1.921522e+00 -4.242316e+01 0.000000e+00 0.000000e+00 0.000000e+00 0.000000e+00 9.408848e+00 -3.145338e+00 0.000000e+00 -3.145338e+00 -5.120563e+01 0.000000e+00 0.000000e+00 0.000000e+00 0.000000e+00 1.096476e+01 -1.782938e+00 0.000000e+00 -1.782938e+00 -4.942063e+01 0.000000e+00 0.000000e+00 0.000000e+00 0.000000e+00 3.087514e+01 -4.281056e+00 0.000000e+00 -4.281056e+00 -1.444367e+01 0.000000e+00 0.000000e+00 0.000000e+00 0.000000e+00 2.611293e+01 -4.173028e+00 0.000000e+00 -4.173028e+00 -2.085010e+01 0.000000e+00 0.000000e+00 0.000000e+00 0.000000e+00 1.422313e+02 -2.264906e+01 0.000000e+00 -2.264906e+01 1.079438e+02 0.000000e+00 0.000000e+00 0.000000e+00 0.000000e+00 2.831321e+01 -4.219813e+00 0.000000e+00 -4.219813e+00 -1.749836e+01 0.000000e+00 0.000000e+00 0.000000e+00 0.000000e+00 2.743717e+01 -2.956501e+00 0.000000e+00 -2.956501e+00 -1.915757e+01 0.000000e+00 0.000000e+00 0.000000e+00 0.000000e+00 2.953348e+01 -3.165883e+00 0.000000e+00 -3.165883e+00 -1.595018e+01 0.000000e+00 0.000000e+00 0.000000e+00 0.000000e+00 2.409946e+01 -3.993948e+00 0.000000e+00 -3.993948e+00 -2.407568e+01 0.000000e+00 0.000000e+00 0.000000e+00 0.000000e+00 2.448214e+01 -2.853803e+00 0.000000e+00 -2.853803e+00 -2.252286e+01 0.000000e+00 0.000000e+00 0.000000e+00 0.000000e+00 4.110492e+01 -5.141900e+00 0.000000e+00 -5.141900e+00 -1.686768e+00 0.000000e+00 0.000000e+00 0.000000e+00 0.000000e+00 4.706519e+01 -5.230840e+00 0.000000e+00 -5.230840e+00 5.027870e+00 0.000000e+00 0.000000e+00 0.000000e+00 0.000000e+00 4.402792e+01 -5.199250e+00 0.000000e+00 -5.199250e+00 1.592630e+00 0.000000e+00 0.000000e+00 0.000000e+00 0.000000e+00 4.242704e+01 -3.989888e+00 0.000000e+00 -3.989888e+00 -7.764990e-02 0.000000e+00 0.000000e+00 0.000000e+00 0.000000e+00 4.575785e+01 -3.954294e+00 0.000000e+00 -3.954294e+00 3.302740e+00 0.000000e+00 0.000000e+00 0.000000e+00 0.000000e+00 3.836525e+01 -4.957174e+00 0.000000e+00 -4.957174e+00 -5.178122e+00 0.000000e+00 0.000000e+00 0.000000e+00 0.000000e+00 3.895730e+01 -3.753824e+00 0.000000e+00 -3.753824e+00 -3.552220e+00 0.000000e+00 0.000000e+00 0.000000e+00 0.000000e+00 5.724722e+01 -6.376200e+00 0.000000e+00 -6.376200e+00 1.658372e+01 0.000000e+00 0.000000e+00 0.000000e+00 0.000000e+00 7.701019e+01 -8.050921e+00 0.000000e+00 -8.050921e+00 3.907020e+01 0.000000e+00 0.000000e+00 0.000000e+00 0.000000e+00 6.472320e+01 -7.297584e+00 0.000000e+00 -7.297584e+00 2.485295e+01 0.000000e+00 0.000000e+00 0.000000e+00 0.000000e+00 7.267460e+01 -8.096828e+00 0.000000e+00 -8.096828e+00 3.400238e+01 0.000000e+00 0.000000e+00 0.000000e+00 0.000000e+00 7.524108e+01 -6.239022e+00 0.000000e+00 -6.239022e+00 3.616769e+01 0.000000e+00 0.000000e+00 0.000000e+00 0.000000e+00 1.168935e+02 -1.619407e+01 0.000000e+00 -1.619407e+01 8.227145e+01 0.000000e+00 0.000000e+00 0.000000e+00 0.000000e+00 1.014592e+02 -1.306215e+01 0.000000e+00 -1.306215e+01 6.467659e+01 0.000000e+00 0.000000e+00 0.000000e+00 0.000000e+00 6.850642e+01 -7.794421e+00 0.000000e+00 -7.794421e+00 2.922758e+01 0.000000e+00 0.000000e+00 0.000000e+00 0.000000e+00 6.488980e+01 -5.959023e+00 0.000000e+00 -5.959023e+00 2.640023e+01 0.000000e+00 0.000000e+00 0.000000e+00 0.000000e+00 6.905211e+01 -6.131421e+00 0.000000e+00 -6.131421e+00 3.098516e+01 0.000000e+00 0.000000e+00 0.000000e+00 0.000000e+00 1.090210e+02 -1.480109e+01 0.000000e+00 -1.480109e+01 7.324332e+01 0.000000e+00 0.000000e+00 0.000000e+00 0.000000e+00 9.932576e+01 -1.091796e+01 0.000000e+00 -1.091796e+01 6.728969e+01 0.000000e+00 0.000000e+00 0.000000e+00 0.000000e+00 1.072009e+02 -1.203282e+01 0.000000e+00 -1.203282e+01 7.575330e+01 0.000000e+00 0.000000e+00 0.000000e+00 0.000000e+00 9.504263e+01 -1.136758e+01 0.000000e+00 -1.136758e+01 5.701397e+01 0.000000e+00 0.000000e+00 0.000000e+00 0.000000e+00 9.224018e+01 -9.596604e+00 0.000000e+00 -9.596604e+00 5.951670e+01 0.000000e+00 0.000000e+00 0.000000e+00 0.000000e+00 1.290096e+02 -1.821887e+01 0.000000e+00 -1.821887e+01 9.436785e+01 0.000000e+00 0.000000e+00 0.000000e+00 0.000000e+00 1.176951e+02 -1.286928e+01 0.000000e+00 -1.286928e+01 8.584374e+01 0.000000e+00 0.000000e+00 0.000000e+00 0.000000e+00 1.195451e+02 -1.664119e+01 0.000000e+00 -1.664119e+01 9.808143e+01 0.000000e+00 0.000000e+00 0.000000e+00 0.000000e+00 3.746225e+01 7.461003e+00 0.000000e+00 7.461003e+00 7.672567e-01 0.000000e+00 0.000000e+00 0.000000e+00 0.000000e+00 1.718959e+02 -4.414291e+01 0.000000e+00 -4.414291e+01 2.389918e+02 0.000000e+00 0.000000e+00 0.000000e+00 0.000000e+00 2.815160e+01 6.610447e+00 0.000000e+00 6.610447e+00 -2.745791e-01 0.000000e+00 0.000000e+00 0.000000e+00 0.000000e+00 4.491197e+01 9.660358e+00 0.000000e+00 9.660358e+00 3.023903e+00 0.000000e+00 0.000000e+00 0.000000e+00 0.000000e+00 4.317204e+01 8.127437e+00 0.000000e+00 8.127437e+00 3.064496e-01 0.000000e+00 0.000000e+00 0.000000e+00 0.000000e+00 5.566009e+01 1.523768e+01 0.000000e+00 1.523768e+01 7.958127e+00 0.000000e+00 0.000000e+00 0.000000e+00 0.000000e+00 5.117622e+01 1.098630e+01 0.000000e+00 1.098630e+01 1.027136e+00 0.000000e+00 0.000000e+00 0.000000e+00 0.000000e+00 1.792230e+02 -4.743739e+01 0.000000e+00 -4.743739e+01 1.925265e+02 0.000000e+00 0.000000e+00 0.000000e+00 0.000000e+00 1.185524e+02 -2.583339e+01 0.000000e+00 -2.583339e+01 2.104568e+02 0.000000e+00 0.000000e+00 0.000000e+00 0.000000e+00 3.251391e+01 6.855300e+00 0.000000e+00 6.855300e+00 1.847651e-01 0.000000e+00 0.000000e+00 0.000000e+00 0.000000e+00 3.068249e+01 6.571086e+00 0.000000e+00 6.571086e+00 -1.936911e-01 0.000000e+00 0.000000e+00 0.000000e+00 0.000000e+00 6.956839e+01 -5.043180e+00 0.000000e+00 -5.043180e+00 -2.517649e+01 0.000000e+00 0.000000e+00 0.000000e+00 0.000000e+00 1.135087e+01 9.307403e+00 0.000000e+00 9.307403e+00 1.129301e+00 0.000000e+00 0.000000e+00 0.000000e+00 0.000000e+00 2.103227e+01 6.858128e+00 0.000000e+00 6.858128e+00 -6.973472e-01 0.000000e+00 0.000000e+00 0.000000e+00 0.000000e+00 1.685587e+01 9.793083e+00 0.000000e+00 9.793083e+00 2.617609e+00 0.000000e+00 0.000000e+00 0.000000e+00 0.000000e+00 1.562856e+01 9.338647e+00 0.000000e+00 9.338647e+00 2.151585e+00 0.000000e+00 0.000000e+00 0.000000e+00 0.000000e+00 -6.489428e-01 -5.351625e-01 0.000000e+00 -5.351625e-01 4.196851e-01 0.000000e+00 0.000000e+00 0.000000e+00 0.000000e+00 2.267284e+01 6.740594e+00 0.000000e+00 6.740594e+00 -4.917966e-01 0.000000e+00 0.000000e+00 0.000000e+00 0.000000e+00 5.572447e+00 8.119515e+00 0.000000e+00 8.119515e+00 1.738561e+00 0.000000e+00 0.000000e+00 0.000000e+00 0.000000e+00 -1.028567e+00 1.024865e+00 0.000000e+00 1.024865e+00 4.152173e-01 0.000000e+00 0.000000e+00 0.000000e+00 0.000000e+00 1.314029e+00 1.048854e+00 0.000000e+00 1.048854e+00 -1.684262e+00 0.000000e+00 0.000000e+00 0.000000e+00 0.000000e+00 -2.602910e+00 -1.134469e+00 0.000000e+00 -1.134469e+00 2.003497e+00 0.000000e+00 0.000000e+00 0.000000e+00 0.000000e+00 -1.523776e+00 -2.020957e+00 0.000000e+00 -2.020957e+00 3.451782e-01 0.000000e+00 0.000000e+00 0.000000e+00 0.000000e+00 -8.816425e-01 -1.164714e+00 0.000000e+00 -1.164714e+00 -4.842152e-01 0.000000e+00 0.000000e+00 0.000000e+00 0.000000e+00 -1.884622e+00 -3.866804e+00 0.000000e+00 -3.866804e+00 -8.651594e+01 0.000000e+00 0.000000e+00 0.000000e+00 0.000000e+00 9.681785e-01 -1.094681e+00 0.000000e+00 -1.094681e+00 -1.466872e+00 0.000000e+00 0.000000e+00 0.000000e+00 0.000000e+00 1.751125e+00 -7.441942e-02 0.000000e+00 -7.441942e-02 -1.905090e+00 0.000000e+00 0.000000e+00 0.000000e+00 0.000000e+00 5.367525e-01 -8.779832e-01 0.000000e+00 -8.779832e-01 -1.677085e+00 0.000000e+00 0.000000e+00 0.000000e+00 0.000000e+00 5.959227e-01 6.732197e-01 0.000000e+00 6.732197e-01 -2.098609e+00 0.000000e+00 0.000000e+00 0.000000e+00 0.000000e+00 -1.467598e+01 9.536418e+00 0.000000e+00 9.536418e+00 -2.515318e+00 0.000000e+00 0.000000e+00 0.000000e+00 0.000000e+00 -8.784648e-01 -9.112646e-03 0.000000e+00 -9.112646e-03 7.179356e-01 0.000000e+00 0.000000e+00 0.000000e+00 0.000000e+00 -3.944314e-01 4.702996e-01 0.000000e+00 4.702996e-01 -4.872111e-01 0.000000e+00 0.000000e+00 0.000000e+00 0.000000e+00 -5.136864e-01 6.257670e-02 0.000000e+00 6.257670e-02 -1.032737e+00 0.000000e+00 0.000000e+00 0.000000e+00 0.000000e+00 3.502242e-01 1.716849e+00 0.000000e+00 1.716849e+00 -8.681830e-01 0.000000e+00 0.000000e+00 0.000000e+00 0.000000e+00 -8.028051e+00 7.052007e+00 0.000000e+00 7.052007e+00 -2.913080e+00 0.000000e+00 0.000000e+00 0.000000e+00 0.000000e+00 -2.132777e+01 1.098596e+01 0.000000e+00 1.098596e+01 -7.372411e-01 0.000000e+00 0.000000e+00 0.000000e+00 0.000000e+00 -1.587792e-01 -5.911684e-01 0.000000e+00 -5.911684e-01 2.224238e-01 0.000000e+00 0.000000e+00 0.000000e+00 0.000000e+00 -3.431931e-01 -3.067998e-01 0.000000e+00 -3.067998e-01 -1.313921e+00 0.000000e+00 0.000000e+00 0.000000e+00 0.000000e+00 6.464492e-02 -2.269112e-01 0.000000e+00 -2.269112e-01 -1.557352e+00 0.000000e+00 0.000000e+00 0.000000e+00 0.000000e+00 -3.487262e+01 9.620630e+00 0.000000e+00 9.620630e+00 3.528931e+00 0.000000e+00 0.000000e+00 0.000000e+00 0.000000e+00 -3.467483e+01 -8.998289e+00 0.000000e+00 -8.998289e+00 8.928952e+00 0.000000e+00 0.000000e+00 0.000000e+00 0.000000e+00 -3.351650e+00 4.181839e+00 0.000000e+00 4.181839e+00 -3.211658e+00 0.000000e+00 0.000000e+00 0.000000e+00 0.000000e+00 -3.924896e+00 5.555335e+00 0.000000e+00 5.555335e+00 -5.715142e-01 0.000000e+00 0.000000e+00 0.000000e+00 0.000000e+00 -2.841479e+01 1.137568e+01 0.000000e+00 1.137568e+01 1.553956e+00 0.000000e+00 0.000000e+00 0.000000e+00 0.000000e+00 -1.828324e+01 1.163458e+01 0.000000e+00 1.163458e+01 -3.415355e-01 0.000000e+00 0.000000e+00 0.000000e+00 0.000000e+00 -2.316779e+01 1.098196e+01 0.000000e+00 1.098196e+01 1.771750e-01 0.000000e+00 0.000000e+00 0.000000e+00 0.000000e+00 -2.506179e+01 -1.579762e+01 0.000000e+00 -1.579762e+01 4.287579e+00 0.000000e+00 0.000000e+00 0.000000e+00 0.000000e+00 -2.221878e+00 -1.726184e+01 0.000000e+00 -1.726184e+01 -2.501073e+01 0.000000e+00 0.000000e+00 0.000000e+00 0.000000e+00 -1.076120e+01 -1.580417e+01 0.000000e+00 -1.580417e+01 -1.943347e+00 0.000000e+00 0.000000e+00 0.000000e+00 0.000000e+00 -2.371069e+00 -7.907789e+00 0.000000e+00 -7.907789e+00 -1.531083e+01 0.000000e+00 0.000000e+00 0.000000e+00 0.000000e+00 5.126771e-02 -3.309990e+00 0.000000e+00 -3.309990e+00 -8.150477e+01 0.000000e+00 0.000000e+00 0.000000e+00 0.000000e+00 5.579329e-01 -1.848361e+00 0.000000e+00 -1.848361e+00 -8.335674e+01 0.000000e+00 0.000000e+00 0.000000e+00 0.000000e+00 1.358543e+00 -1.263536e+00 0.000000e+00 -1.263536e+00 -7.856821e+01 0.000000e+00 0.000000e+00 0.000000e+00 0.000000e+00 6.090129e+01 -6.805997e+00 0.000000e+00 -6.805997e+00 2.079549e+01 0.000000e+00 0.000000e+00 0.000000e+00 0.000000e+00 5.785115e+01 -5.055027e+00 0.000000e+00 -5.055027e+00 1.821574e+01 0.000000e+00 0.000000e+00 0.000000e+00 0.000000e+00 6.132565e+01 -5.525868e+00 0.000000e+00 -5.525868e+00 2.229957e+01 0.000000e+00 0.000000e+00 0.000000e+00 0.000000e+00 1.423418e+02 2.114416e+01 0.000000e+00 2.114416e+01 3.429812e+02 0.000000e+00 0.000000e+00 0.000000e+00 0.000000e+00 -8.543877e-01 1.593214e+00 0.000000e+00 1.593214e+00 -3.008929e+00 0.000000e+00 0.000000e+00 0.000000e+00 0.000000e+00 -2.093254e-01 4.322965e-01 0.000000e+00 4.322965e-01 -1.971697e-01 0.000000e+00 0.000000e+00 0.000000e+00 0.000000e+00 -1.574999e+00 2.912398e+00 0.000000e+00 2.912398e+00 -5.989185e-01 0.000000e+00 0.000000e+00 0.000000e+00 0.000000e+00 -3.194071e+00 -5.746535e+00 0.000000e+00 -5.746535e+00 -4.633375e+01 0.000000e+00 0.000000e+00 0.000000e+00 0.000000e+00 1.228183e+00 1.667452e+00 0.000000e+00 1.667452e+00 -2.043217e+00 0.000000e+00 0.000000e+00 0.000000e+00 0.000000e+00 1.811670e+01 -3.396833e+00 0.000000e+00 -3.396833e+00 -3.387934e+01 0.000000e+00 0.000000e+00 0.000000e+00 0.000000e+00 2.913667e+00 -1.168572e+00 0.000000e+00 -1.168572e+00 -7.226777e-01 0.000000e+00 0.000000e+00 0.000000e+00 0.000000e+00 1.778202e+00 -1.561089e+00 0.000000e+00 -1.561089e+00 8.682949e-01 0.000000e+00 0.000000e+00 0.000000e+00 0.000000e+00 1.849931e-01 -2.457423e-01 0.000000e+00 -2.457423e-01 2.154486e+00 0.000000e+00 0.000000e+00 0.000000e+00 0.000000e+00 -2.436929e-01 1.776274e+00 0.000000e+00 1.776274e+00 2.276456e+00 0.000000e+00 0.000000e+00 0.000000e+00 0.000000e+00 2.136056e+00 9.149261e+00 0.000000e+00 9.149261e+00 2.497498e+00 0.000000e+00 0.000000e+00 0.000000e+00 0.000000e+00 5.338382e+00 1.265871e+01 0.000000e+00 1.265871e+01 2.279161e+00 0.000000e+00 0.000000e+00 0.000000e+00 0.000000e+00 9.028482e+00 1.595801e+01 0.000000e+00 1.595801e+01 1.557776e+00 0.000000e+00 0.000000e+00 0.000000e+00 0.000000e+00 1.244592e+01 1.814615e+01 0.000000e+00 1.814615e+01 -5.901787e-02 0.000000e+00 0.000000e+00 0.000000e+00 0.000000e+00 5.008471e+00 1.801421e+01 0.000000e+00 1.801421e+01 -7.602866e-02 0.000000e+00 0.000000e+00 0.000000e+00 0.000000e+00 -4.568756e+00 1.946562e+01 0.000000e+00 1.946562e+01 -7.335553e-02 0.000000e+00 0.000000e+00 0.000000e+00 0.000000e+00 -6.104950e+00 2.000745e+01 0.000000e+00 2.000745e+01 -1.545522e+00 0.000000e+00 0.000000e+00 0.000000e+00 0.000000e+00 -5.050589e+00 1.921851e+01 0.000000e+00 1.921851e+01 -3.764462e+00 0.000000e+00 0.000000e+00 0.000000e+00 0.000000e+00 -2.932473e+00 1.667476e+01 0.000000e+00 1.667476e+01 -5.616460e+00 0.000000e+00 0.000000e+00 0.000000e+00 0.000000e+00 5.144812e-01 9.464201e+00 0.000000e+00 9.464201e+00 -7.820012e+00 0.000000e+00 0.000000e+00 0.000000e+00 0.000000e+00 1.005327e+00 5.521822e+00 0.000000e+00 5.521822e+00 -7.540922e+00 0.000000e+00 0.000000e+00 0.000000e+00 0.000000e+00 3.025589e-01 2.401491e+00 0.000000e+00 2.401491e+00 -6.203195e+00 0.000000e+00 0.000000e+00 0.000000e+00 0.000000e+00 -1.639331e+00 1.044522e+00 0.000000e+00 1.044522e+00 -2.694804e+00 0.000000e+00 0.000000e+00 0.000000e+00 0.000000e+00 -1.470784e+00 1.790645e+00 0.000000e+00 1.790645e+00 -1.659926e+00 0.000000e+00 0.000000e+00 0.000000e+00 0.000000e+00 1.273933e+02 4.791383e+01 0.000000e+00 4.791383e+01 -2.278973e+01 0.000000e+00 0.000000e+00 0.000000e+00 0.000000e+00 8.209570e+01 3.291059e+01 0.000000e+00 3.291059e+01 2.189482e+01 0.000000e+00 0.000000e+00 0.000000e+00 0.000000e+00 6.052168e+01 1.975550e+01 0.000000e+00 1.975550e+01 1.117877e+00 0.000000e+00 0.000000e+00 0.000000e+00 0.000000e+00 -7.347398e-02 -1.594651e+00 0.000000e+00 -1.594651e+00 -8.393906e-01 0.000000e+00 0.000000e+00 0.000000e+00 0.000000e+00 3.417502e+00 -1.424836e+01 0.000000e+00 -1.424836e+01 -3.300761e+01 0.000000e+00 0.000000e+00 0.000000e+00 0.000000e+00 9.455383e+01 6.322266e+01 0.000000e+00 6.322266e+01 6.910419e+01 0.000000e+00 0.000000e+00 0.000000e+00 0.000000e+00 -7.583323e+00 -7.480687e+00 0.000000e+00 -7.480687e+00 -9.857568e+01 0.000000e+00 0.000000e+00 0.000000e+00 0.000000e+00 1.160183e+01 9.567872e+00 0.000000e+00 9.567872e+00 1.733342e+00 0.000000e+00 0.000000e+00 0.000000e+00 0.000000e+00 2.629395e+00 -1.215909e+00 0.000000e+00 -1.215909e+00 -7.395194e+01 0.000000e+00 0.000000e+00 0.000000e+00 0.000000e+00 6.796373e+00 -3.080737e+00 0.000000e+00 -3.080737e+00 -5.913771e+01 0.000000e+00 0.000000e+00 0.000000e+00 0.000000e+00 3.133538e+01 -3.245223e+00 0.000000e+00 -3.245223e+00 -1.291977e+01 0.000000e+00 0.000000e+00 0.000000e+00 0.000000e+00 3.338101e+01 -4.491798e+00 0.000000e+00 -4.491798e+00 -1.126576e+01 0.000000e+00 0.000000e+00 0.000000e+00 0.000000e+00 1.623440e+01 -3.330866e+00 0.000000e+00 -3.330866e+00 -3.692574e+01 0.000000e+00 0.000000e+00 0.000000e+00 0.000000e+00 3.035193e-01 -1.750457e+00 0.000000e+00 -1.750457e+00 -6.539994e-01 0.000000e+00 0.000000e+00 0.000000e+00 0.000000e+00 4.769201e+01 -4.184683e+00 0.000000e+00 -4.184683e+00 6.611069e+00 0.000000e+00 0.000000e+00 0.000000e+00 0.000000e+00 5.027845e+01 -5.521851e+00 0.000000e+00 -5.521851e+00 8.649474e+00 0.000000e+00 0.000000e+00 0.000000e+00 0.000000e+00 1.526646e+01 -1.921060e+00 0.000000e+00 -1.921060e+00 -3.887799e+01 0.000000e+00 0.000000e+00 0.000000e+00 0.000000e+00 8.057404e+01 -6.438358e+00 0.000000e+00 -6.438358e+00 4.118473e+01 0.000000e+00 0.000000e+00 0.000000e+00 0.000000e+00 8.292823e+01 -8.282847e+00 0.000000e+00 -8.282847e+00 4.427818e+01 0.000000e+00 0.000000e+00 0.000000e+00 0.000000e+00 9.613207e+01 4.734449e+01 0.000000e+00 4.734449e+01 2.266958e+02 0.000000e+00 0.000000e+00 0.000000e+00 0.000000e+00 3.616719e+01 7.004393e+00 0.000000e+00 7.004393e+00 6.203955e-02 0.000000e+00 0.000000e+00 0.000000e+00 0.000000e+00 1.074706e+02 2.466136e+00 0.000000e+00 2.466136e+00 2.897837e+02 0.000000e+00 0.000000e+00 0.000000e+00 0.000000e+00 2.685448e+01 6.519770e+00 0.000000e+00 6.519770e+00 -4.788057e-01 0.000000e+00 0.000000e+00 0.000000e+00 0.000000e+00 2.437256e+01 6.698287e+00 0.000000e+00 6.698287e+00 -7.040258e-01 0.000000e+00 0.000000e+00 0.000000e+00 0.000000e+00 8.102840e+01 4.422851e+01 0.000000e+00 4.422851e+01 1.136754e+01 0.000000e+00 0.000000e+00 0.000000e+00 0.000000e+00 1.246313e+02 -2.058394e+01 0.000000e+00 -2.058394e+01 1.129797e+02 0.000000e+00 0.000000e+00 0.000000e+00 0.000000e+00 1.548166e+02 -2.964282e+01 0.000000e+00 -2.964282e+01 1.273530e+02 0.000000e+00 0.000000e+00 0.000000e+00 0.000000e+00 2.402169e+01 6.587466e+00 0.000000e+00 6.587466e+00 -8.777885e-01 0.000000e+00 0.000000e+00 0.000000e+00 0.000000e+00 1.976121e+01 8.046651e+00 0.000000e+00 8.046651e+00 3.909319e+00 0.000000e+00 0.000000e+00 0.000000e+00 0.000000e+00 -2.705612e+01 8.843521e+00 0.000000e+00 8.843521e+00 4.603717e-01 0.000000e+00 0.000000e+00 0.000000e+00 0.000000e+00 -3.897355e+01 5.646258e+00 0.000000e+00 5.646258e+00 6.305331e+00 0.000000e+00 0.000000e+00 0.000000e+00 0.000000e+00 2.342495e+01 7.209025e+00 0.000000e+00 7.209025e+00 1.238534e+00 0.000000e+00 0.000000e+00 0.000000e+00 0.000000e+00 1.995694e+01 7.726423e+00 0.000000e+00 7.726423e+00 7.817825e-01 0.000000e+00 0.000000e+00 0.000000e+00 0.000000e+00 5.392514e+00 8.193628e+00 0.000000e+00 8.193628e+00 2.133034e+00 0.000000e+00 0.000000e+00 0.000000e+00 0.000000e+00 -7.393434e+00 8.226512e+00 0.000000e+00 8.226512e+00 -2.423016e-01 0.000000e+00 0.000000e+00 0.000000e+00 0.000000e+00 -2.530273e+00 1.121978e+00 0.000000e+00 1.121978e+00 3.544699e+00 0.000000e+00 0.000000e+00 0.000000e+00 0.000000e+00 -1.271746e+00 -3.937687e-02 0.000000e+00 -3.937687e-02 9.489220e-02 0.000000e+00 0.000000e+00 0.000000e+00 0.000000e+00 -4.257790e-01 -1.759286e+00 0.000000e+00 -1.759286e+00 -6.054490e-02 0.000000e+00 0.000000e+00 0.000000e+00 0.000000e+00 -7.211601e-01 -1.237818e+01 0.000000e+00 -1.237818e+01 -5.064229e+01 0.000000e+00 0.000000e+00 0.000000e+00 0.000000e+00 -2.079127e+00 -1.730536e+01 0.000000e+00 -1.730536e+01 -3.638858e+01 0.000000e+00 0.000000e+00 0.000000e+00 0.000000e+00 -1.183244e+01 1.102652e+01 0.000000e+00 1.102652e+01 1.805752e-01 0.000000e+00 0.000000e+00 0.000000e+00 0.000000e+00 5.340163e+00 -2.931430e+00 0.000000e+00 -2.931430e+00 -6.331443e+01 0.000000e+00 0.000000e+00 0.000000e+00 0.000000e+00 -2.847415e+01 -1.029892e+01 0.000000e+00 -1.029892e+01 6.097638e+00 0.000000e+00 0.000000e+00 0.000000e+00 0.000000e+00 9.024530e+01 5.801163e+01 0.000000e+00 5.801163e+01 7.141142e+01 0.000000e+00 0.000000e+00 0.000000e+00 0.000000e+00 4.802165e+00 -1.298193e+00 0.000000e+00 -1.298193e+00 -6.534185e+01 0.000000e+00 0.000000e+00 0.000000e+00 0.000000e+00 -9.465405e-01 -1.812728e+01 0.000000e+00 -1.812728e+01 -2.256208e+01 0.000000e+00 0.000000e+00 0.000000e+00 0.000000e+00 5.481309e+00 -1.390249e+00 0.000000e+00 -1.390249e+00 -6.125849e+01 0.000000e+00 0.000000e+00 0.000000e+00 0.000000e+00 -1.750828e+01 -1.655455e+01 0.000000e+00 -1.655455e+01 -2.297292e+00 0.000000e+00 0.000000e+00 0.000000e+00 0.000000e+00 -3.716141e+00 -1.400392e+01 0.000000e+00 -1.400392e+01 -6.489516e+00 0.000000e+00 0.000000e+00 0.000000e+00 0.000000e+00 3.140549e+00 -8.702538e+00 0.000000e+00 -8.702538e+00 -5.099175e+01 0.000000e+00 0.000000e+00 0.000000e+00 0.000000e+00 2.925608e-01 2.431205e+00 0.000000e+00 2.431205e+00 -1.724865e+00 0.000000e+00 0.000000e+00 0.000000e+00 0.000000e+00 1.868845e+01 -2.209076e+00 0.000000e+00 -2.209076e+00 -3.219251e+01 0.000000e+00 0.000000e+00 0.000000e+00 0.000000e+00 2.004644e+01 -3.526800e+00 0.000000e+00 -3.526800e+00 -3.030866e+01 0.000000e+00 0.000000e+00 0.000000e+00 0.000000e+00 -1.212652e+00 1.530769e+00 0.000000e+00 1.530769e+00 -1.111143e+00 0.000000e+00 0.000000e+00 0.000000e+00 0.000000e+00 -7.618056e-01 2.399345e+00 0.000000e+00 2.399345e+00 -1.416414e+00 0.000000e+00 0.000000e+00 0.000000e+00 0.000000e+00 -2.066482e+00 6.351831e-01 0.000000e+00 6.351831e-01 -2.147697e+00 0.000000e+00 0.000000e+00 0.000000e+00 0.000000e+00 -1.389729e+00 7.929405e-01 0.000000e+00 7.929405e-01 -7.282013e+00 0.000000e+00 0.000000e+00 0.000000e+00 0.000000e+00 -1.054211e+00 8.243809e-01 0.000000e+00 8.243809e-01 -4.358682e+00 0.000000e+00 0.000000e+00 0.000000e+00 0.000000e+00 -1.163641e+00 3.531944e+00 0.000000e+00 3.531944e+00 -9.993259e+00 0.000000e+00 0.000000e+00 0.000000e+00 0.000000e+00 -1.808333e+00 7.285454e+00 0.000000e+00 7.285454e+00 -1.116777e+01 0.000000e+00 0.000000e+00 0.000000e+00 0.000000e+00 -6.069971e+00 1.484479e+01 0.000000e+00 1.484479e+01 -9.323107e+00 0.000000e+00 0.000000e+00 0.000000e+00 0.000000e+00 -9.707713e-01 1.312232e+01 0.000000e+00 1.312232e+01 -6.807652e+00 0.000000e+00 0.000000e+00 0.000000e+00 0.000000e+00 -7.500075e+00 1.756071e+01 0.000000e+00 1.756071e+01 -7.150078e+00 0.000000e+00 0.000000e+00 0.000000e+00 0.000000e+00 -6.198644e+00 1.669133e+01 0.000000e+00 1.669133e+01 -2.691022e+00 0.000000e+00 0.000000e+00 0.000000e+00 0.000000e+00 -7.155753e+00 1.934372e+01 0.000000e+00 1.934372e+01 -4.321369e+00 0.000000e+00 0.000000e+00 0.000000e+00 0.000000e+00 -5.058472e+00 2.021186e+01 0.000000e+00 2.021186e+01 -1.177417e+00 0.000000e+00 0.000000e+00 0.000000e+00 0.000000e+00 2.558949e+00 1.971803e+01 0.000000e+00 1.971803e+01 9.285417e-01 0.000000e+00 0.000000e+00 0.000000e+00 0.000000e+00 -3.940238e-01 1.851197e+01 0.000000e+00 1.851197e+01 2.134509e-01 0.000000e+00 0.000000e+00 0.000000e+00 0.000000e+00 9.934025e+00 1.828798e+01 0.000000e+00 1.828798e+01 2.340890e-01 0.000000e+00 0.000000e+00 0.000000e+00 0.000000e+00 9.629644e+00 1.805950e+01 0.000000e+00 1.805950e+01 -3.059637e-01 0.000000e+00 0.000000e+00 0.000000e+00 0.000000e+00 1.331143e+01 1.603717e+01 0.000000e+00 1.603717e+01 2.799267e+00 0.000000e+00 0.000000e+00 0.000000e+00 0.000000e+00 1.191625e+01 1.753158e+01 0.000000e+00 1.753158e+01 5.961103e-01 0.000000e+00 0.000000e+00 0.000000e+00 0.000000e+00 1.133238e+01 1.428898e+01 0.000000e+00 1.428898e+01 4.517669e+00 0.000000e+00 0.000000e+00 0.000000e+00 0.000000e+00 6.785622e+00 1.139085e+01 0.000000e+00 1.139085e+01 5.743473e+00 0.000000e+00 0.000000e+00 0.000000e+00 0.000000e+00 7.632451e-01 3.719337e+00 0.000000e+00 3.719337e+00 6.318821e+00 0.000000e+00 0.000000e+00 0.000000e+00 0.000000e+00 -8.964984e-01 2.139018e+00 0.000000e+00 2.139018e+00 1.599320e-02 0.000000e+00 0.000000e+00 0.000000e+00 0.000000e+00 1.558677e-01 5.147624e+00 0.000000e+00 5.147624e+00 3.192492e+00 0.000000e+00 0.000000e+00 0.000000e+00 0.000000e+00 -4.113203e-02 -1.098915e-01 0.000000e+00 -1.098915e-01 4.779644e+00 0.000000e+00 0.000000e+00 0.000000e+00 0.000000e+00 2.276338e+00 -2.230682e+00 0.000000e+00 -2.230682e+00 9.454225e-01 0.000000e+00 0.000000e+00 0.000000e+00 0.000000e+00 -1.120865e+01 -1.625967e+01 0.000000e+00 -1.625967e+01 -9.855436e+00 0.000000e+00 0.000000e+00 0.000000e+00 0.000000e+00 2.578165e+00 5.164441e-01 0.000000e+00 5.164441e-01 -1.502149e+00 0.000000e+00 0.000000e+00 0.000000e+00 0.000000e+00 1.710402e+01 -2.292005e+00 0.000000e+00 -2.292005e+00 -3.543831e+01 0.000000e+00 0.000000e+00 0.000000e+00 0.000000e+00 3.616430e+00 7.700870e+00 0.000000e+00 7.700870e+00 6.556880e+00 0.000000e+00 0.000000e+00 0.000000e+00 0.000000e+00 1.240741e+01 1.717359e+01 0.000000e+00 1.717359e+01 1.076173e+00 0.000000e+00 0.000000e+00 0.000000e+00 0.000000e+00 6.560375e+00 1.901205e+01 0.000000e+00 1.901205e+01 4.046664e-01 0.000000e+00 0.000000e+00 0.000000e+00 0.000000e+00 -1.623047e+00 2.019792e+01 0.000000e+00 2.019792e+01 6.167914e-01 0.000000e+00 0.000000e+00 0.000000e+00 0.000000e+00 -3.799917e+00 1.124450e+01 0.000000e+00 1.124450e+01 -1.063139e+01 0.000000e+00 0.000000e+00 0.000000e+00 0.000000e+00 -1.903894e+00 -8.426056e-02 0.000000e+00 -8.426056e-02 -3.849904e+00 0.000000e+00 0.000000e+00 0.000000e+00 0.000000e+00 2.388598e+00 3.405533e-01 0.000000e+00 3.405533e-01 -1.844569e+00 0.000000e+00 0.000000e+00 0.000000e+00 0.000000e+00 -4.402761e+00 -4.947401e+00 0.000000e+00 -4.947401e+00 -9.198319e+01 0.000000e+00 0.000000e+00 0.000000e+00 0.000000e+00 6.997843e-01 -3.929647e+00 0.000000e+00 -3.929647e+00 -9.360793e+01 0.000000e+00 0.000000e+00 0.000000e+00 0.000000e+00 -6.382748e-02 -2.543862e+00 0.000000e+00 -2.543862e+00 -8.830466e+01 0.000000e+00 0.000000e+00 0.000000e+00 0.000000e+00 7.926507e+00 -3.172330e+00 0.000000e+00 -3.172330e+00 -5.503639e+01 0.000000e+00 0.000000e+00 0.000000e+00 0.000000e+00 7.278074e+00 -1.514206e+00 0.000000e+00 -1.514206e+00 -5.714809e+01 0.000000e+00 0.000000e+00 0.000000e+00 0.000000e+00 9.046358e+00 -1.650141e+00 0.000000e+00 -1.650141e+00 -5.316781e+01 0.000000e+00 0.000000e+00 0.000000e+00 0.000000e+00 2.206857e+01 -3.743479e+00 0.000000e+00 -3.743479e+00 -2.713918e+01 0.000000e+00 0.000000e+00 0.000000e+00 0.000000e+00 2.062073e+01 -2.557163e+00 0.000000e+00 -2.557163e+00 -2.879256e+01 0.000000e+00 0.000000e+00 0.000000e+00 0.000000e+00 2.194633e+01 -2.721019e+00 0.000000e+00 -2.721019e+00 -2.568038e+01 0.000000e+00 0.000000e+00 0.000000e+00 0.000000e+00 3.591520e+01 -4.760189e+00 0.000000e+00 -4.760189e+00 -8.227804e+00 0.000000e+00 0.000000e+00 0.000000e+00 0.000000e+00 3.364221e+01 -3.527270e+00 0.000000e+00 -3.527270e+00 -9.886664e+00 0.000000e+00 0.000000e+00 0.000000e+00 0.000000e+00 3.633746e+01 -3.682413e+00 0.000000e+00 -3.682413e+00 -6.801709e+00 0.000000e+00 0.000000e+00 0.000000e+00 0.000000e+00 5.374391e+01 -5.919991e+00 0.000000e+00 -5.919991e+00 1.230848e+01 0.000000e+00 0.000000e+00 0.000000e+00 0.000000e+00 5.019888e+01 -4.425732e+00 0.000000e+00 -4.425732e+00 1.014507e+01 0.000000e+00 0.000000e+00 0.000000e+00 0.000000e+00 5.385479e+01 -4.669997e+00 0.000000e+00 -4.669997e+00 1.413792e+01 0.000000e+00 0.000000e+00 0.000000e+00 0.000000e+00 8.965942e+01 -9.548313e+00 0.000000e+00 -9.548313e+00 5.000501e+01 0.000000e+00 0.000000e+00 0.000000e+00 0.000000e+00 8.110446e+01 -7.262620e+00 0.000000e+00 -7.262620e+00 4.625764e+01 0.000000e+00 0.000000e+00 0.000000e+00 0.000000e+00 8.616351e+01 -8.363517e+00 0.000000e+00 -8.363517e+00 5.253130e+01 0.000000e+00 0.000000e+00 0.000000e+00 0.000000e+00 1.693610e+02 -3.850438e+01 0.000000e+00 -3.850438e+01 1.547238e+02 0.000000e+00 0.000000e+00 0.000000e+00 0.000000e+00 1.287448e+02 -2.542237e+01 0.000000e+00 -2.542237e+01 1.343047e+02 0.000000e+00 0.000000e+00 0.000000e+00 0.000000e+00 1.266060e+02 -2.944450e+01 0.000000e+00 -2.944450e+01 1.645626e+02 0.000000e+00 0.000000e+00 0.000000e+00 0.000000e+00 8.018677e-01 4.997539e+00 0.000000e+00 4.997539e+00 3.629175e+00 0.000000e+00 0.000000e+00 0.000000e+00 0.000000e+00 -4.853813e-01 1.516741e+00 0.000000e+00 1.516741e+00 7.068534e-03 0.000000e+00 0.000000e+00 0.000000e+00 0.000000e+00 -3.862533e+01 -1.766568e+00 0.000000e+00 -1.766568e+00 8.391239e+00 0.000000e+00 0.000000e+00 0.000000e+00 0.000000e+00 6.433490e-01 -9.930561e+00 0.000000e+00 -9.930561e+00 -4.866209e+01 0.000000e+00 0.000000e+00 0.000000e+00 0.000000e+00 -9.131801e+00 -1.210654e+00 0.000000e+00 -1.210654e+00 -6.419114e+01 0.000000e+00 0.000000e+00 0.000000e+00 0.000000e+00 -1.133488e+00 -1.321027e+01 0.000000e+00 -1.321027e+01 -5.218252e+01 0.000000e+00 0.000000e+00 0.000000e+00 0.000000e+00 9.140232e+01 3.786483e+01 0.000000e+00 3.786483e+01 1.941668e+02 0.000000e+00 0.000000e+00 0.000000e+00 0.000000e+00 -2.987071e+01 5.309755e+00 0.000000e+00 5.309755e+00 1.636307e+00 0.000000e+00 0.000000e+00 0.000000e+00 0.000000e+00 -1.111143e-01 2.110007e+00 0.000000e+00 2.110007e+00 -1.057589e+00 0.000000e+00 0.000000e+00 0.000000e+00 0.000000e+00 -4.506948e+00 -1.652593e+01 0.000000e+00 -1.652593e+01 -1.622245e+01 0.000000e+00 0.000000e+00 0.000000e+00 0.000000e+00 2.680246e+00 -1.368333e+01 0.000000e+00 -1.368333e+01 -5.299576e+01 0.000000e+00 0.000000e+00 0.000000e+00 0.000000e+00 2.496316e+00 -1.257633e+00 0.000000e+00 -1.257633e+00 -8.810408e-01 0.000000e+00 0.000000e+00 0.000000e+00 0.000000e+00 1.662357e+00 -1.818707e+01 0.000000e+00 -1.818707e+01 -3.833509e+01 0.000000e+00 0.000000e+00 0.000000e+00 0.000000e+00 1.214895e+00 -1.685790e+01 0.000000e+00 -1.685790e+01 -4.353135e+01 0.000000e+00 0.000000e+00 0.000000e+00 0.000000e+00 3.936888e+00 -1.535552e+01 0.000000e+00 -1.535552e+01 -5.499054e+01 0.000000e+00 0.000000e+00 0.000000e+00 0.000000e+00 -2.828339e+00 -9.726780e+00 0.000000e+00 -9.726780e+00 -5.746001e+01 0.000000e+00 0.000000e+00 0.000000e+00 0.000000e+00 8.858110e+00 1.283429e+01 0.000000e+00 1.283429e+01 1.604144e+00 0.000000e+00 0.000000e+00 0.000000e+00 0.000000e+00 2.550654e+00 -4.359863e+00 0.000000e+00 -4.359863e+00 -7.461282e+01 0.000000e+00 0.000000e+00 0.000000e+00 0.000000e+00 2.495156e+01 -6.792063e+00 0.000000e+00 -6.792063e+00 -2.240361e+01 0.000000e+00 0.000000e+00 0.000000e+00 0.000000e+00 6.821890e-01 -1.985566e+00 0.000000e+00 -1.985566e+00 -4.159638e-01 0.000000e+00 0.000000e+00 0.000000e+00 0.000000e+00 9.393977e+01 -1.874491e+01 0.000000e+00 -1.874491e+01 6.185715e+01 0.000000e+00 0.000000e+00 0.000000e+00 0.000000e+00 3.917241e+01 -8.426914e+00 0.000000e+00 -8.426914e+00 -3.114643e+00 0.000000e+00 0.000000e+00 0.000000e+00 0.000000e+00 -2.650641e+01 4.999339e+00 0.000000e+00 4.999339e+00 1.302075e+01 0.000000e+00 0.000000e+00 0.000000e+00 0.000000e+00 7.229012e+01 -1.331711e+01 0.000000e+00 -1.331711e+01 3.884939e+01 0.000000e+00 0.000000e+00 0.000000e+00 0.000000e+00 3.645369e+01 1.270967e+01 0.000000e+00 1.270967e+01 2.568268e+00 0.000000e+00 0.000000e+00 0.000000e+00 0.000000e+00 1.505711e+01 -5.598896e+00 0.000000e+00 -5.598896e+00 -3.836777e+01 0.000000e+00 0.000000e+00 0.000000e+00 0.000000e+00 4.303700e+01 1.588565e+01 0.000000e+00 1.588565e+01 5.769572e+00 0.000000e+00 0.000000e+00 0.000000e+00 0.000000e+00 3.581506e+01 1.329710e+01 0.000000e+00 1.329710e+01 1.718504e+00 0.000000e+00 0.000000e+00 0.000000e+00 0.000000e+00 1.611568e+01 1.006903e+01 0.000000e+00 1.006903e+01 1.699977e+00 0.000000e+00 0.000000e+00 0.000000e+00 0.000000e+00 2.784273e+01 9.717831e+00 0.000000e+00 9.717831e+00 4.086944e-02 0.000000e+00 0.000000e+00 0.000000e+00 0.000000e+00 7.443784e+01 1.720665e+01 0.000000e+00 1.720665e+01 1.892350e+02 0.000000e+00 0.000000e+00 0.000000e+00 0.000000e+00 2.514582e+01 8.676231e+00 0.000000e+00 8.676231e+00 -3.705248e-02 0.000000e+00 0.000000e+00 0.000000e+00 0.000000e+00 2.417803e+01 9.245542e+00 0.000000e+00 9.245542e+00 -1.068798e+00 0.000000e+00 0.000000e+00 0.000000e+00 0.000000e+00 2.167288e+01 8.360302e+00 0.000000e+00 8.360302e+00 -1.030979e+00 0.000000e+00 0.000000e+00 0.000000e+00 0.000000e+00 5.305971e+01 2.205896e+01 0.000000e+00 2.205896e+01 1.274444e+01 0.000000e+00 0.000000e+00 0.000000e+00 0.000000e+00 4.162649e+01 1.682894e+01 0.000000e+00 1.682894e+01 4.434997e+00 0.000000e+00 0.000000e+00 0.000000e+00 0.000000e+00 1.140118e+02 -2.698617e+01 0.000000e+00 -2.698617e+01 1.927721e+02 0.000000e+00 0.000000e+00 0.000000e+00 0.000000e+00 7.964200e+01 -1.340649e+00 0.000000e+00 -1.340649e+00 2.216083e+02 0.000000e+00 0.000000e+00 0.000000e+00 0.000000e+00 3.155441e+01 1.092605e+01 0.000000e+00 1.092605e+01 1.091492e+00 0.000000e+00 0.000000e+00 0.000000e+00 0.000000e+00 2.709848e+01 1.003245e+01 0.000000e+00 1.003245e+01 -4.637927e-01 0.000000e+00 0.000000e+00 0.000000e+00 0.000000e+00 1.400726e+02 7.112708e+01 0.000000e+00 7.112708e+01 9.865504e+01 0.000000e+00 0.000000e+00 0.000000e+00 0.000000e+00 7.721530e+01 6.785403e+01 0.000000e+00 6.785403e+01 1.211546e+02 0.000000e+00 0.000000e+00 0.000000e+00 0.000000e+00 -2.483329e+01 -9.766768e+00 0.000000e+00 -9.766768e+00 1.817296e+01 0.000000e+00 0.000000e+00 0.000000e+00 0.000000e+00 -9.883437e+00 1.129782e+01 0.000000e+00 1.129782e+01 -4.503105e+00 0.000000e+00 0.000000e+00 0.000000e+00 0.000000e+00 -2.549561e+01 1.070261e+01 0.000000e+00 1.070261e+01 7.963333e+00 0.000000e+00 0.000000e+00 0.000000e+00 0.000000e+00 2.916266e+00 -2.268115e+01 0.000000e+00 -2.268115e+01 -2.495937e+01 0.000000e+00 0.000000e+00 0.000000e+00 0.000000e+00 7.625566e+01 4.258557e+01 0.000000e+00 4.258557e+01 2.093907e+02 0.000000e+00 0.000000e+00 0.000000e+00 0.000000e+00 6.507125e+00 -4.654073e+00 0.000000e+00 -4.654073e+00 -6.106760e+01 0.000000e+00 0.000000e+00 0.000000e+00 0.000000e+00 -1.450585e+01 1.368436e+01 0.000000e+00 1.368436e+01 -3.036913e+00 0.000000e+00 0.000000e+00 0.000000e+00 0.000000e+00 2.139708e+00 -1.073210e+00 0.000000e+00 -1.073210e+00 -1.208949e+00 0.000000e+00 0.000000e+00 0.000000e+00 0.000000e+00 9.498436e+00 -4.975842e+00 0.000000e+00 -4.975842e+00 -4.942252e+01 0.000000e+00 0.000000e+00 0.000000e+00 0.000000e+00 -1.522143e+01 -2.169566e+01 0.000000e+00 -2.169566e+01 3.036764e+00 0.000000e+00 0.000000e+00 0.000000e+00 0.000000e+00 -6.649826e-01 2.399297e-02 0.000000e+00 2.399297e-02 -9.785720e-01 0.000000e+00 0.000000e+00 0.000000e+00 0.000000e+00 -2.410634e+01 -1.415027e+01 0.000000e+00 -1.415027e+01 9.788597e-01 0.000000e+00 0.000000e+00 0.000000e+00 0.000000e+00 1.456981e+01 1.318760e+01 0.000000e+00 1.318760e+01 3.232183e+00 0.000000e+00 0.000000e+00 0.000000e+00 0.000000e+00 1.294145e+01 1.230803e+01 0.000000e+00 1.230803e+01 1.773903e+00 0.000000e+00 0.000000e+00 0.000000e+00 0.000000e+00 1.195290e+01 1.521322e+01 0.000000e+00 1.521322e+01 1.007028e+00 0.000000e+00 0.000000e+00 0.000000e+00 0.000000e+00 1.364668e+00 1.808870e+00 0.000000e+00 1.808870e+00 -1.442051e+00 0.000000e+00 0.000000e+00 0.000000e+00 0.000000e+00 6.675785e+01 3.557615e+01 0.000000e+00 3.557615e+01 2.797675e+01 0.000000e+00 0.000000e+00 0.000000e+00 0.000000e+00 4.591782e+01 2.352065e+01 0.000000e+00 2.352065e+01 1.023006e+01 0.000000e+00 0.000000e+00 0.000000e+00 0.000000e+00 2.307851e+01 -2.830207e+01 0.000000e+00 -2.830207e+01 4.652478e+01 0.000000e+00 0.000000e+00 0.000000e+00 0.000000e+00 -1.802236e+00 9.885653e+00 0.000000e+00 9.885653e+00 -4.634471e+00 0.000000e+00 0.000000e+00 0.000000e+00 0.000000e+00 -3.828704e+00 1.893541e+01 0.000000e+00 1.893541e+01 1.138386e+00 0.000000e+00 0.000000e+00 0.000000e+00 0.000000e+00 8.582273e+00 1.801295e+01 0.000000e+00 1.801295e+01 7.030880e-01 0.000000e+00 0.000000e+00 0.000000e+00 0.000000e+00 1.397936e+00 -2.398500e+00 0.000000e+00 -2.398500e+00 2.329496e+00 0.000000e+00 0.000000e+00 0.000000e+00 0.000000e+00 -9.749894e-01 -2.340617e+01 0.000000e+00 -2.340617e+01 -2.059885e+01 0.000000e+00 0.000000e+00 0.000000e+00 0.000000e+00 2.302170e-01 -1.951108e+01 0.000000e+00 -1.951108e+01 -3.952684e+01 0.000000e+00 0.000000e+00 0.000000e+00 0.000000e+00 -6.207261e+00 -2.031586e+01 0.000000e+00 -2.031586e+01 -5.317904e+00 0.000000e+00 0.000000e+00 0.000000e+00 0.000000e+00 -1.067668e+01 -2.297191e+01 0.000000e+00 -2.297191e+01 -4.102377e+00 0.000000e+00 0.000000e+00 0.000000e+00 0.000000e+00 -5.739847e+00 -2.175547e+01 0.000000e+00 -2.175547e+01 -1.259845e+01 0.000000e+00 0.000000e+00 0.000000e+00 0.000000e+00 1.468065e+01 1.672029e+01 0.000000e+00 1.672029e+01 4.767653e-01 0.000000e+00 0.000000e+00 0.000000e+00 0.000000e+00 1.339760e+01 1.796998e+01 0.000000e+00 1.796998e+01 3.843805e-01 0.000000e+00 0.000000e+00 0.000000e+00 0.000000e+00 2.043367e+00 1.843942e+01 0.000000e+00 1.843942e+01 1.007027e+00 0.000000e+00 0.000000e+00 0.000000e+00 0.000000e+00 4.919699e+00 1.981058e+01 0.000000e+00 1.981058e+01 1.855599e+00 0.000000e+00 0.000000e+00 0.000000e+00 0.000000e+00 -2.599977e-03 2.021992e+01 0.000000e+00 2.021992e+01 2.195943e+00 0.000000e+00 0.000000e+00 0.000000e+00 0.000000e+00 -7.742325e+00 1.944605e+01 0.000000e+00 1.944605e+01 5.516160e-01 0.000000e+00 0.000000e+00 0.000000e+00 0.000000e+00 -8.188327e+00 1.884789e+01 0.000000e+00 1.884789e+01 -1.009418e+00 0.000000e+00 0.000000e+00 0.000000e+00 0.000000e+00 -8.185291e+00 1.883763e+01 0.000000e+00 1.883763e+01 -1.016696e+00 0.000000e+00 0.000000e+00 0.000000e+00 0.000000e+00 -1.042217e+01 1.673401e+01 0.000000e+00 1.673401e+01 -3.958776e+00 0.000000e+00 0.000000e+00 0.000000e+00 0.000000e+00 -3.674525e+00 1.340503e+01 0.000000e+00 1.340503e+01 -3.569334e+00 0.000000e+00 0.000000e+00 0.000000e+00 0.000000e+00 -5.442049e-01 6.448845e+00 0.000000e+00 6.448845e+00 -5.537454e+00 0.000000e+00 0.000000e+00 0.000000e+00 0.000000e+00 4.068241e-02 3.340234e+00 0.000000e+00 3.340234e+00 -4.693835e+00 0.000000e+00 0.000000e+00 0.000000e+00 0.000000e+00 1.972484e+01 -2.775269e+01 0.000000e+00 -2.775269e+01 3.488400e+01 0.000000e+00 0.000000e+00 0.000000e+00 0.000000e+00 3.544173e-01 -1.396648e+01 0.000000e+00 -1.396648e+01 -5.179628e+01 0.000000e+00 0.000000e+00 0.000000e+00 0.000000e+00 -7.586367e-01 1.796451e+00 0.000000e+00 1.796451e+00 -7.577273e-01 0.000000e+00 0.000000e+00 0.000000e+00 0.000000e+00 4.395279e+00 -1.980178e+01 0.000000e+00 -1.980178e+01 -4.320224e+01 0.000000e+00 0.000000e+00 0.000000e+00 0.000000e+00 -2.125716e+01 -1.736606e+01 0.000000e+00 -1.736606e+01 1.246482e+01 0.000000e+00 0.000000e+00 0.000000e+00 0.000000e+00 -2.040712e+01 -1.488675e+01 0.000000e+00 -1.488675e+01 8.675370e+00 0.000000e+00 0.000000e+00 0.000000e+00 0.000000e+00 -1.514320e+01 -2.194760e+01 0.000000e+00 -2.194760e+01 3.472474e+00 0.000000e+00 0.000000e+00 0.000000e+00 0.000000e+00 3.546624e+00 -2.340054e+00 0.000000e+00 -2.340054e+00 -7.221067e+01 0.000000e+00 0.000000e+00 0.000000e+00 0.000000e+00 3.279962e+00 -4.271364e+00 0.000000e+00 -4.271364e+00 -6.987087e+01 0.000000e+00 0.000000e+00 0.000000e+00 0.000000e+00 5.455371e+01 -1.040451e+01 0.000000e+00 -1.040451e+01 1.488846e+01 0.000000e+00 0.000000e+00 0.000000e+00 0.000000e+00 2.343423e+01 -6.330453e+00 0.000000e+00 -6.330453e+00 -2.556537e+01 0.000000e+00 0.000000e+00 0.000000e+00 0.000000e+00 2.233790e+01 -5.316676e+00 0.000000e+00 -5.316676e+00 -2.428485e+01 0.000000e+00 0.000000e+00 0.000000e+00 0.000000e+00 1.412728e+01 -5.230780e+00 0.000000e+00 -5.230780e+00 -4.199610e+01 0.000000e+00 0.000000e+00 0.000000e+00 0.000000e+00 1.313466e+01 -4.048732e+00 0.000000e+00 -4.048732e+00 -4.037629e+01 0.000000e+00 0.000000e+00 0.000000e+00 0.000000e+00 3.192309e+01 -7.032977e+00 0.000000e+00 -7.032977e+00 -1.264077e+01 0.000000e+00 0.000000e+00 0.000000e+00 0.000000e+00 6.962384e+01 -1.322562e+01 0.000000e+00 -1.322562e+01 3.343300e+01 0.000000e+00 0.000000e+00 0.000000e+00 0.000000e+00 6.930661e+01 -1.110663e+01 0.000000e+00 -1.110663e+01 3.479741e+01 0.000000e+00 0.000000e+00 0.000000e+00 0.000000e+00 8.889564e+01 -1.602241e+01 0.000000e+00 -1.602241e+01 5.335647e+01 0.000000e+00 0.000000e+00 0.000000e+00 0.000000e+00 8.217962e+01 -1.520093e+01 0.000000e+00 -1.520093e+01 5.649331e+01 0.000000e+00 0.000000e+00 0.000000e+00 0.000000e+00 -1.903107e+01 1.083564e+01 0.000000e+00 1.083564e+01 5.113421e+00 0.000000e+00 0.000000e+00 0.000000e+00 0.000000e+00 1.306992e+02 -3.878782e+01 0.000000e+00 -3.878782e+01 1.678839e+02 0.000000e+00 0.000000e+00 0.000000e+00 0.000000e+00 9.077836e+01 -2.334948e+01 0.000000e+00 -2.334948e+01 1.854042e+02 0.000000e+00 0.000000e+00 0.000000e+00 0.000000e+00 2.140124e+01 8.749265e+00 0.000000e+00 8.749265e+00 3.098851e+00 0.000000e+00 0.000000e+00 0.000000e+00 0.000000e+00 1.056803e+02 -2.399744e+01 0.000000e+00 -2.399744e+01 8.223122e+01 0.000000e+00 0.000000e+00 0.000000e+00 0.000000e+00 4.420829e+01 -8.520345e+00 0.000000e+00 -8.520345e+00 3.421696e+00 0.000000e+00 0.000000e+00 0.000000e+00 0.000000e+00 6.584837e+01 -1.221313e+01 0.000000e+00 -1.221313e+01 2.849469e+01 0.000000e+00 0.000000e+00 0.000000e+00 0.000000e+00 6.358429e+01 -1.076574e+01 0.000000e+00 -1.076574e+01 2.957166e+01 0.000000e+00 0.000000e+00 0.000000e+00 0.000000e+00 1.794898e+01 1.121408e+01 0.000000e+00 1.121408e+01 3.373275e+00 0.000000e+00 0.000000e+00 0.000000e+00 0.000000e+00 2.895144e+01 -6.761969e+00 0.000000e+00 -6.761969e+00 -1.607709e+01 0.000000e+00 0.000000e+00 0.000000e+00 0.000000e+00 2.917353e+01 -5.673539e+00 0.000000e+00 -5.673539e+00 -1.437805e+01 0.000000e+00 0.000000e+00 0.000000e+00 0.000000e+00 1.241524e+02 -2.483679e+01 0.000000e+00 -2.483679e+01 9.754056e+01 0.000000e+00 0.000000e+00 0.000000e+00 0.000000e+00 3.118045e+01 1.132536e+01 0.000000e+00 1.132536e+01 4.314459e-01 0.000000e+00 0.000000e+00 0.000000e+00 0.000000e+00 -3.063697e+01 3.882678e-01 0.000000e+00 3.882678e-01 5.651209e+00 0.000000e+00 0.000000e+00 0.000000e+00 0.000000e+00 8.284049e-01 5.154766e+00 0.000000e+00 5.154766e+00 1.933418e+00 0.000000e+00 0.000000e+00 0.000000e+00 0.000000e+00 4.677096e+00 -2.433890e+00 0.000000e+00 -2.433890e+00 -6.769798e+01 0.000000e+00 0.000000e+00 0.000000e+00 0.000000e+00 4.701894e+00 -4.306057e+00 0.000000e+00 -4.306057e+00 -6.538147e+01 0.000000e+00 0.000000e+00 0.000000e+00 0.000000e+00 6.549913e+01 5.006025e+01 0.000000e+00 5.006025e+01 6.568086e+01 0.000000e+00 0.000000e+00 0.000000e+00 0.000000e+00 8.764366e+01 -1.708055e+01 0.000000e+00 -1.708055e+01 6.500216e+01 0.000000e+00 0.000000e+00 0.000000e+00 0.000000e+00 9.945161e+01 -2.149542e+01 0.000000e+00 -2.149542e+01 7.166489e+01 0.000000e+00 0.000000e+00 0.000000e+00 0.000000e+00 -1.630186e+01 1.456171e+01 0.000000e+00 1.456171e+01 2.830581e+00 0.000000e+00 0.000000e+00 0.000000e+00 0.000000e+00 -3.165863e+00 -2.173409e+01 0.000000e+00 -2.173409e+01 -2.435579e+01 0.000000e+00 0.000000e+00 0.000000e+00 0.000000e+00 -9.123475e-01 7.604881e-01 0.000000e+00 7.604881e-01 -4.211266e-01 0.000000e+00 0.000000e+00 0.000000e+00 0.000000e+00 5.745279e+00 -3.087460e+00 0.000000e+00 -3.087460e+00 -5.899170e+01 0.000000e+00 0.000000e+00 0.000000e+00 0.000000e+00 7.373601e+00 -5.042630e+00 0.000000e+00 -5.042630e+00 -5.689753e+01 0.000000e+00 0.000000e+00 0.000000e+00 0.000000e+00 6.180483e+01 -1.133241e+01 0.000000e+00 -1.133241e+01 2.364890e+01 0.000000e+00 0.000000e+00 0.000000e+00 0.000000e+00 6.116548e+01 -1.001292e+01 0.000000e+00 -1.001292e+01 2.505330e+01 0.000000e+00 0.000000e+00 0.000000e+00 0.000000e+00 -1.040776e+00 5.587894e-01 0.000000e+00 5.587894e-01 -3.790224e+00 0.000000e+00 0.000000e+00 0.000000e+00 0.000000e+00 1.322481e+01 1.659708e+01 0.000000e+00 1.659708e+01 8.947068e-01 0.000000e+00 0.000000e+00 0.000000e+00 0.000000e+00 7.614097e+01 -1.235800e+01 0.000000e+00 -1.235800e+01 4.332139e+01 0.000000e+00 0.000000e+00 0.000000e+00 0.000000e+00 7.784785e+01 -1.216684e+01 0.000000e+00 -1.216684e+01 4.079891e+01 0.000000e+00 0.000000e+00 0.000000e+00 0.000000e+00 8.533361e+01 -1.260920e+01 0.000000e+00 -1.260920e+01 4.609045e+01 0.000000e+00 0.000000e+00 0.000000e+00 0.000000e+00 -1.201422e+00 -7.698429e-02 0.000000e+00 -7.698429e-02 -1.292187e+00 0.000000e+00 0.000000e+00 0.000000e+00 0.000000e+00 1.631172e+01 1.428407e+01 0.000000e+00 1.428407e+01 2.333100e+00 0.000000e+00 0.000000e+00 0.000000e+00 0.000000e+00 1.457157e+01 1.319003e+01 0.000000e+00 1.319003e+01 7.168054e-01 0.000000e+00 0.000000e+00 0.000000e+00 0.000000e+00 1.382201e+01 1.560266e+01 0.000000e+00 1.560266e+01 5.244586e-01 0.000000e+00 0.000000e+00 0.000000e+00 0.000000e+00 6.060300e+01 5.238148e+01 0.000000e+00 5.238148e+01 6.418609e+01 0.000000e+00 0.000000e+00 0.000000e+00 0.000000e+00 -2.306644e+01 1.412809e+01 0.000000e+00 1.412809e+01 3.901440e+00 0.000000e+00 0.000000e+00 0.000000e+00 0.000000e+00 3.666564e+01 -8.025140e+00 0.000000e+00 -8.025140e+00 -6.505567e+00 0.000000e+00 0.000000e+00 0.000000e+00 0.000000e+00 3.609543e+01 -6.907169e+00 0.000000e+00 -6.907169e+00 -5.209727e+00 0.000000e+00 0.000000e+00 0.000000e+00 0.000000e+00 5.805205e+01 -1.085377e+01 0.000000e+00 -1.085377e+01 1.897443e+01 0.000000e+00 0.000000e+00 0.000000e+00 0.000000e+00 5.458092e+01 -9.028231e+00 0.000000e+00 -9.028231e+00 1.643933e+01 0.000000e+00 0.000000e+00 0.000000e+00 0.000000e+00 5.851006e+01 -9.296252e+00 0.000000e+00 -9.296252e+00 2.078434e+01 0.000000e+00 0.000000e+00 0.000000e+00 0.000000e+00 -4.480348e+00 2.003809e+01 0.000000e+00 2.003809e+01 1.289694e+00 0.000000e+00 0.000000e+00 0.000000e+00 0.000000e+00 -8.330900e+00 1.864714e+01 0.000000e+00 1.864714e+01 2.130195e+00 0.000000e+00 0.000000e+00 0.000000e+00 0.000000e+00 1.191662e+01 -3.598848e+00 0.000000e+00 -3.598848e+00 -4.769995e+01 0.000000e+00 0.000000e+00 0.000000e+00 0.000000e+00 1.178432e+01 -4.824513e+00 0.000000e+00 -4.824513e+00 -4.584946e+01 0.000000e+00 0.000000e+00 0.000000e+00 0.000000e+00 2.219657e+00 -4.274999e+00 0.000000e+00 -4.274999e+00 -7.990436e+01 0.000000e+00 0.000000e+00 0.000000e+00 0.000000e+00 1.891728e+01 -5.550664e+00 0.000000e+00 -5.550664e+00 -3.185304e+01 0.000000e+00 0.000000e+00 0.000000e+00 0.000000e+00 8.453989e+00 -5.172601e+00 0.000000e+00 -5.172601e+00 -5.277430e+01 0.000000e+00 0.000000e+00 0.000000e+00 0.000000e+00 1.065086e+01 -3.731090e+00 0.000000e+00 -3.731090e+00 -5.107364e+01 0.000000e+00 0.000000e+00 0.000000e+00 0.000000e+00 1.384371e+00 -6.064242e+00 0.000000e+00 -6.064242e+00 -1.032053e+02 0.000000e+00 0.000000e+00 0.000000e+00 0.000000e+00 -6.448532e+00 1.163472e+01 0.000000e+00 1.163472e+01 -7.377885e+00 0.000000e+00 0.000000e+00 0.000000e+00 0.000000e+00 -9.431492e+00 1.475864e+01 0.000000e+00 1.475864e+01 -5.906304e+00 0.000000e+00 0.000000e+00 0.000000e+00 0.000000e+00 9.387959e+00 1.858708e+01 0.000000e+00 1.858708e+01 1.023971e+00 0.000000e+00 0.000000e+00 0.000000e+00 0.000000e+00 -1.089947e+00 1.118467e+00 0.000000e+00 1.118467e+00 -3.469198e+00 0.000000e+00 0.000000e+00 0.000000e+00 0.000000e+00 -2.254975e-01 1.979731e+00 0.000000e+00 1.979731e+00 -1.135009e+00 0.000000e+00 0.000000e+00 0.000000e+00 0.000000e+00 -2.561837e+01 -3.083507e+00 0.000000e+00 -3.083507e+00 1.671956e+01 0.000000e+00 0.000000e+00 0.000000e+00 0.000000e+00 -2.152590e+01 4.235440e+00 0.000000e+00 4.235440e+00 9.031805e+00 0.000000e+00 0.000000e+00 0.000000e+00 0.000000e+00 -2.244929e+01 -5.318477e+00 0.000000e+00 -5.318477e+00 1.028156e+01 0.000000e+00 0.000000e+00 0.000000e+00 0.000000e+00 4.526824e+00 -2.719903e+00 0.000000e+00 -2.719903e+00 -6.302469e+01 0.000000e+00 0.000000e+00 0.000000e+00 0.000000e+00 4.621993e+01 -7.146187e+00 0.000000e+00 -7.146187e+00 5.083626e+00 0.000000e+00 0.000000e+00 0.000000e+00 0.000000e+00 4.843739e+01 -8.757698e+00 0.000000e+00 -8.757698e+00 7.378375e+00 0.000000e+00 0.000000e+00 0.000000e+00 0.000000e+00 1.048471e+02 -2.613153e+01 0.000000e+00 -2.613153e+01 1.077030e+02 0.000000e+00 0.000000e+00 0.000000e+00 0.000000e+00 1.290274e+02 -3.201111e+01 0.000000e+00 -3.201111e+01 1.175089e+02 0.000000e+00 0.000000e+00 0.000000e+00 0.000000e+00 5.888358e+01 4.599061e+01 0.000000e+00 4.599061e+01 4.660700e+01 0.000000e+00 0.000000e+00 0.000000e+00 0.000000e+00 4.434870e+01 3.154908e+01 0.000000e+00 3.154908e+01 3.369642e+01 0.000000e+00 0.000000e+00 0.000000e+00 0.000000e+00 2.961212e+00 -2.116911e+00 0.000000e+00 -2.116911e+00 -7.664197e+01 0.000000e+00 0.000000e+00 0.000000e+00 0.000000e+00 3.758098e+00 -3.669801e+00 0.000000e+00 -3.669801e+00 -9.904089e+01 0.000000e+00 0.000000e+00 0.000000e+00 0.000000e+00 -1.317001e+00 -6.564119e+00 0.000000e+00 -6.564119e+00 -9.645450e+01 0.000000e+00 0.000000e+00 0.000000e+00 0.000000e+00 -1.205332e+00 1.246177e+00 0.000000e+00 1.246177e+00 -1.149758e+00 0.000000e+00 0.000000e+00 0.000000e+00 0.000000e+00 -5.619848e+00 8.080307e+00 0.000000e+00 8.080307e+00 -5.171209e+00 0.000000e+00 0.000000e+00 0.000000e+00 0.000000e+00 1.666643e+01 -5.509683e+00 0.000000e+00 -5.509683e+00 -3.536622e+01 0.000000e+00 0.000000e+00 0.000000e+00 0.000000e+00 -1.038104e+01 1.642797e+01 0.000000e+00 1.642797e+01 -3.140059e-01 0.000000e+00 0.000000e+00 0.000000e+00 0.000000e+00 -5.313462e+00 -2.241333e+01 0.000000e+00 -2.241333e+01 -1.298929e+01 0.000000e+00 0.000000e+00 0.000000e+00 0.000000e+00 8.471045e-01 -4.572725e+00 0.000000e+00 -4.572725e+00 -8.512769e+01 0.000000e+00 0.000000e+00 0.000000e+00 0.000000e+00 1.883478e+00 -2.358812e+00 0.000000e+00 -2.358812e+00 -8.118835e+01 0.000000e+00 0.000000e+00 0.000000e+00 0.000000e+00 -1.583982e+00 4.563697e+00 0.000000e+00 4.563697e+00 -7.788793e+00 0.000000e+00 0.000000e+00 0.000000e+00 0.000000e+00 -7.139104e-01 8.501955e-01 0.000000e+00 8.501955e-01 -3.451911e+00 0.000000e+00 0.000000e+00 0.000000e+00 0.000000e+00 6.010049e+00 -1.403456e+01 0.000000e+00 -1.403456e+01 -6.210916e+01 0.000000e+00 0.000000e+00 0.000000e+00 0.000000e+00 -1.036119e+00 -5.402586e+00 0.000000e+00 -5.402586e+00 -8.964733e+01 0.000000e+00 0.000000e+00 0.000000e+00 0.000000e+00 2.809108e+00 -3.557237e+00 0.000000e+00 -3.557237e+00 -9.298632e+01 0.000000e+00 0.000000e+00 0.000000e+00 0.000000e+00 2.478410e+00 -3.220430e+00 0.000000e+00 -3.220430e+00 -8.654182e+01 0.000000e+00 0.000000e+00 0.000000e+00 0.000000e+00 1.737836e+01 -4.516195e+00 0.000000e+00 -4.516195e+00 -3.703479e+01 0.000000e+00 0.000000e+00 0.000000e+00 0.000000e+00 4.012086e+01 -7.119075e+00 0.000000e+00 -7.119075e+00 -1.562610e+00 0.000000e+00 0.000000e+00 0.000000e+00 0.000000e+00 4.148161e+01 -8.592076e+00 0.000000e+00 -8.592076e+00 4.253025e-01 0.000000e+00 0.000000e+00 0.000000e+00 0.000000e+00 2.557275e+01 -5.446048e+00 0.000000e+00 -5.446048e+00 -2.079195e+01 0.000000e+00 0.000000e+00 0.000000e+00 0.000000e+00 2.645119e+01 -6.880374e+00 0.000000e+00 -6.880374e+00 -1.891800e+01 0.000000e+00 0.000000e+00 0.000000e+00 0.000000e+00 1.715464e+01 -4.196576e+00 0.000000e+00 -4.196576e+00 -3.369004e+01 0.000000e+00 0.000000e+00 0.000000e+00 0.000000e+00 -4.137230e+00 9.674975e+00 0.000000e+00 9.674975e+00 -1.928766e+00 0.000000e+00 0.000000e+00 0.000000e+00 0.000000e+00 -1.283240e+01 1.578673e+01 0.000000e+00 1.578673e+01 -1.265397e+00 0.000000e+00 0.000000e+00 0.000000e+00 0.000000e+00 -1.197822e+01 1.853315e+01 0.000000e+00 1.853315e+01 1.181479e+00 0.000000e+00 0.000000e+00 0.000000e+00 0.000000e+00 -1.833727e+01 1.598964e+01 0.000000e+00 1.598964e+01 1.678788e+00 0.000000e+00 0.000000e+00 0.000000e+00 0.000000e+00 3.685307e+00 -9.849492e+00 0.000000e+00 -9.849492e+00 -6.389985e+01 0.000000e+00 0.000000e+00 0.000000e+00 0.000000e+00 -1.655340e+00 2.447026e-01 0.000000e+00 2.447026e-01 -9.373768e-01 0.000000e+00 0.000000e+00 0.000000e+00 0.000000e+00 1.432011e+00 -1.906770e+01 0.000000e+00 -1.906770e+01 -3.844999e+01 0.000000e+00 0.000000e+00 0.000000e+00 0.000000e+00 7.124593e+00 -1.871997e+01 0.000000e+00 -1.871997e+01 -4.818030e+01 0.000000e+00 0.000000e+00 0.000000e+00 0.000000e+00 3.267154e+00 -8.553742e+00 0.000000e+00 -8.553742e+00 -7.141967e+01 0.000000e+00 0.000000e+00 0.000000e+00 0.000000e+00 -1.199205e+00 6.903769e-01 0.000000e+00 6.903769e-01 -2.375528e+00 0.000000e+00 0.000000e+00 0.000000e+00 0.000000e+00 3.890333e+00 -1.240897e+01 0.000000e+00 -1.240897e+01 -7.458459e+01 0.000000e+00 0.000000e+00 0.000000e+00 0.000000e+00 3.821810e+00 -6.968903e+00 0.000000e+00 -6.968903e+00 -7.903812e+01 0.000000e+00 0.000000e+00 0.000000e+00 0.000000e+00 -2.659986e+00 -9.147136e+00 0.000000e+00 -9.147136e+00 -6.976883e+01 0.000000e+00 0.000000e+00 0.000000e+00 0.000000e+00 -1.646411e+01 4.521014e+00 0.000000e+00 4.521014e+00 -9.125825e+01 0.000000e+00 0.000000e+00 0.000000e+00 0.000000e+00 1.407672e+00 -4.800202e+00 0.000000e+00 -4.800202e+00 -7.954411e+01 0.000000e+00 0.000000e+00 0.000000e+00 0.000000e+00 1.174737e+00 -6.009290e+00 0.000000e+00 -6.009290e+00 -7.249376e+01 0.000000e+00 0.000000e+00 0.000000e+00 0.000000e+00 3.401697e+00 -5.657314e+00 0.000000e+00 -5.657314e+00 -8.055015e+01 0.000000e+00 0.000000e+00 0.000000e+00 0.000000e+00 5.091973e+00 -8.517348e+00 0.000000e+00 -8.517348e+00 -7.107429e+01 0.000000e+00 0.000000e+00 0.000000e+00 0.000000e+00 -5.329153e-01 -3.592284e+00 0.000000e+00 -3.592284e+00 -7.656118e+01 0.000000e+00 0.000000e+00 0.000000e+00 0.000000e+00 -4.051446e+00 -7.178579e-01 0.000000e+00 -7.178579e-01 -8.343792e+01 0.000000e+00 0.000000e+00 0.000000e+00 0.000000e+00 1.881621e+00 -4.891932e+00 0.000000e+00 -4.891932e+00 -7.954214e+01 0.000000e+00 0.000000e+00 0.000000e+00 0.000000e+00 1.523851e+00 1.559593e+00 0.000000e+00 1.559593e+00 -9.824948e+01 0.000000e+00 0.000000e+00 0.000000e+00 0.000000e+00 5.785051e+00 -1.235310e+01 0.000000e+00 -1.235310e+01 -6.635823e+01 0.000000e+00 0.000000e+00 0.000000e+00 0.000000e+00 1.675592e+00 -1.194441e+01 0.000000e+00 -1.194441e+01 -5.856116e+01 0.000000e+00 0.000000e+00 0.000000e+00 0.000000e+00 2.843127e-01 -9.021070e+00 0.000000e+00 -9.021070e+00 -6.371830e+01 0.000000e+00 0.000000e+00 0.000000e+00 0.000000e+00 4.587438e+00 -2.259468e+00 0.000000e+00 -2.259468e+00 -8.584748e+01 0.000000e+00 0.000000e+00 0.000000e+00 0.000000e+00 3.835871e+00 -3.623693e+00 0.000000e+00 -3.623693e+00 -8.595746e+01 0.000000e+00 0.000000e+00 0.000000e+00 0.000000e+00 2.111338e+01 -5.821279e+00 0.000000e+00 -5.821279e+00 -2.860935e+01 0.000000e+00 0.000000e+00 0.000000e+00 0.000000e+00 1.982189e+01 -4.398860e+00 0.000000e+00 -4.398860e+00 -3.043695e+01 0.000000e+00 0.000000e+00 0.000000e+00 0.000000e+00 1.999351e+01 -5.076683e+00 0.000000e+00 -5.076683e+00 -2.724513e+01 0.000000e+00 0.000000e+00 0.000000e+00 0.000000e+00 3.448277e+01 -7.554547e+00 0.000000e+00 -7.554547e+00 -9.624149e+00 0.000000e+00 0.000000e+00 0.000000e+00 0.000000e+00 3.146906e+01 -6.257755e+00 0.000000e+00 -6.257755e+00 -1.139583e+01 0.000000e+00 0.000000e+00 0.000000e+00 0.000000e+00 3.351898e+01 -6.622032e+00 0.000000e+00 -6.622032e+00 -8.353409e+00 0.000000e+00 0.000000e+00 0.000000e+00 0.000000e+00 1.729406e+00 -1.865606e+00 0.000000e+00 -1.865606e+00 -2.034500e-01 0.000000e+00 0.000000e+00 0.000000e+00 0.000000e+00 -1.644568e+01 1.122815e+01 0.000000e+00 1.122815e+01 1.468571e+01 0.000000e+00 0.000000e+00 0.000000e+00 0.000000e+00 1.854722e+01 -7.471949e+00 0.000000e+00 -7.471949e+00 -3.339873e+01 0.000000e+00 0.000000e+00 0.000000e+00 0.000000e+00 1.175466e+00 -2.181773e+01 0.000000e+00 -2.181773e+01 -3.031922e+01 0.000000e+00 0.000000e+00 0.000000e+00 0.000000e+00 5.177097e+01 -9.604967e+00 0.000000e+00 -9.604967e+00 1.091221e+01 0.000000e+00 0.000000e+00 0.000000e+00 0.000000e+00 4.615533e+01 -8.056733e+00 0.000000e+00 -8.056733e+00 8.471901e+00 0.000000e+00 0.000000e+00 0.000000e+00 0.000000e+00 4.946995e+01 -8.526501e+00 0.000000e+00 -8.526501e+00 1.212646e+01 0.000000e+00 0.000000e+00 0.000000e+00 0.000000e+00 1.027776e+02 -2.012096e+01 0.000000e+00 -2.012096e+01 8.468332e+01 0.000000e+00 0.000000e+00 0.000000e+00 0.000000e+00 1.329518e+02 -3.711289e+01 0.000000e+00 -3.711289e+01 1.397974e+02 0.000000e+00 0.000000e+00 0.000000e+00 0.000000e+00 1.035359e+02 -2.914480e+01 0.000000e+00 -2.914480e+01 1.269149e+02 0.000000e+00 0.000000e+00 0.000000e+00 0.000000e+00 1.010735e+02 -2.969466e+01 0.000000e+00 -2.969466e+01 1.535715e+02 0.000000e+00 0.000000e+00 0.000000e+00 0.000000e+00 1.825083e+01 1.046095e+01 0.000000e+00 1.046095e+01 1.564561e-01 0.000000e+00 0.000000e+00 0.000000e+00 0.000000e+00 2.035392e+01 1.211310e+01 0.000000e+00 1.211310e+01 2.204544e+00 0.000000e+00 0.000000e+00 0.000000e+00 0.000000e+00 4.791415e+00 -2.613735e+01 0.000000e+00 -2.613735e+01 -2.813663e+01 0.000000e+00 0.000000e+00 0.000000e+00 0.000000e+00 -3.759145e-02 -1.747078e+00 0.000000e+00 -1.747078e+00 1.289165e+00 0.000000e+00 0.000000e+00 0.000000e+00 0.000000e+00 4.305547e+01 -7.406851e+00 0.000000e+00 -7.406851e+00 1.940800e+00 0.000000e+00 0.000000e+00 0.000000e+00 0.000000e+00 3.717524e+00 -3.432473e+00 0.000000e+00 -3.432473e+00 -9.630543e+01 0.000000e+00 0.000000e+00 0.000000e+00 0.000000e+00 3.258763e+01 1.623986e+01 0.000000e+00 1.623986e+01 4.303779e+00 0.000000e+00 0.000000e+00 0.000000e+00 0.000000e+00 -6.910818e+00 1.306052e+01 0.000000e+00 1.306052e+01 -8.188384e-01 0.000000e+00 0.000000e+00 0.000000e+00 0.000000e+00 6.126685e+01 8.496306e+00 0.000000e+00 8.496306e+00 1.664329e+02 0.000000e+00 0.000000e+00 0.000000e+00 0.000000e+00 -1.458094e+01 1.578383e+01 0.000000e+00 1.578383e+01 1.002500e+00 0.000000e+00 0.000000e+00 0.000000e+00 0.000000e+00 -1.540082e+01 1.510525e+01 0.000000e+00 1.510525e+01 7.150531e+00 0.000000e+00 0.000000e+00 0.000000e+00 0.000000e+00 9.262015e+01 -1.891057e+01 0.000000e+00 -1.891057e+01 7.434409e+01 0.000000e+00 0.000000e+00 0.000000e+00 0.000000e+00 1.154462e+00 -2.792245e+01 0.000000e+00 -2.792245e+01 -1.649836e+01 0.000000e+00 0.000000e+00 0.000000e+00 0.000000e+00 9.728659e+01 -3.103687e+01 0.000000e+00 -3.103687e+01 9.230860e+01 0.000000e+00 0.000000e+00 0.000000e+00 0.000000e+00 5.920928e+01 4.707535e+01 0.000000e+00 4.707535e+01 1.471344e+02 0.000000e+00 0.000000e+00 0.000000e+00 0.000000e+00 1.502863e+01 1.668930e+01 0.000000e+00 1.668930e+01 5.094202e-02 0.000000e+00 0.000000e+00 0.000000e+00 0.000000e+00 3.122187e+00 -5.367679e+00 0.000000e+00 -5.367679e+00 -7.103872e+01 0.000000e+00 0.000000e+00 0.000000e+00 0.000000e+00 1.104353e+02 9.416271e+01 0.000000e+00 9.416271e+01 1.484578e+02 0.000000e+00 0.000000e+00 0.000000e+00 0.000000e+00 6.080439e+00 -8.824329e+00 0.000000e+00 -8.824329e+00 -7.074477e+01 0.000000e+00 0.000000e+00 0.000000e+00 0.000000e+00 3.872664e+00 -3.679820e-01 0.000000e+00 -3.679820e-01 -8.196503e+01 0.000000e+00 0.000000e+00 0.000000e+00 0.000000e+00 6.151160e+00 -3.533741e+00 0.000000e+00 -3.533741e+00 -1.002701e+02 0.000000e+00 0.000000e+00 0.000000e+00 0.000000e+00 5.072724e+01 3.145705e+01 0.000000e+00 3.145705e+01 2.616701e+01 0.000000e+00 0.000000e+00 0.000000e+00 0.000000e+00 5.179762e+01 4.345098e+01 0.000000e+00 4.345098e+01 1.074257e+02 0.000000e+00 0.000000e+00 0.000000e+00 0.000000e+00 -2.356433e+00 4.498606e+00 0.000000e+00 4.498606e+00 -5.012784e+00 0.000000e+00 0.000000e+00 0.000000e+00 0.000000e+00 4.912050e+00 -6.284479e+00 0.000000e+00 -6.284479e+00 -7.429752e+01 0.000000e+00 0.000000e+00 0.000000e+00 0.000000e+00 -1.430752e+00 1.984839e+00 0.000000e+00 1.984839e+00 -6.530176e+00 0.000000e+00 0.000000e+00 0.000000e+00 0.000000e+00 1.293717e+00 -6.362533e+00 0.000000e+00 -6.362533e+00 -6.760793e+01 0.000000e+00 0.000000e+00 0.000000e+00 0.000000e+00 1.397496e+01 -6.536280e+00 0.000000e+00 -6.536280e+00 -3.511106e+01 0.000000e+00 0.000000e+00 0.000000e+00 0.000000e+00 -9.364233e+00 -2.522359e+01 0.000000e+00 -2.522359e+01 -1.929022e+00 0.000000e+00 0.000000e+00 0.000000e+00 0.000000e+00 -4.815534e+00 -2.671692e+01 0.000000e+00 -2.671692e+01 -8.581972e+00 0.000000e+00 0.000000e+00 0.000000e+00 0.000000e+00 4.519348e+00 -4.376651e+00 0.000000e+00 -4.376651e+00 -9.576679e+01 0.000000e+00 0.000000e+00 0.000000e+00 0.000000e+00 -2.173318e+00 6.487028e+00 0.000000e+00 6.487028e+00 -2.523271e+00 0.000000e+00 0.000000e+00 0.000000e+00 0.000000e+00 1.900058e+00 -5.172829e+00 0.000000e+00 -5.172829e+00 -7.030959e+01 0.000000e+00 0.000000e+00 0.000000e+00 0.000000e+00 5.944777e+01 3.887386e+01 0.000000e+00 3.887386e+01 1.284182e+02 0.000000e+00 0.000000e+00 0.000000e+00 0.000000e+00 6.272307e+01 2.250942e+01 0.000000e+00 2.250942e+01 1.887500e+02 0.000000e+00 0.000000e+00 0.000000e+00 0.000000e+00 -3.733480e+00 7.957075e+00 0.000000e+00 7.957075e+00 -8.074458e+00 0.000000e+00 0.000000e+00 0.000000e+00 0.000000e+00 1.223195e+01 1.777701e+01 0.000000e+00 1.777701e+01 1.535143e+00 0.000000e+00 0.000000e+00 0.000000e+00 0.000000e+00 6.752629e+00 -9.710526e+00 0.000000e+00 -9.710526e+00 -6.442561e+01 0.000000e+00 0.000000e+00 0.000000e+00 0.000000e+00 3.681462e+01 1.961712e+01 0.000000e+00 1.961712e+01 8.199990e+00 0.000000e+00 0.000000e+00 0.000000e+00 0.000000e+00 2.714998e+01 1.661369e+01 0.000000e+00 1.661369e+01 3.470492e+00 0.000000e+00 0.000000e+00 0.000000e+00 0.000000e+00 -7.030222e-01 -9.611685e+00 0.000000e+00 -9.611685e+00 -8.217668e+01 0.000000e+00 0.000000e+00 0.000000e+00 0.000000e+00 -8.586669e+00 1.881122e+01 0.000000e+00 1.881122e+01 1.484499e+00 0.000000e+00 0.000000e+00 0.000000e+00 0.000000e+00 3.274320e+01 -9.976298e+00 0.000000e+00 -9.976298e+00 -1.141109e+01 0.000000e+00 0.000000e+00 0.000000e+00 0.000000e+00 3.450842e+00 -2.746964e+00 0.000000e+00 -2.746964e+00 -7.522894e+01 0.000000e+00 0.000000e+00 0.000000e+00 0.000000e+00 1.163122e+01 -3.685291e+00 0.000000e+00 -3.685291e+00 -4.381613e+01 0.000000e+00 0.000000e+00 0.000000e+00 0.000000e+00 4.011976e+01 3.782096e+01 0.000000e+00 3.782096e+01 7.369051e+01 0.000000e+00 0.000000e+00 0.000000e+00 0.000000e+00 3.674578e+01 3.448565e+01 0.000000e+00 3.448565e+01 7.018434e+01 0.000000e+00 0.000000e+00 0.000000e+00 0.000000e+00 1.824714e+01 -6.405313e+00 0.000000e+00 -6.405313e+00 -3.162055e+01 0.000000e+00 0.000000e+00 0.000000e+00 0.000000e+00 1.893207e+01 -7.693164e+00 0.000000e+00 -7.693164e+00 -2.955573e+01 0.000000e+00 0.000000e+00 0.000000e+00 0.000000e+00 -1.122152e+01 1.139641e+01 0.000000e+00 1.139641e+01 1.311423e+01 0.000000e+00 0.000000e+00 0.000000e+00 0.000000e+00 8.390254e+01 -2.209097e+01 0.000000e+00 -2.209097e+01 5.722041e+01 0.000000e+00 0.000000e+00 0.000000e+00 0.000000e+00 1.110738e+02 -2.481788e+01 0.000000e+00 -2.481788e+01 9.362641e+01 0.000000e+00 0.000000e+00 0.000000e+00 0.000000e+00 5.456347e+01 3.930488e+01 0.000000e+00 3.930488e+01 1.450132e+02 0.000000e+00 0.000000e+00 0.000000e+00 0.000000e+00 4.628401e+01 2.559866e+01 0.000000e+00 2.559866e+01 1.313394e+02 0.000000e+00 0.000000e+00 0.000000e+00 0.000000e+00 4.215299e+01 3.489489e+01 0.000000e+00 3.489489e+01 9.922194e+01 0.000000e+00 0.000000e+00 0.000000e+00 0.000000e+00 6.674696e+01 -1.793578e+01 0.000000e+00 -1.793578e+01 3.321088e+01 0.000000e+00 0.000000e+00 0.000000e+00 0.000000e+00 5.352372e+01 -1.498624e+01 0.000000e+00 -1.498624e+01 1.765396e+01 0.000000e+00 0.000000e+00 0.000000e+00 0.000000e+00 8.264026e+01 -1.942191e+01 0.000000e+00 -1.942191e+01 1.623165e+02 0.000000e+00 0.000000e+00 0.000000e+00 0.000000e+00 6.598308e+01 -6.056100e+00 0.000000e+00 -6.056100e+00 1.834008e+02 0.000000e+00 0.000000e+00 0.000000e+00 0.000000e+00 2.489458e+01 -9.875903e+00 0.000000e+00 -9.875903e+00 -1.996966e+01 0.000000e+00 0.000000e+00 0.000000e+00 0.000000e+00 7.770793e+01 -1.399076e+01 0.000000e+00 -1.399076e+01 4.933644e+01 0.000000e+00 0.000000e+00 0.000000e+00 0.000000e+00 3.563132e+01 2.370557e+01 0.000000e+00 2.370557e+01 1.370537e+01 0.000000e+00 0.000000e+00 0.000000e+00 0.000000e+00 4.227527e+01 2.407923e+01 0.000000e+00 2.407923e+01 1.472802e+01 0.000000e+00 0.000000e+00 0.000000e+00 0.000000e+00 1.850060e+01 1.595250e+01 0.000000e+00 1.595250e+01 1.210457e+00 0.000000e+00 0.000000e+00 0.000000e+00 0.000000e+00 1.379960e+01 1.859081e+01 0.000000e+00 1.859081e+01 2.021728e+00 0.000000e+00 0.000000e+00 0.000000e+00 0.000000e+00 3.033158e+01 -9.120932e+00 0.000000e+00 -9.120932e+00 -1.497206e+01 0.000000e+00 0.000000e+00 0.000000e+00 0.000000e+00 2.929513e+01 -8.434681e+00 0.000000e+00 -8.434681e+00 -1.325419e+01 0.000000e+00 0.000000e+00 0.000000e+00 0.000000e+00 1.331038e+02 7.686600e+01 0.000000e+00 7.686600e+01 2.263575e+02 0.000000e+00 0.000000e+00 0.000000e+00 0.000000e+00 4.931695e+01 3.739774e+01 0.000000e+00 3.739774e+01 4.273777e+01 0.000000e+00 0.000000e+00 0.000000e+00 0.000000e+00 3.447379e+01 2.822838e+01 0.000000e+00 2.822838e+01 3.062977e+01 0.000000e+00 0.000000e+00 0.000000e+00 0.000000e+00 2.584841e+01 1.178431e+01 0.000000e+00 1.178431e+01 7.587032e-01 0.000000e+00 0.000000e+00 0.000000e+00 0.000000e+00 -5.815477e+00 -2.565612e+01 0.000000e+00 -2.565612e+01 -1.010306e+01 0.000000e+00 0.000000e+00 0.000000e+00 0.000000e+00 8.822273e+01 -2.517822e+01 0.000000e+00 -2.517822e+01 9.647802e+01 0.000000e+00 0.000000e+00 0.000000e+00 0.000000e+00 1.073229e+02 -3.222752e+01 0.000000e+00 -3.222752e+01 1.071980e+02 0.000000e+00 0.000000e+00 0.000000e+00 0.000000e+00 -1.457547e+01 1.721251e+01 0.000000e+00 1.721251e+01 3.194702e+00 0.000000e+00 0.000000e+00 0.000000e+00 0.000000e+00 2.898752e+01 1.372757e+01 0.000000e+00 1.372757e+01 1.753833e+00 0.000000e+00 0.000000e+00 0.000000e+00 0.000000e+00 2.259227e-01 1.644240e+00 0.000000e+00 1.644240e+00 -1.753883e+00 0.000000e+00 0.000000e+00 0.000000e+00 0.000000e+00 -8.049130e+00 1.682945e+01 0.000000e+00 1.682945e+01 7.597717e+00 0.000000e+00 0.000000e+00 0.000000e+00 0.000000e+00 6.304922e+00 -5.173064e+00 0.000000e+00 -5.173064e+00 -6.503429e+01 0.000000e+00 0.000000e+00 0.000000e+00 0.000000e+00 -8.249815e+00 1.900731e+01 0.000000e+00 1.900731e+01 4.225988e+00 0.000000e+00 0.000000e+00 0.000000e+00 0.000000e+00 9.272878e+01 -2.852128e+01 0.000000e+00 -2.852128e+01 7.945929e+01 0.000000e+00 0.000000e+00 0.000000e+00 0.000000e+00 8.154632e+01 -2.492269e+01 0.000000e+00 -2.492269e+01 8.285739e+01 0.000000e+00 0.000000e+00 0.000000e+00 0.000000e+00 -1.442426e+00 -2.545823e+01 0.000000e+00 -2.545823e+01 -1.797380e+01 0.000000e+00 0.000000e+00 0.000000e+00 0.000000e+00 3.578092e+00 -5.133458e+00 0.000000e+00 -5.133458e+00 -6.584150e+01 0.000000e+00 0.000000e+00 0.000000e+00 0.000000e+00 8.140788e+00 -3.241373e+00 0.000000e+00 -3.241373e+00 -5.490747e+01 0.000000e+00 0.000000e+00 0.000000e+00 0.000000e+00 4.152495e+01 -1.204337e+01 0.000000e+00 -1.204337e+01 3.015546e+00 0.000000e+00 0.000000e+00 0.000000e+00 0.000000e+00 1.805485e+01 1.461347e+01 0.000000e+00 1.461347e+01 1.314691e+00 0.000000e+00 0.000000e+00 0.000000e+00 0.000000e+00 6.244078e+01 -1.606317e+01 0.000000e+00 -1.606317e+01 2.741487e+01 0.000000e+00 0.000000e+00 0.000000e+00 0.000000e+00 5.800123e+01 -1.502507e+01 0.000000e+00 -1.502507e+01 2.869848e+01 0.000000e+00 0.000000e+00 0.000000e+00 0.000000e+00 4.145946e+00 -3.546360e+00 0.000000e+00 -3.546360e+00 -6.917581e+01 0.000000e+00 0.000000e+00 0.000000e+00 0.000000e+00 2.387928e+01 -9.312799e+00 0.000000e+00 -9.312799e+00 -2.410793e+01 0.000000e+00 0.000000e+00 0.000000e+00 0.000000e+00 2.250515e+01 -8.200091e+00 0.000000e+00 -8.200091e+00 -2.226364e+01 0.000000e+00 0.000000e+00 0.000000e+00 0.000000e+00 3.673379e+00 -5.231733e+00 0.000000e+00 -5.231733e+00 -6.452366e+01 0.000000e+00 0.000000e+00 0.000000e+00 0.000000e+00 7.770551e+00 -6.881086e+00 0.000000e+00 -6.881086e+00 -5.024307e+01 0.000000e+00 0.000000e+00 0.000000e+00 0.000000e+00 3.723172e+01 -1.179288e+01 0.000000e+00 -1.179288e+01 -4.305549e+00 0.000000e+00 0.000000e+00 0.000000e+00 0.000000e+00 2.914652e+01 -5.810992e+00 0.000000e+00 -5.810992e+00 -1.739019e+01 0.000000e+00 0.000000e+00 0.000000e+00 0.000000e+00 2.253036e+01 -2.727469e+01 0.000000e+00 -2.727469e+01 2.573474e+01 0.000000e+00 0.000000e+00 0.000000e+00 0.000000e+00 2.230270e+01 1.273438e+01 0.000000e+00 1.273438e+01 -3.782169e-01 0.000000e+00 0.000000e+00 0.000000e+00 0.000000e+00 8.044126e+00 -1.264134e+01 0.000000e+00 -1.264134e+01 -5.992034e+01 0.000000e+00 0.000000e+00 0.000000e+00 0.000000e+00 1.757785e+01 -8.577042e+00 0.000000e+00 -8.577042e+00 -3.644274e+01 0.000000e+00 0.000000e+00 0.000000e+00 0.000000e+00 -4.794875e-01 1.383312e+00 0.000000e+00 1.383312e+00 -3.054523e+00 0.000000e+00 0.000000e+00 0.000000e+00 0.000000e+00 9.510557e+00 -5.902640e+00 0.000000e+00 -5.902640e+00 -4.636208e+01 0.000000e+00 0.000000e+00 0.000000e+00 0.000000e+00 1.153365e+01 -5.892021e+00 0.000000e+00 -5.892021e+00 -4.878170e+01 0.000000e+00 0.000000e+00 0.000000e+00 0.000000e+00 1.353541e+01 -5.977607e+00 0.000000e+00 -5.977607e+00 -4.516377e+01 0.000000e+00 0.000000e+00 0.000000e+00 0.000000e+00 2.560518e+01 1.427861e+01 0.000000e+00 1.427861e+01 1.194567e+00 0.000000e+00 0.000000e+00 0.000000e+00 0.000000e+00 -1.746605e+01 -5.757498e+00 0.000000e+00 -5.757498e+00 2.697003e+01 0.000000e+00 0.000000e+00 0.000000e+00 0.000000e+00 3.885165e+01 -1.213174e+01 0.000000e+00 -1.213174e+01 -6.378580e-01 0.000000e+00 0.000000e+00 0.000000e+00 0.000000e+00 3.644740e+01 -1.050952e+01 0.000000e+00 -1.050952e+01 -2.953843e+00 0.000000e+00 0.000000e+00 0.000000e+00 0.000000e+00 4.151127e+01 -1.087324e+01 0.000000e+00 -1.087324e+01 9.022113e-01 0.000000e+00 0.000000e+00 0.000000e+00 0.000000e+00 2.994078e+00 -5.227605e+00 0.000000e+00 -5.227605e+00 -7.834194e+01 0.000000e+00 0.000000e+00 0.000000e+00 0.000000e+00 2.376610e+01 1.011293e+01 0.000000e+00 1.011293e+01 1.511534e+00 0.000000e+00 0.000000e+00 0.000000e+00 0.000000e+00 5.187280e+00 1.849724e+01 0.000000e+00 1.849724e+01 1.951056e+00 0.000000e+00 0.000000e+00 0.000000e+00 0.000000e+00 2.953811e+00 -2.795601e+00 0.000000e+00 -2.795601e+00 -7.976019e+01 0.000000e+00 0.000000e+00 0.000000e+00 0.000000e+00 2.255505e+00 -8.393112e+00 0.000000e+00 -8.393112e+00 -5.916354e+01 0.000000e+00 0.000000e+00 0.000000e+00 0.000000e+00 3.154649e+01 1.948725e+01 0.000000e+00 1.948725e+01 7.360701e+00 0.000000e+00 0.000000e+00 0.000000e+00 0.000000e+00 4.925904e+00 -7.337953e+00 0.000000e+00 -7.337953e+00 -6.833326e+01 0.000000e+00 0.000000e+00 0.000000e+00 0.000000e+00 7.587150e+01 -2.047727e+01 0.000000e+00 -2.047727e+01 6.116971e+01 0.000000e+00 0.000000e+00 0.000000e+00 0.000000e+00 8.909508e+01 -2.521056e+01 0.000000e+00 -2.521056e+01 6.833418e+01 0.000000e+00 0.000000e+00 0.000000e+00 0.000000e+00 -1.769634e+01 3.929332e+00 0.000000e+00 3.929332e+00 2.238250e+01 0.000000e+00 0.000000e+00 0.000000e+00 0.000000e+00 4.070359e+00 -4.304873e+00 0.000000e+00 -4.304873e+00 -6.128601e+01 0.000000e+00 0.000000e+00 0.000000e+00 0.000000e+00 5.946820e+00 -8.195858e+00 0.000000e+00 -8.195858e+00 -6.038295e+01 0.000000e+00 0.000000e+00 0.000000e+00 0.000000e+00 7.374773e+00 -6.771340e+00 0.000000e+00 -6.771340e+00 -5.889834e+01 0.000000e+00 0.000000e+00 0.000000e+00 0.000000e+00 4.280603e+01 -1.059479e+01 0.000000e+00 -1.059479e+01 4.315536e+00 0.000000e+00 0.000000e+00 0.000000e+00 0.000000e+00 4.401588e+01 -1.182669e+01 0.000000e+00 -1.182669e+01 6.584228e+00 0.000000e+00 0.000000e+00 0.000000e+00 0.000000e+00 -1.301446e+00 3.891402e+00 0.000000e+00 3.891402e+00 -4.052951e+00 0.000000e+00 0.000000e+00 0.000000e+00 0.000000e+00 -1.636801e+01 -9.377146e+00 0.000000e+00 -9.377146e+00 1.649623e+01 0.000000e+00 0.000000e+00 0.000000e+00 0.000000e+00 7.943642e+00 2.001808e+01 0.000000e+00 2.001808e+01 3.458710e+00 0.000000e+00 0.000000e+00 0.000000e+00 0.000000e+00 2.641923e+01 -3.198030e+01 0.000000e+00 -3.198030e+01 2.411902e+01 0.000000e+00 0.000000e+00 0.000000e+00 0.000000e+00 8.193880e+00 -1.585773e+01 0.000000e+00 -1.585773e+01 -5.485644e+01 0.000000e+00 0.000000e+00 0.000000e+00 0.000000e+00 2.109225e+00 -1.549680e+01 0.000000e+00 -1.549680e+01 -4.701022e+01 0.000000e+00 0.000000e+00 0.000000e+00 0.000000e+00 5.622004e+00 3.888492e+00 0.000000e+00 3.888492e+00 -1.050681e+02 0.000000e+00 0.000000e+00 0.000000e+00 0.000000e+00 -1.548922e+01 -1.640937e+01 0.000000e+00 -1.640937e+01 2.434385e+01 0.000000e+00 0.000000e+00 0.000000e+00 0.000000e+00 3.025995e+01 -9.623697e+00 0.000000e+00 -9.623697e+00 -9.945742e+00 0.000000e+00 0.000000e+00 0.000000e+00 0.000000e+00 3.500663e+01 -1.086657e+01 0.000000e+00 -1.086657e+01 -8.079123e+00 0.000000e+00 0.000000e+00 0.000000e+00 0.000000e+00 -1.050269e+01 -9.898371e+00 0.000000e+00 -9.898371e+00 3.610081e+01 0.000000e+00 0.000000e+00 0.000000e+00 0.000000e+00 2.036180e+01 1.157947e+01 0.000000e+00 1.157947e+01 -6.664849e-01 0.000000e+00 0.000000e+00 0.000000e+00 0.000000e+00 1.560115e+01 -7.513886e+00 0.000000e+00 -7.513886e+00 -4.083961e+01 0.000000e+00 0.000000e+00 0.000000e+00 0.000000e+00 1.111956e+01 -6.237044e+00 0.000000e+00 -6.237044e+00 -4.248025e+01 0.000000e+00 0.000000e+00 0.000000e+00 0.000000e+00 1.221397e+01 -7.446634e+00 0.000000e+00 -7.446634e+00 -3.835225e+01 0.000000e+00 0.000000e+00 0.000000e+00 0.000000e+00 -8.380733e+00 -2.743924e+01 0.000000e+00 -2.743924e+01 2.055017e+00 0.000000e+00 0.000000e+00 0.000000e+00 0.000000e+00 4.910429e+01 -1.306648e+01 0.000000e+00 -1.306648e+01 1.491588e+01 0.000000e+00 0.000000e+00 0.000000e+00 0.000000e+00 5.176447e+01 -1.399777e+01 0.000000e+00 -1.399777e+01 1.325583e+01 0.000000e+00 0.000000e+00 0.000000e+00 0.000000e+00 8.097233e+01 -1.794865e+01 0.000000e+00 -1.794865e+01 4.793212e+01 0.000000e+00 0.000000e+00 0.000000e+00 0.000000e+00 7.190675e+01 -1.975809e+01 0.000000e+00 -1.975809e+01 5.277773e+01 0.000000e+00 0.000000e+00 0.000000e+00 0.000000e+00 1.693155e+01 1.388176e+01 0.000000e+00 1.388176e+01 -3.475797e-02 0.000000e+00 0.000000e+00 0.000000e+00 0.000000e+00 1.651971e+00 -2.381325e+01 0.000000e+00 -2.381325e+01 -2.592135e+01 0.000000e+00 0.000000e+00 0.000000e+00 0.000000e+00 2.529060e+00 -1.204784e+01 0.000000e+00 -1.204784e+01 -5.390124e+01 0.000000e+00 0.000000e+00 0.000000e+00 0.000000e+00 -1.543173e+01 1.546076e+00 0.000000e+00 1.546076e+00 1.638332e+01 0.000000e+00 0.000000e+00 0.000000e+00 0.000000e+00 1.459629e+01 -8.544893e+00 0.000000e+00 -8.544893e+00 -3.391525e+01 0.000000e+00 0.000000e+00 0.000000e+00 0.000000e+00 3.360424e+00 -3.021564e+01 0.000000e+00 -3.021564e+01 -1.244647e+01 0.000000e+00 0.000000e+00 0.000000e+00 0.000000e+00 7.686480e+00 -7.396974e+00 0.000000e+00 -7.396974e+00 -5.417525e+01 0.000000e+00 0.000000e+00 0.000000e+00 0.000000e+00 6.184243e+00 -5.330134e+00 0.000000e+00 -5.330134e+00 -5.624239e+01 0.000000e+00 0.000000e+00 0.000000e+00 0.000000e+00 1.024341e+01 -5.998736e+00 0.000000e+00 -5.998736e+00 -5.256590e+01 0.000000e+00 0.000000e+00 0.000000e+00 0.000000e+00 2.972774e+01 2.111915e+01 0.000000e+00 2.111915e+01 9.218554e+00 0.000000e+00 0.000000e+00 0.000000e+00 0.000000e+00 3.396820e+01 2.809310e+01 0.000000e+00 2.809310e+01 2.764619e+01 0.000000e+00 0.000000e+00 0.000000e+00 0.000000e+00 8.403716e+00 -2.340162e+01 0.000000e+00 -2.340162e+01 -3.484737e+01 0.000000e+00 0.000000e+00 0.000000e+00 0.000000e+00 3.263340e+01 -1.009257e+01 0.000000e+00 -1.009257e+01 -6.712709e+00 0.000000e+00 0.000000e+00 0.000000e+00 0.000000e+00 2.582701e+01 -8.947964e+00 0.000000e+00 -8.947964e+00 -1.632043e+01 0.000000e+00 0.000000e+00 0.000000e+00 0.000000e+00 5.681204e+01 -1.523862e+01 0.000000e+00 -1.523862e+01 2.217755e+01 0.000000e+00 0.000000e+00 0.000000e+00 0.000000e+00 5.368086e+01 -1.333502e+01 0.000000e+00 -1.333502e+01 1.942419e+01 0.000000e+00 0.000000e+00 0.000000e+00 0.000000e+00 5.818832e+01 -1.374255e+01 0.000000e+00 -1.374255e+01 2.374743e+01 0.000000e+00 0.000000e+00 0.000000e+00 0.000000e+00 -1.406643e+01 -1.809560e+01 0.000000e+00 -1.809560e+01 1.504719e+01 0.000000e+00 0.000000e+00 0.000000e+00 0.000000e+00 2.422091e+01 1.547383e+01 0.000000e+00 1.547383e+01 1.804993e+00 0.000000e+00 0.000000e+00 0.000000e+00 0.000000e+00 3.144314e+01 2.482620e+01 0.000000e+00 2.482620e+01 1.776710e+01 0.000000e+00 0.000000e+00 0.000000e+00 0.000000e+00 2.518541e+01 2.292396e+01 0.000000e+00 2.292396e+01 1.690071e+01 0.000000e+00 0.000000e+00 0.000000e+00 0.000000e+00 2.078474e+01 1.988475e+01 0.000000e+00 1.988475e+01 9.556033e+00 0.000000e+00 0.000000e+00 0.000000e+00 0.000000e+00 9.683028e+00 -1.197958e+01 0.000000e+00 -1.197958e+01 -5.512661e+01 0.000000e+00 0.000000e+00 0.000000e+00 0.000000e+00 -3.488695e+00 2.032380e+01 0.000000e+00 2.032380e+01 3.622941e+00 0.000000e+00 0.000000e+00 0.000000e+00 0.000000e+00 2.274682e+01 1.358599e+01 0.000000e+00 1.358599e+01 1.521585e+00 0.000000e+00 0.000000e+00 0.000000e+00 0.000000e+00 4.958364e+01 -1.860578e+01 0.000000e+00 -1.860578e+01 1.638872e+01 0.000000e+00 0.000000e+00 0.000000e+00 0.000000e+00 4.424341e+01 -1.215745e+01 0.000000e+00 -1.215745e+01 1.024304e+01 0.000000e+00 0.000000e+00 0.000000e+00 0.000000e+00 1.021615e+01 -1.648930e+01 0.000000e+00 -1.648930e+01 -4.839818e+01 0.000000e+00 0.000000e+00 0.000000e+00 0.000000e+00 3.024386e+00 -2.036568e+01 0.000000e+00 -2.036568e+01 -3.370669e+01 0.000000e+00 0.000000e+00 0.000000e+00 0.000000e+00 -1.979920e+00 1.861604e+01 0.000000e+00 1.861604e+01 2.200506e+00 0.000000e+00 0.000000e+00 0.000000e+00 0.000000e+00 1.752310e+01 1.533019e+01 0.000000e+00 1.533019e+01 -6.799027e-03 0.000000e+00 0.000000e+00 0.000000e+00 0.000000e+00 2.253929e+01 -7.458454e+00 0.000000e+00 -7.458454e+00 -2.845418e+01 0.000000e+00 0.000000e+00 0.000000e+00 0.000000e+00 2.871396e+01 -3.138481e+01 0.000000e+00 -3.138481e+01 5.198673e+01 0.000000e+00 0.000000e+00 0.000000e+00 0.000000e+00 1.968260e+01 -7.924848e+00 0.000000e+00 -7.924848e+00 -2.596062e+01 0.000000e+00 0.000000e+00 0.000000e+00 0.000000e+00 8.013747e+00 1.867907e+01 0.000000e+00 1.867907e+01 3.390426e+00 0.000000e+00 0.000000e+00 0.000000e+00 0.000000e+00 6.871418e+01 -1.923105e+01 0.000000e+00 -1.923105e+01 3.913891e+01 0.000000e+00 0.000000e+00 0.000000e+00 0.000000e+00 -7.864960e+00 1.214451e+01 0.000000e+00 1.214451e+01 2.561031e+01 0.000000e+00 0.000000e+00 0.000000e+00 0.000000e+00 3.145197e+00 -3.313075e+00 0.000000e+00 -3.313075e+00 -8.620181e+01 0.000000e+00 0.000000e+00 0.000000e+00 0.000000e+00 7.109447e+01 -1.771883e+01 0.000000e+00 -1.771883e+01 4.496069e+01 0.000000e+00 0.000000e+00 0.000000e+00 0.000000e+00 2.084023e+00 2.050563e+01 0.000000e+00 2.050563e+01 3.803676e+00 0.000000e+00 0.000000e+00 0.000000e+00 0.000000e+00 -6.457313e+00 1.647766e+01 0.000000e+00 1.647766e+01 1.297319e+01 0.000000e+00 0.000000e+00 0.000000e+00 0.000000e+00 6.202190e-01 1.835151e+01 0.000000e+00 1.835151e+01 1.435423e+01 0.000000e+00 0.000000e+00 0.000000e+00 0.000000e+00 7.236382e+01 -1.752792e+01 0.000000e+00 -1.752792e+01 4.071778e+01 0.000000e+00 0.000000e+00 0.000000e+00 0.000000e+00 2.181223e+00 -5.002591e+00 0.000000e+00 -5.002591e+00 -8.769516e+01 0.000000e+00 0.000000e+00 0.000000e+00 0.000000e+00 1.022996e+00 1.840643e+01 0.000000e+00 1.840643e+01 3.526090e+00 0.000000e+00 0.000000e+00 0.000000e+00 0.000000e+00 7.493490e+01 -2.436642e+01 0.000000e+00 -2.436642e+01 5.191940e+01 0.000000e+00 0.000000e+00 0.000000e+00 0.000000e+00 6.117032e+01 -1.617236e+01 0.000000e+00 -1.617236e+01 3.428691e+01 0.000000e+00 0.000000e+00 0.000000e+00 0.000000e+00 3.019203e+01 -2.859003e+01 0.000000e+00 -2.859003e+01 3.522029e+01 0.000000e+00 0.000000e+00 0.000000e+00 0.000000e+00 2.383533e+01 -2.401524e+01 0.000000e+00 -2.401524e+01 7.085906e+01 0.000000e+00 0.000000e+00 0.000000e+00 0.000000e+00 -9.839617e+00 2.630207e+00 0.000000e+00 2.630207e+00 3.531256e+01 0.000000e+00 0.000000e+00 0.000000e+00 0.000000e+00 -5.682414e+00 1.019324e+01 0.000000e+00 1.019324e+01 2.149059e+01 0.000000e+00 0.000000e+00 0.000000e+00 0.000000e+00 -1.041132e+01 -1.569660e+00 0.000000e+00 -1.569660e+00 2.575927e+01 0.000000e+00 0.000000e+00 0.000000e+00 0.000000e+00 1.058515e+01 -2.054037e+01 0.000000e+00 -2.054037e+01 -4.122671e+01 0.000000e+00 0.000000e+00 0.000000e+00 0.000000e+00 -5.786591e+00 -8.499525e+00 0.000000e+00 -8.499525e+00 -1.056339e+02 0.000000e+00 0.000000e+00 0.000000e+00 0.000000e+00 -1.029269e+01 -1.322848e+01 0.000000e+00 -1.322848e+01 2.532713e+01 0.000000e+00 0.000000e+00 0.000000e+00 0.000000e+00 4.794945e+01 -1.677272e+01 0.000000e+00 -1.677272e+01 1.803059e+01 0.000000e+00 0.000000e+00 0.000000e+00 0.000000e+00 5.187958e+01 -1.909250e+01 0.000000e+00 -1.909250e+01 2.205956e+01 0.000000e+00 0.000000e+00 0.000000e+00 0.000000e+00 1.562751e+01 -9.655156e+00 0.000000e+00 -9.655156e+00 -4.034705e+01 0.000000e+00 0.000000e+00 0.000000e+00 0.000000e+00 3.580650e+01 3.665393e+01 0.000000e+00 3.665393e+01 6.660369e+01 0.000000e+00 0.000000e+00 0.000000e+00 0.000000e+00 2.787281e+01 2.775656e+01 0.000000e+00 2.775656e+01 5.189793e+01 0.000000e+00 0.000000e+00 0.000000e+00 0.000000e+00 5.321628e+00 2.099202e+01 0.000000e+00 2.099202e+01 7.485851e+00 0.000000e+00 0.000000e+00 0.000000e+00 0.000000e+00 5.083425e+01 1.935663e+00 0.000000e+00 1.935663e+00 1.393937e+02 0.000000e+00 0.000000e+00 0.000000e+00 0.000000e+00 4.664664e+00 -1.498347e+01 0.000000e+00 -1.498347e+01 -4.306073e+01 0.000000e+00 0.000000e+00 0.000000e+00 0.000000e+00 6.433118e+01 -2.222962e+01 0.000000e+00 -2.222962e+01 3.613124e+01 0.000000e+00 0.000000e+00 0.000000e+00 0.000000e+00 2.801095e+01 -8.737186e+00 0.000000e+00 -8.737186e+00 -1.838983e+01 0.000000e+00 0.000000e+00 0.000000e+00 0.000000e+00 9.893341e+01 -3.080834e+01 0.000000e+00 -3.080834e+01 1.442326e+02 0.000000e+00 0.000000e+00 0.000000e+00 0.000000e+00 7.630264e+01 -2.387436e+01 0.000000e+00 -2.387436e+01 1.637492e+02 0.000000e+00 0.000000e+00 0.000000e+00 0.000000e+00 3.475056e+01 -1.457634e+01 0.000000e+00 -1.457634e+01 -6.379244e+00 0.000000e+00 0.000000e+00 0.000000e+00 0.000000e+00 1.045505e+02 -3.402262e+01 0.000000e+00 -3.402262e+01 1.259657e+02 0.000000e+00 0.000000e+00 0.000000e+00 0.000000e+00 8.024869e+01 -2.673884e+01 0.000000e+00 -2.673884e+01 1.369535e+02 0.000000e+00 0.000000e+00 0.000000e+00 0.000000e+00 1.557899e+01 1.765105e+01 0.000000e+00 1.765105e+01 2.500144e+00 0.000000e+00 0.000000e+00 0.000000e+00 0.000000e+00 1.188211e+01 2.088032e+01 0.000000e+00 2.088032e+01 5.992169e+00 0.000000e+00 0.000000e+00 0.000000e+00 0.000000e+00 4.861110e+01 1.039513e+01 0.000000e+00 1.039513e+01 1.558732e+02 0.000000e+00 0.000000e+00 0.000000e+00 0.000000e+00 1.127658e+01 -2.455047e+01 0.000000e+00 -2.455047e+01 -2.902023e+01 0.000000e+00 0.000000e+00 0.000000e+00 0.000000e+00 4.172222e+01 2.281785e+01 0.000000e+00 2.281785e+01 1.290376e+02 0.000000e+00 0.000000e+00 0.000000e+00 0.000000e+00 -1.934095e+00 -2.996921e+01 0.000000e+00 -2.996921e+01 -3.254997e+00 0.000000e+00 0.000000e+00 0.000000e+00 0.000000e+00 8.635421e+01 -2.877238e+01 0.000000e+00 -2.877238e+01 1.178446e+02 0.000000e+00 0.000000e+00 0.000000e+00 0.000000e+00 1.484427e+00 -2.751166e+01 0.000000e+00 -2.751166e+01 -1.083646e+01 0.000000e+00 0.000000e+00 0.000000e+00 0.000000e+00 1.886818e+01 -1.018357e+01 0.000000e+00 -1.018357e+01 -3.176330e+01 0.000000e+00 0.000000e+00 0.000000e+00 0.000000e+00 8.027557e+01 -3.270390e+01 0.000000e+00 -3.270390e+01 8.754969e+01 0.000000e+00 0.000000e+00 0.000000e+00 0.000000e+00 -2.776054e+00 -2.804309e+01 0.000000e+00 -2.804309e+01 -3.604800e+00 0.000000e+00 0.000000e+00 0.000000e+00 0.000000e+00 7.955168e+00 -2.849213e+01 0.000000e+00 -2.849213e+01 -2.051552e+01 0.000000e+00 0.000000e+00 0.000000e+00 0.000000e+00 3.770053e+01 -1.521022e+01 0.000000e+00 -1.521022e+01 3.036413e+00 0.000000e+00 0.000000e+00 0.000000e+00 0.000000e+00 3.369718e+01 2.813491e+01 0.000000e+00 2.813491e+01 2.757118e+01 0.000000e+00 0.000000e+00 0.000000e+00 0.000000e+00 2.770371e+01 1.779087e+01 0.000000e+00 1.779087e+01 4.484643e+00 0.000000e+00 0.000000e+00 0.000000e+00 0.000000e+00 1.299955e+00 1.983625e+01 0.000000e+00 1.983625e+01 6.999168e+00 0.000000e+00 0.000000e+00 0.000000e+00 0.000000e+00 2.078666e+01 1.836206e+01 0.000000e+00 1.836206e+01 4.863176e+00 0.000000e+00 0.000000e+00 0.000000e+00 0.000000e+00 2.377979e+01 -1.284616e+01 0.000000e+00 -1.284616e+01 -2.190577e+01 0.000000e+00 0.000000e+00 0.000000e+00 0.000000e+00 4.727851e+01 -1.719204e+01 0.000000e+00 -1.719204e+01 1.098026e+01 0.000000e+00 0.000000e+00 0.000000e+00 0.000000e+00 4.385052e+01 -1.625597e+01 0.000000e+00 -1.625597e+01 1.278877e+01 0.000000e+00 0.000000e+00 0.000000e+00 0.000000e+00 -8.640540e+00 -2.022568e+01 0.000000e+00 -2.022568e+01 3.166229e+01 0.000000e+00 0.000000e+00 0.000000e+00 0.000000e+00 7.537600e+01 -2.823550e+01 0.000000e+00 -2.823550e+01 6.633617e+01 0.000000e+00 0.000000e+00 0.000000e+00 0.000000e+00 4.222276e+00 -1.099311e+01 0.000000e+00 -1.099311e+01 -5.043416e+01 0.000000e+00 0.000000e+00 0.000000e+00 0.000000e+00 7.855258e+01 -2.387598e+01 0.000000e+00 -2.387598e+01 7.245120e+01 0.000000e+00 0.000000e+00 0.000000e+00 0.000000e+00 -1.426802e+01 -2.301437e+01 0.000000e+00 -2.301437e+01 8.752314e+00 0.000000e+00 0.000000e+00 0.000000e+00 0.000000e+00 -8.049571e+00 -2.656924e+01 0.000000e+00 -2.656924e+01 2.842474e+00 0.000000e+00 0.000000e+00 0.000000e+00 0.000000e+00 3.646276e+01 -1.580894e+01 0.000000e+00 -1.580894e+01 -1.488356e+00 0.000000e+00 0.000000e+00 0.000000e+00 0.000000e+00 3.782501e+01 -1.432495e+01 0.000000e+00 -1.432495e+01 1.915397e-01 0.000000e+00 0.000000e+00 0.000000e+00 0.000000e+00 6.370831e+01 -2.261955e+01 0.000000e+00 -2.261955e+01 4.803938e+01 0.000000e+00 0.000000e+00 0.000000e+00 0.000000e+00 8.576525e+00 -7.558799e+00 0.000000e+00 -7.558799e+00 -4.626774e+01 0.000000e+00 0.000000e+00 0.000000e+00 0.000000e+00 1.330009e+01 -7.730879e+00 0.000000e+00 -7.730879e+00 -4.487150e+01 0.000000e+00 0.000000e+00 0.000000e+00 0.000000e+00 -4.727053e+00 -2.963524e+01 0.000000e+00 -2.963524e+01 9.602715e+00 0.000000e+00 0.000000e+00 0.000000e+00 0.000000e+00 6.411867e+01 -2.359935e+01 0.000000e+00 -2.359935e+01 5.894101e+01 0.000000e+00 0.000000e+00 0.000000e+00 0.000000e+00 1.218795e+01 -1.058588e+01 0.000000e+00 -1.058588e+01 -3.685400e+01 0.000000e+00 0.000000e+00 0.000000e+00 0.000000e+00 1.709998e+01 -1.198941e+01 0.000000e+00 -1.198941e+01 -3.506825e+01 0.000000e+00 0.000000e+00 0.000000e+00 0.000000e+00 5.014288e+00 -2.412979e+01 0.000000e+00 -2.412979e+01 -2.100370e+01 0.000000e+00 0.000000e+00 0.000000e+00 0.000000e+00 1.136855e+01 -9.189068e+00 0.000000e+00 -9.189068e+00 -4.788847e+01 0.000000e+00 0.000000e+00 0.000000e+00 0.000000e+00 2.448352e+01 -1.288152e+01 0.000000e+00 -1.288152e+01 -1.677735e+01 0.000000e+00 0.000000e+00 0.000000e+00 0.000000e+00 3.197533e+01 -1.386793e+01 0.000000e+00 -1.386793e+01 -4.300129e+00 0.000000e+00 0.000000e+00 0.000000e+00 0.000000e+00 3.070220e+01 2.131691e+01 0.000000e+00 2.131691e+01 9.246443e+01 0.000000e+00 0.000000e+00 0.000000e+00 0.000000e+00 3.447629e+01 2.793965e+01 0.000000e+00 2.793965e+01 9.958729e+01 0.000000e+00 0.000000e+00 0.000000e+00 0.000000e+00 6.770071e+01 -2.592440e+01 0.000000e+00 -2.592440e+01 9.229092e+01 0.000000e+00 0.000000e+00 0.000000e+00 0.000000e+00 8.238867e+01 -3.365694e+01 0.000000e+00 -3.365694e+01 1.063473e+02 0.000000e+00 0.000000e+00 0.000000e+00 0.000000e+00 1.891802e+01 -2.755705e+01 0.000000e+00 -2.755705e+01 1.586338e+01 0.000000e+00 0.000000e+00 0.000000e+00 0.000000e+00 4.335834e+01 -1.568488e+01 0.000000e+00 -1.568488e+01 4.767960e+00 0.000000e+00 0.000000e+00 0.000000e+00 0.000000e+00 2.434922e+01 -1.130362e+01 0.000000e+00 -1.130362e+01 -1.971791e+01 0.000000e+00 0.000000e+00 0.000000e+00 0.000000e+00 -1.100553e+01 -2.540653e+01 0.000000e+00 -2.540653e+01 1.665584e+01 0.000000e+00 0.000000e+00 0.000000e+00 0.000000e+00 5.997508e+00 -8.368230e+00 0.000000e+00 -8.368230e+00 -4.970081e+01 0.000000e+00 0.000000e+00 0.000000e+00 0.000000e+00 3.283615e+01 -1.224063e+01 0.000000e+00 -1.224063e+01 -1.103236e+01 0.000000e+00 0.000000e+00 0.000000e+00 0.000000e+00 2.814167e+01 -1.253774e+01 0.000000e+00 -1.253774e+01 -1.247455e+01 0.000000e+00 0.000000e+00 0.000000e+00 0.000000e+00 2.851908e+01 -1.318990e+01 0.000000e+00 -1.318990e+01 -8.666255e+00 0.000000e+00 0.000000e+00 0.000000e+00 0.000000e+00 2.896554e+01 -1.181811e+01 0.000000e+00 -1.181811e+01 -1.499364e+01 0.000000e+00 0.000000e+00 0.000000e+00 0.000000e+00 -6.590347e+00 -2.254899e+01 0.000000e+00 -2.254899e+01 2.053767e+01 0.000000e+00 0.000000e+00 0.000000e+00 0.000000e+00 1.143493e+01 -1.996566e+01 0.000000e+00 -1.996566e+01 -3.544013e+01 0.000000e+00 0.000000e+00 0.000000e+00 0.000000e+00 3.617425e+01 1.429055e+01 0.000000e+00 1.429055e+01 1.155881e+02 0.000000e+00 0.000000e+00 0.000000e+00 0.000000e+00 3.346226e+01 -1.871754e+01 0.000000e+00 -1.871754e+01 -3.639610e+00 0.000000e+00 0.000000e+00 0.000000e+00 0.000000e+00 7.061914e+00 -3.113980e+01 0.000000e+00 -3.113980e+01 -6.144091e+00 0.000000e+00 0.000000e+00 0.000000e+00 0.000000e+00 2.390778e+00 1.828972e+01 0.000000e+00 1.828972e+01 6.714229e+00 0.000000e+00 0.000000e+00 0.000000e+00 0.000000e+00 9.289525e+00 -2.378848e+01 0.000000e+00 -2.378848e+01 -2.382567e+01 0.000000e+00 0.000000e+00 0.000000e+00 0.000000e+00 1.097697e+01 -1.822190e+01 0.000000e+00 -1.822190e+01 -3.372700e+01 0.000000e+00 0.000000e+00 0.000000e+00 0.000000e+00 6.469802e+01 -2.334752e+01 0.000000e+00 -2.334752e+01 4.380766e+01 0.000000e+00 0.000000e+00 0.000000e+00 0.000000e+00 1.736716e+01 -9.171695e+00 0.000000e+00 -9.171695e+00 -2.936273e+01 0.000000e+00 0.000000e+00 0.000000e+00 0.000000e+00 1.800594e+01 -1.240897e+01 0.000000e+00 -1.240897e+01 7.274976e+01 0.000000e+00 0.000000e+00 0.000000e+00 0.000000e+00 7.439800e-01 -3.152951e+01 0.000000e+00 -3.152951e+01 1.959507e+00 0.000000e+00 0.000000e+00 0.000000e+00 0.000000e+00 -4.570281e+00 -2.769720e+01 0.000000e+00 -2.769720e+01 9.382057e+00 0.000000e+00 0.000000e+00 0.000000e+00 0.000000e+00 3.806410e-01 -2.952742e+01 0.000000e+00 -2.952742e+01 3.817349e+00 0.000000e+00 0.000000e+00 0.000000e+00 0.000000e+00 4.354946e+00 -8.602279e+00 0.000000e+00 -8.602279e+00 -5.377708e+01 0.000000e+00 0.000000e+00 0.000000e+00 0.000000e+00 6.170256e+01 -1.866117e+01 0.000000e+00 -1.866117e+01 2.876590e+01 0.000000e+00 0.000000e+00 0.000000e+00 0.000000e+00 5.465454e+01 -1.861467e+01 0.000000e+00 -1.861467e+01 2.665190e+01 0.000000e+00 0.000000e+00 0.000000e+00 0.000000e+00 5.416038e+01 -2.028567e+01 0.000000e+00 -2.028567e+01 3.245216e+01 0.000000e+00 0.000000e+00 0.000000e+00 0.000000e+00 2.414375e+01 2.661514e+01 0.000000e+00 2.661514e+01 4.332973e+01 0.000000e+00 0.000000e+00 0.000000e+00 0.000000e+00 1.970916e+01 1.589671e+01 0.000000e+00 1.589671e+01 1.426108e+00 0.000000e+00 0.000000e+00 0.000000e+00 0.000000e+00 -2.713852e+00 2.047505e+01 0.000000e+00 2.047505e+01 6.811436e+00 0.000000e+00 0.000000e+00 0.000000e+00 0.000000e+00 7.922534e+01 -2.649805e+01 0.000000e+00 -2.649805e+01 6.804241e+01 0.000000e+00 0.000000e+00 0.000000e+00 0.000000e+00 1.131387e+01 -1.514032e+01 0.000000e+00 -1.514032e+01 -4.440281e+01 0.000000e+00 0.000000e+00 0.000000e+00 0.000000e+00 5.515653e+01 -2.255003e+01 0.000000e+00 -2.255003e+01 4.086464e+01 0.000000e+00 0.000000e+00 0.000000e+00 0.000000e+00 4.057886e+01 -1.793625e+00 0.000000e+00 -1.793625e+00 1.334278e+02 0.000000e+00 0.000000e+00 0.000000e+00 0.000000e+00 5.607223e+01 -2.787035e+01 0.000000e+00 -2.787035e+01 5.292434e+01 0.000000e+00 0.000000e+00 0.000000e+00 0.000000e+00 1.938041e+01 1.931405e+01 0.000000e+00 1.931405e+01 4.151148e+00 0.000000e+00 0.000000e+00 0.000000e+00 0.000000e+00 5.766510e+01 -2.647372e+01 0.000000e+00 -2.647372e+01 3.999631e+01 0.000000e+00 0.000000e+00 0.000000e+00 0.000000e+00 -4.283264e+00 -1.396304e+01 0.000000e+00 -1.396304e+01 4.564295e+01 0.000000e+00 0.000000e+00 0.000000e+00 0.000000e+00 1.060478e+01 -9.356261e+00 0.000000e+00 -9.356261e+00 -4.174083e+01 0.000000e+00 0.000000e+00 0.000000e+00 0.000000e+00 6.635382e+01 -2.758292e+01 0.000000e+00 -2.758292e+01 7.970660e+01 0.000000e+00 0.000000e+00 0.000000e+00 0.000000e+00 4.950821e+01 -1.183608e+01 0.000000e+00 -1.183608e+01 8.220101e+00 0.000000e+00 0.000000e+00 0.000000e+00 0.000000e+00 1.097156e+01 -1.072064e+01 0.000000e+00 -1.072064e+01 -5.107773e+01 0.000000e+00 0.000000e+00 0.000000e+00 0.000000e+00 6.450218e+01 -2.755558e+01 0.000000e+00 -2.755558e+01 5.534625e+01 0.000000e+00 0.000000e+00 0.000000e+00 0.000000e+00 2.038863e+00 1.784907e+01 0.000000e+00 1.784907e+01 1.876763e+01 0.000000e+00 0.000000e+00 0.000000e+00 0.000000e+00 5.797793e+01 -1.583323e+01 0.000000e+00 -1.583323e+01 1.499351e+02 0.000000e+00 0.000000e+00 0.000000e+00 0.000000e+00 4.365405e+01 -7.426729e+00 0.000000e+00 -7.426729e+00 1.146588e+02 0.000000e+00 0.000000e+00 0.000000e+00 0.000000e+00 6.542689e+01 -3.114183e+01 0.000000e+00 -3.114183e+01 7.411591e+01 0.000000e+00 0.000000e+00 0.000000e+00 0.000000e+00 1.095876e+01 -2.856666e+01 0.000000e+00 -2.856666e+01 -1.271025e+01 0.000000e+00 0.000000e+00 0.000000e+00 0.000000e+00 2.117459e+01 -1.704058e+01 0.000000e+00 -1.704058e+01 -1.742623e+01 0.000000e+00 0.000000e+00 0.000000e+00 0.000000e+00 1.025758e+01 -8.132559e+00 0.000000e+00 -8.132559e+00 -4.536939e+01 0.000000e+00 0.000000e+00 0.000000e+00 0.000000e+00 1.089447e+01 -1.254728e+01 0.000000e+00 -1.254728e+01 -4.204106e+01 0.000000e+00 0.000000e+00 0.000000e+00 0.000000e+00 4.751074e+01 -2.320084e+01 0.000000e+00 -2.320084e+01 2.179705e+01 0.000000e+00 0.000000e+00 0.000000e+00 0.000000e+00 1.161874e+01 -2.285451e+01 0.000000e+00 -2.285451e+01 -2.286072e+01 0.000000e+00 0.000000e+00 0.000000e+00 0.000000e+00 1.882404e+01 -1.117174e+01 0.000000e+00 -1.117174e+01 -2.410332e+01 0.000000e+00 0.000000e+00 0.000000e+00 0.000000e+00 2.915238e+01 2.943591e+00 0.000000e+00 2.943591e+00 9.945408e+01 0.000000e+00 0.000000e+00 0.000000e+00 0.000000e+00 5.075087e+01 -2.460155e+01 0.000000e+00 -2.460155e+01 4.564277e+01 0.000000e+00 0.000000e+00 0.000000e+00 0.000000e+00 -9.914068e+00 -2.444122e+01 0.000000e+00 -2.444122e+01 1.121326e+01 0.000000e+00 0.000000e+00 0.000000e+00 0.000000e+00 5.288070e+01 -2.787279e+01 0.000000e+00 -2.787279e+01 6.879403e+01 0.000000e+00 0.000000e+00 0.000000e+00 0.000000e+00 5.120586e+01 -3.015484e+01 0.000000e+00 -3.015484e+01 6.216616e+01 0.000000e+00 0.000000e+00 0.000000e+00 0.000000e+00 3.044082e+01 -1.762880e+01 0.000000e+00 -1.762880e+01 -9.670222e-01 0.000000e+00 0.000000e+00 0.000000e+00 0.000000e+00 3.553131e+01 -2.012107e+01 0.000000e+00 -2.012107e+01 2.613477e+00 0.000000e+00 0.000000e+00 0.000000e+00 0.000000e+00 7.210916e+00 -9.815889e+00 0.000000e+00 -9.815889e+00 -4.715799e+01 0.000000e+00 0.000000e+00 0.000000e+00 0.000000e+00 2.440533e+01 -1.556179e+01 0.000000e+00 -1.556179e+01 -1.208409e+01 0.000000e+00 0.000000e+00 0.000000e+00 0.000000e+00 3.157105e+01 -1.581491e+01 0.000000e+00 -1.581491e+01 -9.938739e+00 0.000000e+00 0.000000e+00 0.000000e+00 0.000000e+00 2.319864e+01 2.177491e+01 0.000000e+00 2.177491e+01 6.740526e+01 0.000000e+00 0.000000e+00 0.000000e+00 0.000000e+00 2.962985e+01 -3.161528e+01 0.000000e+00 -3.161528e+01 3.497910e+01 0.000000e+00 0.000000e+00 0.000000e+00 0.000000e+00 -1.860746e+00 -2.404814e+01 0.000000e+00 -2.404814e+01 3.628948e+01 0.000000e+00 0.000000e+00 0.000000e+00 0.000000e+00 7.033489e+00 2.143673e+01 0.000000e+00 2.143673e+01 1.078287e+01 0.000000e+00 0.000000e+00 0.000000e+00 0.000000e+00 1.119058e+01 1.877792e+01 0.000000e+00 1.877792e+01 5.600344e+00 0.000000e+00 0.000000e+00 0.000000e+00 0.000000e+00 8.397176e+01 -2.849320e+01 0.000000e+00 -2.849320e+01 1.068021e+02 0.000000e+00 0.000000e+00 0.000000e+00 0.000000e+00 2.094994e+01 1.853909e+01 0.000000e+00 1.853909e+01 4.802401e+00 0.000000e+00 0.000000e+00 0.000000e+00 0.000000e+00 2.658470e+01 -1.662645e+01 0.000000e+00 -1.662645e+01 -6.703377e+00 0.000000e+00 0.000000e+00 0.000000e+00 0.000000e+00 7.518289e+00 -1.336625e+01 0.000000e+00 -1.336625e+01 -4.100546e+01 0.000000e+00 0.000000e+00 0.000000e+00 0.000000e+00 2.879047e+01 7.451645e+00 0.000000e+00 7.451645e+00 1.110053e+02 0.000000e+00 0.000000e+00 0.000000e+00 0.000000e+00 3.956985e+01 -1.481144e+01 0.000000e+00 -1.481144e+01 7.461190e+00 0.000000e+00 0.000000e+00 0.000000e+00 0.000000e+00 -6.868367e+00 1.750945e+01 0.000000e+00 1.750945e+01 3.870205e+00 0.000000e+00 0.000000e+00 0.000000e+00 0.000000e+00 5.629447e+01 -2.238430e+01 0.000000e+00 -2.238430e+01 2.999372e+01 0.000000e+00 0.000000e+00 0.000000e+00 0.000000e+00 5.417087e+01 -1.754129e+01 0.000000e+00 -1.754129e+01 2.328384e+01 0.000000e+00 0.000000e+00 0.000000e+00 0.000000e+00 -3.334243e+00 -1.801483e+01 0.000000e+00 -1.801483e+01 3.136732e+01 0.000000e+00 0.000000e+00 0.000000e+00 0.000000e+00 1.765385e+01 -1.722643e+01 0.000000e+00 -1.722643e+01 -2.445949e+01 0.000000e+00 0.000000e+00 0.000000e+00 0.000000e+00 1.180123e+01 2.175283e+01 0.000000e+00 2.175283e+01 1.200827e+01 0.000000e+00 0.000000e+00 0.000000e+00 0.000000e+00 1.606497e+01 2.181417e+01 0.000000e+00 2.181417e+01 1.074012e+01 0.000000e+00 0.000000e+00 0.000000e+00 0.000000e+00 -5.619477e+00 -2.686042e+01 0.000000e+00 -2.686042e+01 2.317148e+01 0.000000e+00 0.000000e+00 0.000000e+00 0.000000e+00 1.200610e+01 1.968451e+01 0.000000e+00 1.968451e+01 1.029658e+01 0.000000e+00 0.000000e+00 0.000000e+00 0.000000e+00 3.876215e-01 1.284295e+01 0.000000e+00 1.284295e+01 4.054646e+01 0.000000e+00 0.000000e+00 0.000000e+00 0.000000e+00 2.695469e+01 -1.608023e+01 0.000000e+00 -1.608023e+01 -1.541676e+01 0.000000e+00 0.000000e+00 0.000000e+00 0.000000e+00 2.105704e+01 2.423222e+01 0.000000e+00 2.423222e+01 1.818003e+01 0.000000e+00 0.000000e+00 0.000000e+00 0.000000e+00 1.731563e+01 2.229119e+01 0.000000e+00 2.229119e+01 2.828838e+01 0.000000e+00 0.000000e+00 0.000000e+00 0.000000e+00 -1.538311e+00 -2.949810e+01 0.000000e+00 -2.949810e+01 1.238092e+01 0.000000e+00 0.000000e+00 0.000000e+00 0.000000e+00 4.790728e+01 -2.453308e+01 0.000000e+00 -2.453308e+01 3.635243e+01 0.000000e+00 0.000000e+00 0.000000e+00 0.000000e+00 2.220769e+01 2.603001e+01 0.000000e+00 2.603001e+01 3.023150e+01 0.000000e+00 0.000000e+00 0.000000e+00 0.000000e+00 6.793415e+00 -5.689839e+00 0.000000e+00 -5.689839e+00 -8.546029e+01 0.000000e+00 0.000000e+00 0.000000e+00 0.000000e+00 1.388999e+01 -1.219739e+01 0.000000e+00 -1.219739e+01 -4.106620e+01 0.000000e+00 0.000000e+00 0.000000e+00 0.000000e+00 8.554516e+00 -7.676443e+00 0.000000e+00 -7.676443e+00 -5.942350e+01 0.000000e+00 0.000000e+00 0.000000e+00 0.000000e+00 4.152506e+00 1.561968e+01 0.000000e+00 1.561968e+01 2.525904e+01 0.000000e+00 0.000000e+00 0.000000e+00 0.000000e+00 4.475159e+01 -2.204429e+01 0.000000e+00 -2.204429e+01 1.555661e+01 0.000000e+00 0.000000e+00 0.000000e+00 0.000000e+00 4.095370e+01 -2.029536e+01 0.000000e+00 -2.029536e+01 1.709500e+01 0.000000e+00 0.000000e+00 0.000000e+00 0.000000e+00 -3.869344e+00 -4.964038e-01 0.000000e+00 -4.964038e-01 4.762116e+01 0.000000e+00 0.000000e+00 0.000000e+00 0.000000e+00 -2.295094e+00 7.332692e+00 0.000000e+00 7.332692e+00 3.243334e+01 0.000000e+00 0.000000e+00 0.000000e+00 0.000000e+00 -5.726989e+00 -6.355079e+00 0.000000e+00 -6.355079e+00 3.491249e+01 0.000000e+00 0.000000e+00 0.000000e+00 0.000000e+00 3.377019e+00 -3.420800e+00 0.000000e+00 -3.420800e+00 -8.920331e+01 0.000000e+00 0.000000e+00 0.000000e+00 0.000000e+00 2.202335e+01 -1.535034e+01 0.000000e+00 -1.535034e+01 -2.182440e+01 0.000000e+00 0.000000e+00 0.000000e+00 0.000000e+00 1.406329e+01 -2.547844e+01 0.000000e+00 -2.547844e+01 -1.344315e+01 0.000000e+00 0.000000e+00 0.000000e+00 0.000000e+00 7.788060e+01 -3.014453e+01 0.000000e+00 -3.014453e+01 1.304228e+02 0.000000e+00 0.000000e+00 0.000000e+00 0.000000e+00 3.389058e+01 -1.096925e+01 0.000000e+00 -1.096925e+01 1.132401e+02 0.000000e+00 0.000000e+00 0.000000e+00 0.000000e+00 4.957888e+01 -3.028129e+01 0.000000e+00 -3.028129e+01 4.569897e+01 0.000000e+00 0.000000e+00 0.000000e+00 0.000000e+00 4.150494e+01 -2.624823e+01 0.000000e+00 -2.624823e+01 5.598362e+01 0.000000e+00 0.000000e+00 0.000000e+00 0.000000e+00 3.455400e+01 -1.833977e+01 0.000000e+00 -1.833977e+01 4.536847e+00 0.000000e+00 0.000000e+00 0.000000e+00 0.000000e+00 3.192622e+01 -2.311155e+01 0.000000e+00 -2.311155e+01 4.306011e-01 0.000000e+00 0.000000e+00 0.000000e+00 0.000000e+00 6.304935e+01 -1.537351e+01 0.000000e+00 -1.537351e+01 1.375369e+02 0.000000e+00 0.000000e+00 0.000000e+00 0.000000e+00 1.821351e+00 -2.493357e+01 0.000000e+00 -2.493357e+01 2.467763e+01 0.000000e+00 0.000000e+00 0.000000e+00 0.000000e+00 4.843228e+01 -2.551514e+01 0.000000e+00 -2.551514e+01 3.134299e+01 0.000000e+00 0.000000e+00 0.000000e+00 0.000000e+00 1.283232e+01 -2.027603e+01 0.000000e+00 -2.027603e+01 -2.450521e+01 0.000000e+00 0.000000e+00 0.000000e+00 0.000000e+00 6.683373e+01 -2.697286e+01 0.000000e+00 -2.697286e+01 1.253224e+02 0.000000e+00 0.000000e+00 0.000000e+00 0.000000e+00 1.878816e+01 -1.357421e+01 0.000000e+00 -1.357421e+01 -2.905094e+01 0.000000e+00 0.000000e+00 0.000000e+00 0.000000e+00 1.452211e+01 -1.146890e+01 0.000000e+00 -1.146890e+01 -3.196224e+01 0.000000e+00 0.000000e+00 0.000000e+00 0.000000e+00 2.156245e+01 -1.215302e+01 0.000000e+00 -1.215302e+01 -2.709235e+01 0.000000e+00 0.000000e+00 0.000000e+00 0.000000e+00 5.702124e+00 -3.237145e+01 0.000000e+00 -3.237145e+01 8.334125e+00 0.000000e+00 0.000000e+00 0.000000e+00 0.000000e+00 5.014854e+01 -2.283549e+01 0.000000e+00 -2.283549e+01 2.817546e+01 0.000000e+00 0.000000e+00 0.000000e+00 0.000000e+00 4.818812e+01 -2.100395e+01 0.000000e+00 -2.100395e+01 2.304272e+01 0.000000e+00 0.000000e+00 0.000000e+00 0.000000e+00 2.952288e+01 -2.032576e+01 0.000000e+00 -2.032576e+01 -7.845874e+00 0.000000e+00 0.000000e+00 0.000000e+00 0.000000e+00 2.152229e+01 -1.877855e+01 0.000000e+00 -1.877855e+01 -1.071577e+01 0.000000e+00 0.000000e+00 0.000000e+00 0.000000e+00 2.566533e+01 2.761151e+01 0.000000e+00 2.761151e+01 4.443270e+01 0.000000e+00 0.000000e+00 0.000000e+00 0.000000e+00 6.465276e+01 -3.247363e+01 0.000000e+00 -3.247363e+01 1.016371e+02 0.000000e+00 0.000000e+00 0.000000e+00 0.000000e+00 4.316334e+01 -2.685891e+01 0.000000e+00 -2.685891e+01 2.959733e+01 0.000000e+00 0.000000e+00 0.000000e+00 0.000000e+00 5.194862e+01 -2.551270e+01 0.000000e+00 -2.551270e+01 8.849985e+01 0.000000e+00 0.000000e+00 0.000000e+00 0.000000e+00 4.893029e+01 -2.789504e+01 0.000000e+00 -2.789504e+01 8.007738e+01 0.000000e+00 0.000000e+00 0.000000e+00 0.000000e+00 5.783377e+01 -2.123739e+01 0.000000e+00 -2.123739e+01 1.034832e+02 0.000000e+00 0.000000e+00 0.000000e+00 0.000000e+00 3.039826e+00 -1.878464e+01 0.000000e+00 -1.878464e+01 5.323061e+01 0.000000e+00 0.000000e+00 0.000000e+00 0.000000e+00 2.164440e+01 1.026542e+01 0.000000e+00 1.026542e+01 8.750179e+01 0.000000e+00 0.000000e+00 0.000000e+00 0.000000e+00 7.062488e+00 -3.028382e+01 0.000000e+00 -3.028382e+01 -3.314457e-01 0.000000e+00 0.000000e+00 0.000000e+00 0.000000e+00 1.122491e+01 -2.681749e+01 0.000000e+00 -2.681749e+01 -1.178311e+01 0.000000e+00 0.000000e+00 0.000000e+00 0.000000e+00 1.396166e+01 -2.920172e+01 0.000000e+00 -2.920172e+01 -1.401850e+00 0.000000e+00 0.000000e+00 0.000000e+00 0.000000e+00 1.620262e+01 -2.407317e+01 0.000000e+00 -2.407317e+01 -1.251996e+01 0.000000e+00 0.000000e+00 0.000000e+00 0.000000e+00 1.205661e+01 2.046796e+01 0.000000e+00 2.046796e+01 4.392305e+01 0.000000e+00 0.000000e+00 0.000000e+00 0.000000e+00 8.191294e+00 1.610158e+01 0.000000e+00 1.610158e+01 3.999019e+01 0.000000e+00 0.000000e+00 0.000000e+00 0.000000e+00 1.539194e+01 1.993763e+01 0.000000e+00 1.993763e+01 5.946644e+01 0.000000e+00 0.000000e+00 0.000000e+00 0.000000e+00 4.870259e+00 9.443032e+00 0.000000e+00 9.443032e+00 5.549153e+01 0.000000e+00 0.000000e+00 0.000000e+00 0.000000e+00 3.957292e+01 -1.890168e+01 0.000000e+00 -1.890168e+01 1.034613e+01 0.000000e+00 0.000000e+00 0.000000e+00 0.000000e+00 4.037571e+01 -2.747213e+01 0.000000e+00 -2.747213e+01 4.124459e+01 0.000000e+00 0.000000e+00 0.000000e+00 0.000000e+00 2.778427e+01 -2.487475e+01 0.000000e+00 -2.487475e+01 5.219561e+01 0.000000e+00 0.000000e+00 0.000000e+00 0.000000e+00 4.009966e+01 -2.631534e+01 0.000000e+00 -2.631534e+01 7.736655e+01 0.000000e+00 0.000000e+00 0.000000e+00 0.000000e+00 2.479886e+01 -2.024001e+01 0.000000e+00 -2.024001e+01 -3.772777e+00 0.000000e+00 0.000000e+00 0.000000e+00 0.000000e+00 1.561220e+01 -1.628602e+01 0.000000e+00 -1.628602e+01 -3.268532e+01 0.000000e+00 0.000000e+00 0.000000e+00 0.000000e+00 4.116255e+01 -2.112146e+01 0.000000e+00 -2.112146e+01 8.738305e+00 0.000000e+00 0.000000e+00 0.000000e+00 0.000000e+00 4.927014e+01 -2.170083e+01 0.000000e+00 -2.170083e+01 1.231269e+02 0.000000e+00 0.000000e+00 0.000000e+00 0.000000e+00 2.017741e+00 -1.270742e+01 0.000000e+00 -1.270742e+01 4.391983e+01 0.000000e+00 0.000000e+00 0.000000e+00 0.000000e+00 1.709456e+01 -1.974857e+01 0.000000e+00 -1.974857e+01 -2.310972e+01 0.000000e+00 0.000000e+00 0.000000e+00 0.000000e+00 3.480071e+01 -2.510472e+01 0.000000e+00 -2.510472e+01 8.478825e+00 0.000000e+00 0.000000e+00 0.000000e+00 0.000000e+00 2.251110e+01 -1.111493e+01 0.000000e+00 -1.111493e+01 -2.676592e+01 0.000000e+00 0.000000e+00 0.000000e+00 0.000000e+00 2.784241e+01 -2.170099e+01 0.000000e+00 -2.170099e+01 3.009886e+00 0.000000e+00 0.000000e+00 0.000000e+00 0.000000e+00 6.038443e+00 -2.961610e+00 0.000000e+00 -2.961610e+00 -1.080536e+02 0.000000e+00 0.000000e+00 0.000000e+00 0.000000e+00 -4.098387e-01 -2.789249e+01 0.000000e+00 -2.789249e+01 1.635222e+01 0.000000e+00 0.000000e+00 0.000000e+00 0.000000e+00 1.080045e+01 -1.299236e+01 0.000000e+00 -1.299236e+01 -3.564218e+01 0.000000e+00 0.000000e+00 0.000000e+00 0.000000e+00 7.318800e+00 -2.465963e+01 0.000000e+00 -2.465963e+01 3.612918e+01 0.000000e+00 0.000000e+00 0.000000e+00 0.000000e+00 5.170571e+00 -2.560793e+01 0.000000e+00 -2.560793e+01 3.709627e+01 0.000000e+00 0.000000e+00 0.000000e+00 0.000000e+00 3.792442e+01 -2.368166e+01 0.000000e+00 -2.368166e+01 2.314925e+01 0.000000e+00 0.000000e+00 0.000000e+00 0.000000e+00 3.847994e+01 -2.209180e+01 0.000000e+00 -2.209180e+01 9.971558e+01 0.000000e+00 0.000000e+00 0.000000e+00 0.000000e+00 1.225963e+01 2.001599e+01 0.000000e+00 2.001599e+01 1.725560e+01 0.000000e+00 0.000000e+00 0.000000e+00 0.000000e+00 2.238060e+00 -6.017357e+00 0.000000e+00 -6.017357e+00 6.170019e+01 0.000000e+00 0.000000e+00 0.000000e+00 0.000000e+00 5.411795e+00 -2.961294e+01 0.000000e+00 -2.961294e+01 1.030381e+01 0.000000e+00 0.000000e+00 0.000000e+00 0.000000e+00 1.055675e+01 -3.110583e+01 0.000000e+00 -3.110583e+01 1.034558e+00 0.000000e+00 0.000000e+00 0.000000e+00 0.000000e+00 2.529396e+01 -7.570985e+00 0.000000e+00 -7.570985e+00 8.725090e+01 0.000000e+00 0.000000e+00 0.000000e+00 0.000000e+00 2.179145e+01 -5.051502e+00 0.000000e+00 -5.051502e+00 9.662770e+01 0.000000e+00 0.000000e+00 0.000000e+00 0.000000e+00 1.227133e+01 -3.158322e+01 0.000000e+00 -3.158322e+01 1.008147e+01 0.000000e+00 0.000000e+00 0.000000e+00 0.000000e+00 1.703276e+01 -2.875592e+01 0.000000e+00 -2.875592e+01 -4.995438e-01 0.000000e+00 0.000000e+00 0.000000e+00 0.000000e+00 1.345805e+01 -1.735043e+01 0.000000e+00 -1.735043e+01 -3.408871e+01 0.000000e+00 0.000000e+00 0.000000e+00 0.000000e+00 3.973379e+01 -2.896554e+01 0.000000e+00 -2.896554e+01 3.572108e+01 0.000000e+00 0.000000e+00 0.000000e+00 0.000000e+00 9.197287e+00 -1.297432e+01 0.000000e+00 -1.297432e+01 6.786943e+01 0.000000e+00 0.000000e+00 0.000000e+00 0.000000e+00 3.330617e+01 -2.247435e+01 0.000000e+00 -2.247435e+01 1.020516e+01 0.000000e+00 0.000000e+00 0.000000e+00 0.000000e+00 1.674075e+01 -1.553773e+01 0.000000e+00 -1.553773e+01 -3.244032e+01 0.000000e+00 0.000000e+00 0.000000e+00 0.000000e+00 2.435387e+01 -2.142577e+01 0.000000e+00 -2.142577e+01 -1.392200e+01 0.000000e+00 0.000000e+00 0.000000e+00 0.000000e+00 4.029490e+01 -3.087887e+01 0.000000e+00 -3.087887e+01 5.423067e+01 0.000000e+00 0.000000e+00 0.000000e+00 0.000000e+00 3.168872e+01 -2.902973e+01 0.000000e+00 -2.902973e+01 1.556330e+01 0.000000e+00 0.000000e+00 0.000000e+00 0.000000e+00 1.870993e+01 -2.106116e+01 0.000000e+00 -2.106116e+01 -8.496741e+00 0.000000e+00 0.000000e+00 0.000000e+00 0.000000e+00 1.951906e+01 -2.683623e+01 0.000000e+00 -2.683623e+01 -4.353174e+00 0.000000e+00 0.000000e+00 0.000000e+00 0.000000e+00 2.712831e+01 -2.461923e+01 0.000000e+00 -2.461923e+01 -3.329605e+00 0.000000e+00 0.000000e+00 0.000000e+00 0.000000e+00 3.655810e+01 -2.984207e+01 0.000000e+00 -2.984207e+01 2.570362e+01 0.000000e+00 0.000000e+00 0.000000e+00 0.000000e+00 3.196166e+01 -2.580967e+01 0.000000e+00 -2.580967e+01 3.095076e+01 0.000000e+00 0.000000e+00 0.000000e+00 0.000000e+00 3.205169e+01 -2.053550e+01 0.000000e+00 -2.053550e+01 7.896491e+01 0.000000e+00 0.000000e+00 0.000000e+00 0.000000e+00 2.590656e+01 -1.679341e+01 0.000000e+00 -1.679341e+01 9.304354e+01 0.000000e+00 0.000000e+00 0.000000e+00 0.000000e+00 1.759739e+01 7.103875e+00 0.000000e+00 7.103875e+00 7.502428e+01 0.000000e+00 0.000000e+00 0.000000e+00 0.000000e+00 2.291391e+00 3.957438e+00 0.000000e+00 3.957438e+00 4.571181e+01 0.000000e+00 0.000000e+00 0.000000e+00 0.000000e+00 3.759419e+01 -2.795720e+01 0.000000e+00 -2.795720e+01 6.903313e+01 0.000000e+00 0.000000e+00 0.000000e+00 0.000000e+00 3.115266e+01 -2.514145e+01 0.000000e+00 -2.514145e+01 6.479598e+01 0.000000e+00 0.000000e+00 0.000000e+00 0.000000e+00 2.705022e+01 -2.187484e+01 0.000000e+00 -2.187484e+01 7.990361e+01 0.000000e+00 0.000000e+00 0.000000e+00 0.000000e+00 4.163729e+00 -3.129402e+01 0.000000e+00 -3.129402e+01 2.440239e+01 0.000000e+00 0.000000e+00 0.000000e+00 0.000000e+00 2.962538e+01 -2.705988e+01 0.000000e+00 -2.705988e+01 4.887656e+00 0.000000e+00 0.000000e+00 0.000000e+00 0.000000e+00 2.214264e+01 -2.413882e+01 0.000000e+00 -2.413882e+01 6.430739e-01 0.000000e+00 0.000000e+00 0.000000e+00 0.000000e+00 2.414534e+01 -2.512756e+01 0.000000e+00 -2.512756e+01 8.921714e+00 0.000000e+00 0.000000e+00 0.000000e+00 0.000000e+00 2.169036e+01 1.988002e+01 0.000000e+00 1.988002e+01 8.157686e+01 0.000000e+00 0.000000e+00 0.000000e+00 0.000000e+00 1.448143e+01 3.633878e+00 0.000000e+00 3.633878e+00 8.334550e+01 0.000000e+00 0.000000e+00 0.000000e+00 0.000000e+00 5.216820e+00 -2.793642e+01 0.000000e+00 -2.793642e+01 2.060528e+01 0.000000e+00 0.000000e+00 0.000000e+00 0.000000e+00 1.058465e+01 -3.292533e+01 0.000000e+00 -3.292533e+01 1.599790e+01 0.000000e+00 0.000000e+00 0.000000e+00 0.000000e+00 2.459695e+01 -3.073255e+01 0.000000e+00 -3.073255e+01 9.963206e+00 0.000000e+00 0.000000e+00 0.000000e+00 0.000000e+00 9.885956e+00 -1.183269e+01 0.000000e+00 -1.183269e+01 6.382186e+01 0.000000e+00 0.000000e+00 0.000000e+00 0.000000e+00 1.306987e+01 1.569805e+01 0.000000e+00 1.569805e+01 5.465798e+01 0.000000e+00 0.000000e+00 0.000000e+00 0.000000e+00 1.672312e+01 -2.061662e+01 0.000000e+00 -2.061662e+01 -1.631343e+01 0.000000e+00 0.000000e+00 0.000000e+00 0.000000e+00 9.982031e+00 2.251696e+01 0.000000e+00 2.251696e+01 2.802321e+01 0.000000e+00 0.000000e+00 0.000000e+00 0.000000e+00 3.314862e+01 -3.029332e+01 0.000000e+00 -3.029332e+01 4.591311e+01 0.000000e+00 0.000000e+00 0.000000e+00 0.000000e+00 3.198316e+01 -2.649996e+01 0.000000e+00 -2.649996e+01 4.626582e+01 0.000000e+00 0.000000e+00 0.000000e+00 0.000000e+00 1.199597e+01 -3.201432e+01 0.000000e+00 -3.201432e+01 2.834463e+01 0.000000e+00 0.000000e+00 0.000000e+00 0.000000e+00 1.358395e+01 -1.759725e+00 0.000000e+00 -1.759725e+00 7.199151e+01 0.000000e+00 0.000000e+00 0.000000e+00 0.000000e+00 1.147397e+01 -2.873917e+01 0.000000e+00 -2.873917e+01 1.070799e+01 0.000000e+00 0.000000e+00 0.000000e+00 0.000000e+00 2.876907e+01 -2.570438e+01 0.000000e+00 -2.570438e+01 1.850263e+01 0.000000e+00 0.000000e+00 0.000000e+00 0.000000e+00 4.289722e+01 -2.573174e+01 0.000000e+00 -2.573174e+01 1.814290e+01 0.000000e+00 0.000000e+00 0.000000e+00 0.000000e+00 3.828320e+01 -1.581682e+01 0.000000e+00 -1.581682e+01 9.380141e+01 0.000000e+00 0.000000e+00 0.000000e+00 0.000000e+00 1.515209e+01 -1.142706e+01 0.000000e+00 -1.142706e+01 8.167707e+01 0.000000e+00 0.000000e+00 0.000000e+00 0.000000e+00 1.451762e+01 -2.198079e+01 0.000000e+00 -2.198079e+01 4.807268e+01 0.000000e+00 0.000000e+00 0.000000e+00 0.000000e+00 2.323660e+01 -2.630904e+01 0.000000e+00 -2.630904e+01 -3.200516e+00 0.000000e+00 0.000000e+00 0.000000e+00 0.000000e+00 3.653253e+01 -2.472372e+01 0.000000e+00 -2.472372e+01 1.593666e+01 0.000000e+00 0.000000e+00 0.000000e+00 0.000000e+00 1.259706e+01 -2.731337e+01 0.000000e+00 -2.731337e+01 2.407616e+01 0.000000e+00 0.000000e+00 0.000000e+00 0.000000e+00 1.197038e+01 -2.528492e+01 0.000000e+00 -2.528492e+01 5.241874e+01 0.000000e+00 0.000000e+00 0.000000e+00 0.000000e+00 1.836657e+01 -3.336148e+01 0.000000e+00 -3.336148e+01 2.191266e+01 0.000000e+00 0.000000e+00 0.000000e+00 0.000000e+00 2.032011e+01 -2.218434e+01 0.000000e+00 -2.218434e+01 6.775299e+01 0.000000e+00 0.000000e+00 0.000000e+00 0.000000e+00 1.965927e+01 -3.206359e+01 0.000000e+00 -3.206359e+01 3.656604e+01 0.000000e+00 0.000000e+00 0.000000e+00 0.000000e+00 1.492518e+01 -1.478112e+01 0.000000e+00 -1.478112e+01 -2.758759e+01 0.000000e+00 0.000000e+00 0.000000e+00 0.000000e+00 1.734488e+01 -2.782939e+01 0.000000e+00 -2.782939e+01 5.754184e+00 0.000000e+00 0.000000e+00 0.000000e+00 0.000000e+00 9.782787e+00 5.641617e+00 0.000000e+00 5.641617e+00 7.067979e+01 0.000000e+00 0.000000e+00 0.000000e+00 0.000000e+00   </DataArray>
  <DataArray type="Float64" Name="IST_PrincipalStressTensor" NumberOfComponents="3" format="ascii">-1.421085e-14 -1.214249e+01 -9.899440e+01 3.552714e-15 -3.947251e+00 -8.828097e+01 4.200432e-01 -2.700062e-13 -7.870269e+01 3.297561e+00 -1.421085e-14 -6.965054e+01 6.012252e+00 1.065814e-14 -6.135730e+01 8.843189e+00 -5.329071e-15 -5.327024e+01 1.199664e+01 1.776357e-15 -4.590255e+01 1.539086e+01 -9.769963e-15 -3.888637e+01 1.913707e+01 0.000000e+00 -3.219695e+01 2.317959e+01 -5.107026e-15 -2.576805e+01 2.747789e+01 2.220446e-15 -1.918279e+01 3.225824e+01 -1.776357e-15 -1.299499e+01 3.742298e+01 1.776357e-15 -6.846036e+00 4.292543e+01 -8.171241e-14 -1.467824e-01 4.906240e+01 6.472045e+00 0.000000e+00 5.564101e+01 1.399866e+01 3.552714e-15 6.297929e+01 2.209026e+01 3.552714e-15 7.150354e+01 3.040350e+01 -7.105427e-15 8.108202e+01 4.085043e+01 7.105427e-15 9.264575e+01 5.232970e+01 7.105427e-15 1.072652e+02 6.618278e+01 7.105427e-15 1.273812e+02 8.475017e+01 0.000000e+00 1.594249e+02 1.097515e+02 -1.421085e-14 2.278610e+02 1.503577e+02 0.000000e+00 4.249961e+02 2.313032e+02 0.000000e+00 3.604572e+01 1.125393e+00 -1.243450e-14 3.165111e+01 -3.375078e-14 -6.619331e-01 2.465085e+01 -1.065814e-14 -6.520941e-01 1.367241e+01 -4.440892e-15 -5.028497e-01 1.668474e+01 4.008235e-01 -2.664535e-15 3.069793e+01 9.968597e-01 7.105427e-15 3.308133e+01 1.922994e+00 -1.065814e-14 9.279138e+00 0.000000e+00 -9.598486e-01 2.665689e+00 -1.332268e-15 -6.426235e+00 9.186859e-01 -1.110223e-15 -5.571895e+00 2.387535e-13 2.387535e-13 -9.927270e-01 1.023177e-02 6.661338e-15 -2.164371e+00 5.938323e-01 -1.110223e-16 -3.102234e+00 1.117826e+00 -1.665335e-16 -8.192632e-01 3.103822e+00 -1.110223e-16 -4.372365e-01 1.917449e+00 2.220446e-16 -3.432412e-01 8.113631e-01 -8.326673e-17 -1.481226e-01 7.495157e-01 -5.551115e-17 -4.290794e-01 7.999634e-01 -1.110223e-16 -4.755663e-01 1.604610e+00 -1.110223e-16 -4.292663e-02 2.366530e+00 5.551115e-17 -9.251809e-01 5.085892e-01 -2.220446e-16 -4.233299e+00 5.151967e-01 1.776357e-15 -2.104032e+01 1.473638e+00 -2.486900e-14 -4.347149e+01 3.457978e+00 -1.065814e-14 -5.927295e+01 5.195982e+00 -3.552714e-15 -4.598157e+01 3.939254e+00 -2.664535e-15 -2.406636e+01 1.124930e-01 4.884981e-15 -6.393391e+00 1.123846e+00 -8.881784e-16 -1.918458e+01 1.543940e-01 -1.554312e-15 -6.062294e+00 2.441603e+00 3.552714e-15 -2.205834e+01 2.794742e+00 3.053113e-16 -3.313863e+00 3.422978e+00 -6.106227e-16 -2.288455e+00 3.917484e+00 3.330669e-16 -1.074316e+00 4.108379e+00 1.707562e-01 -4.440892e-16 3.851745e+00 1.016040e+00 2.220446e-16 5.289462e+00 -2.220446e-16 -1.250720e-01 8.004055e+00 -4.440892e-16 -2.075366e+00 1.189476e+01 4.440892e-16 -5.861506e+00 1.622264e+01 1.332268e-15 -9.371577e+00 2.212967e+01 1.332268e-15 -1.126237e+01 2.461981e+01 -2.220446e-15 -1.293836e+01 2.513483e+01 -3.552714e-15 -1.409055e+01 2.395289e+01 4.440892e-16 -1.461206e+01 2.138891e+01 0.000000e+00 -1.543788e+01 1.881559e+01 -4.440892e-15 -1.723467e+01 1.752275e+01 -3.885781e-15 -2.029041e+01 1.736116e+01 -7.549517e-15 -2.356414e+01 1.648206e+01 -4.440892e-15 -2.517612e+01 1.466814e+01 -4.884981e-15 -2.420695e+01 1.212106e+01 4.440892e-16 -2.133886e+01 9.431465e+00 1.776357e-15 -1.832638e+01 6.235756e+00 2.220446e-15 -1.494977e+01 3.081607e+00 -8.881784e-16 -1.130008e+01 4.120554e-01 -3.996803e-15 -8.218580e+00 0.000000e+00 -1.708194e+00 -4.950927e+00 4.440892e-16 -1.235724e+00 -3.996438e+00 5.142523e-01 -4.440892e-16 -4.066241e+00 1.835070e+00 -5.551115e-16 -3.947331e+00 4.190734e-01 -8.326673e-17 -9.263169e-01 -7.105427e-15 -2.051531e+01 -1.014335e+02 -2.131628e-14 -7.201818e+00 -9.376882e+01 -2.131628e-14 -5.519636e+00 -9.448052e+01 2.131628e-14 -3.255366e+00 -9.006067e+01 -1.421085e-14 -1.450129e+00 -8.342251e+01 7.186473e-03 1.523404e-11 -8.073381e+01 1.897923e+00 3.907985e-14 -7.397597e+01 4.612884e+00 0.000000e+00 -6.536343e+01 7.380203e+00 -7.105427e-15 -5.722252e+01 6.477141e+00 -2.131628e-14 -5.921272e+01 8.195626e+00 -8.881784e-15 -5.518946e+01 1.035354e+01 -5.329071e-15 -4.940578e+01 1.372383e+01 -1.776357e-15 -4.255613e+01 1.719093e+01 -6.217249e-15 -3.541127e+01 2.108261e+01 -6.661338e-15 -2.886474e+01 1.987953e+01 -4.440892e-15 -3.045815e+01 2.197759e+01 -6.883383e-15 -2.723649e+01 2.531867e+01 -9.992007e-16 -2.256802e+01 2.979840e+01 -2.664535e-15 -1.600936e+01 3.479151e+01 1.776357e-15 -9.950174e+00 3.325540e+01 -2.664535e-15 -1.143444e+01 3.572225e+01 1.776357e-15 -8.341417e+00 4.016155e+01 -5.329071e-15 -3.655496e+00 4.587852e+01 3.269884e+00 1.421085e-14 5.231412e+01 1.002766e+01 0.000000e+00 5.018209e+01 8.293466e+00 0.000000e+00 5.351708e+01 1.199629e+01 0.000000e+00 5.918438e+01 1.804210e+01 0.000000e+00 6.045475e+01 1.999193e+01 -3.552714e-15 6.714907e+01 2.599856e+01 7.105427e-15 7.603146e+01 3.557307e+01 0.000000e+00 8.673005e+01 4.614193e+01 7.105427e-15 8.294906e+01 4.356241e+01 0.000000e+00 8.739189e+01 4.901263e+01 -7.105427e-15 9.950678e+01 5.883394e+01 -7.105427e-15 1.164896e+02 7.436067e+01 7.105427e-15 1.411850e+02 9.636594e+01 -1.421085e-14 1.858706e+02 1.273911e+02 0.000000e+00 1.520679e+02 1.162966e+02 -1.421085e-14 1.681304e+02 1.324383e+02 0.000000e+00 2.998215e+02 1.835074e+02 -2.842171e-14 5.644825e+01 -3.197442e-14 -2.625560e-01 3.372531e+01 -3.552714e-15 -2.011770e+00 3.398792e+01 -6.572520e-14 -3.206878e-01 2.849543e+01 5.329071e-15 -5.427192e-01 1.990375e+01 0.000000e+00 -1.013952e+00 2.002827e+01 0.000000e+00 -2.177167e+00 2.426887e+01 1.677492e+00 5.329071e-15 2.382677e+01 6.364694e-01 1.776357e-15 1.835882e+01 -1.332268e-14 -3.978232e-01 4.100526e+00 -7.771561e-16 -2.446873e+00 3.586787e-01 1.110223e-16 -2.352120e+00 -6.661338e-16 -4.457229e-01 -3.613456e+00 1.518899e+00 -8.881784e-16 -7.549478e+00 3.810932e-01 0.000000e+00 -2.753623e+00 2.413947e-01 -1.110223e-16 -2.009494e+00 5.161875e-01 -5.551115e-16 -3.227100e+00 2.856614e-02 -4.773959e-15 -2.422941e+00 6.155620e-01 -1.665335e-16 -1.975705e+00 2.154725e+00 0.000000e+00 -5.170110e-01 2.867809e+00 1.110223e-16 -3.178843e-01 1.165861e+00 8.881784e-16 -2.096438e+01 6.823730e-01 1.421085e-14 -3.225371e+01 8.505375e-01 0.000000e+00 -1.269281e-01 5.083981e-01 -2.775558e-17 -1.988433e-01 1.633058e+00 -4.657733e-16 -1.609927e+00 8.658459e-01 1.110223e-16 -3.176227e+00 2.148710e-01 -6.217249e-15 -1.098517e+01 4.798823e-01 -5.329071e-15 -2.918852e+01 2.303360e+00 -2.842171e-14 -5.332142e+01 -1.563194e-13 -1.035812e-01 -3.813089e+01 4.566014e+00 -7.105427e-15 -5.743786e+01 1.953993e-14 -1.678148e-01 -2.869050e+01 3.172553e+00 5.551115e-17 -1.869349e+00 2.196717e+00 3.053113e-16 -2.878334e+00 3.976012e+00 0.000000e+00 -9.133385e-01 4.676085e+00 6.661338e-16 -1.642634e-01 5.814071e+00 7.565735e-01 0.000000e+00 6.969954e+00 1.411100e+00 4.440892e-16 8.997601e+00 6.575362e-01 8.881784e-16 1.370150e+01 -1.776357e-15 -1.349655e+00 1.800938e+01 -8.881784e-16 -4.327663e+00 2.398305e+01 -8.881784e-16 -6.654420e+00 2.581846e+01 -3.552714e-15 -9.599223e+00 2.576698e+01 -1.776357e-15 -1.171068e+01 2.470676e+01 -6.661338e-15 -1.390321e+01 2.314819e+01 -1.332268e-15 -1.549850e+01 2.142553e+01 1.554312e-15 -1.718051e+01 1.988822e+01 -2.081668e-15 -1.955008e+01 1.838453e+01 -2.220446e-16 -2.279785e+01 1.620542e+01 -3.996803e-15 -2.573987e+01 1.325541e+01 -3.552714e-15 -2.713115e+01 9.981175e+00 -5.329071e-15 -2.597190e+01 6.930434e+00 -2.664535e-15 -2.313450e+01 4.206281e+00 3.552714e-15 -2.010579e+01 1.472335e+00 -2.664535e-15 -1.636376e+01 -8.881784e-16 -6.810436e-01 -1.227599e+01 -4.440892e-16 -2.217815e+00 -8.298316e+00 4.440892e-16 -2.695582e+00 -4.641951e+00 0.000000e+00 -1.242502e+00 -3.534593e+00 7.403905e-01 -2.220446e-16 -3.390436e+00 6.611145e+01 8.890538e+00 -3.552714e-15 7.105427e-15 -1.598707e+00 -8.536307e+01 1.399301e+00 -7.460699e-14 -7.615394e+01 4.031342e+00 -2.486900e-14 -6.736016e+01 1.120625e+01 -8.881784e-15 -4.763656e+01 9.718023e+00 8.881784e-15 -5.130974e+01 1.277728e+01 -5.329071e-15 -4.419455e+01 1.613867e+01 -4.440892e-15 -3.712858e+01 2.616338e+01 -2.664535e-15 -2.071385e+01 2.395448e+01 -5.863365e-16 -2.404439e+01 2.856025e+01 -1.332268e-15 -1.749590e+01 4.126568e+01 -5.329071e-15 -1.805934e+00 3.849936e+01 1.776357e-15 -5.130950e+00 4.423776e+01 1.651937e+00 -2.842171e-14 5.684879e+01 1.594594e+01 3.552714e-15 6.435931e+01 2.399667e+01 -3.552714e-15 7.351545e+01 3.301468e+01 0.000000e+00 1.010941e+02 6.232822e+01 -7.105427e-15 9.409015e+01 5.540554e+01 0.000000e+00 1.088752e+02 7.005913e+01 -7.105427e-15 1.288008e+02 9.035279e+01 0.000000e+00 2.369694e+02 1.521842e+02 0.000000e+00 1.910281e+02 1.469816e+02 1.421085e-14 4.489004e+01 -1.776357e-15 -3.457665e-01 3.269681e+01 3.907985e-14 -6.314644e-02 2.446296e+01 -2.486900e-14 -3.354008e-01 1.960618e+01 -3.552714e-15 -1.677778e+00 7.332440e+00 -1.332268e-15 -1.680409e+00 -4.440892e-16 -9.417814e-01 -3.706158e+00 1.340103e-01 -1.110223e-15 -2.611189e+00 1.227514e-01 -5.551115e-16 -2.182385e+00 8.903497e-01 -6.938894e-17 -1.098700e+00 9.542390e-01 0.000000e+00 -3.461375e-02 1.032609e+00 0.000000e+00 -7.732754e+00 -9.059420e-14 -2.059089e-01 -3.588970e+01 3.552714e-15 -7.431718e-01 -4.177729e+01 2.993081e+00 3.552714e-15 -2.631188e+01 1.803566e+01 -3.552714e-15 -3.373776e+01 1.382746e+02 1.018643e+02 -1.421085e-14 2.823950e+01 -4.618528e-14 -1.481500e-01 2.070569e+01 1.776357e-15 -7.686303e-01 7.977985e-01 -1.387779e-16 -2.402103e-01 5.261294e+00 -3.552714e-15 -6.324878e+01 2.857541e+00 0.000000e+00 -7.163886e+01 1.443006e+01 0.000000e+00 -4.065469e+01 3.089311e+01 -3.552714e-15 -1.445213e+01 4.709420e+01 4.947583e+00 7.105427e-15 7.833539e+01 3.834957e+01 0.000000e+00 6.874571e+01 2.820072e+01 0.000000e+00 1.186574e+02 7.961124e+01 -1.421085e-14 3.829162e+01 3.059946e-02 1.811884e-13 1.407323e+01 0.000000e+00 -1.209406e+00 1.023641e+00 -2.775558e-16 -1.438755e-01 5.959830e-01 -1.110223e-16 -1.639368e+00 1.122385e+00 -8.881784e-16 -1.361369e+01 8.881784e-15 -9.813056e-01 -4.082281e+01 1.639799e+00 -3.907985e-14 -7.668737e+01 4.034649e+00 -7.105427e-15 -6.774508e+01 1.465743e+01 1.776357e-15 -4.084642e+01 1.125390e+01 0.000000e+00 -4.786577e+01 2.769653e+00 -4.973799e-14 -7.229563e+01 3.905264e+00 0.000000e+00 -6.971246e+01 1.293571e+01 -1.776357e-15 -4.418498e+01 1.206525e+01 -7.105427e-15 -4.591952e+01 1.307476e+01 -1.776357e-15 -4.248969e+01 9.571625e+00 8.881784e-15 -5.136841e+01 1.101736e+01 7.105427e-15 -4.947323e+01 3.127601e+01 -6.217249e-15 -1.484454e+01 2.648085e+01 -6.883383e-15 -2.121802e+01 1.534934e+02 9.668178e+01 0.000000e+00 2.869867e+01 3.552714e-15 -1.788381e+01 2.762402e+01 -3.552714e-15 -1.934442e+01 2.975278e+01 -2.664535e-15 -1.616948e+01 2.442833e+01 -4.832940e-15 -2.440455e+01 2.465477e+01 1.221245e-15 -2.269549e+01 4.171411e+01 8.881784e-15 -2.295952e+00 4.770631e+01 4.386757e+00 0.000000e+00 4.465565e+01 9.648943e-01 3.552714e-15 4.279832e+01 6.750156e-14 -4.489350e-01 4.612301e+01 2.937575e+00 -7.105427e-15 3.892247e+01 -8.881784e-15 -5.735339e+00 3.928624e+01 7.105427e-15 -3.881158e+00 5.822359e+01 1.560735e+01 1.065814e-14 7.864791e+01 3.743248e+01 0.000000e+00 6.601692e+01 2.355923e+01 0.000000e+00 7.430140e+01 3.237558e+01 0.000000e+00 7.621311e+01 3.519566e+01 0.000000e+00 1.232873e+02 7.587763e+01 -1.421085e-14 1.056259e+02 6.050997e+01 0.000000e+00 6.999659e+01 2.773740e+01 7.105427e-15 6.579127e+01 2.549876e+01 0.000000e+00 7.001532e+01 3.002195e+01 0.000000e+00 1.143503e+02 6.791401e+01 -1.421085e-14 1.026927e+02 6.392270e+01 7.105427e-15 1.112767e+02 7.167743e+01 2.131628e-14 9.818156e+01 5.387504e+01 -7.105427e-15 9.484687e+01 5.691001e+01 -7.105427e-15 1.368272e+02 8.655031e+01 0.000000e+00 1.222449e+02 8.129392e+01 0.000000e+00 1.286148e+02 8.901171e+01 0.000000e+00 3.892124e+01 -3.552714e-15 -6.917406e-01 2.608881e+02 1.499996e+02 -2.842171e-14 2.961365e+01 -1.776357e-15 -1.736627e+00 4.703252e+01 9.033517e-01 2.131628e-14 4.466129e+01 1.065814e-14 -1.182796e+00 6.011204e+01 3.506171e+00 1.065814e-14 5.347742e+01 -7.105427e-14 -1.274069e+00 2.337762e+02 1.379733e+02 0.000000e+00 2.172205e+02 1.117886e+02 1.421085e-14 3.390749e+01 3.552714e-15 -1.208809e+00 3.202277e+01 0.000000e+00 -1.533974e+00 6.983607e+01 -5.329071e-15 -2.544418e+01 1.685837e+01 -2.664535e-15 -4.378193e+00 2.301573e+01 -3.552714e-15 -2.680806e+00 2.184403e+01 -6.217249e-15 -2.370552e+00 2.040604e+01 0.000000e+00 -2.625896e+00 6.416054e-01 -2.775558e-17 -8.708632e-01 2.449148e+01 0.000000e+00 -2.310437e+00 1.199824e+01 -1.776357e-15 -4.687229e+00 9.469106e-01 -1.387779e-16 -1.560261e+00 1.644509e+00 -4.718448e-16 -2.014743e+00 2.267737e+00 2.775558e-17 -2.867150e+00 1.637249e+00 -2.775558e-16 -2.815846e+00 4.986149e-01 0.000000e+00 -1.864473e+00 2.842171e-14 -1.708315e+00 -8.669224e+01 1.387936e+00 -2.220446e-16 -1.886629e+00 1.752639e+00 -4.093947e-16 -1.906604e+00 8.426761e-01 -1.110223e-16 -1.983009e+00 7.547611e-01 -1.110223e-16 -2.257447e+00 2.714245e+00 0.000000e+00 -1.990554e+01 7.179877e-01 -2.359224e-16 -8.785168e-01 3.176077e-02 0.000000e+00 -9.134032e-01 -1.110223e-16 -5.062487e-01 -1.040174e+00 1.562750e+00 5.551115e-17 -2.080709e+00 2.030870e+00 4.440892e-16 -1.297200e+01 4.023513e+00 -3.552714e-15 -2.608853e+01 6.529575e-01 -1.422473e-16 -5.893129e-01 0.000000e+00 -2.543583e-01 -1.402756e+00 9.579085e-02 -7.216450e-16 -1.588498e+00 5.804336e+00 -7.105427e-15 -3.714802e+01 1.071290e+01 0.000000e+00 -3.645877e+01 9.007711e-01 0.000000e+00 -7.464079e+00 3.554643e+00 -1.110223e-15 -8.051053e+00 5.382812e+00 -5.329071e-15 -3.224365e+01 5.379095e+00 -1.776357e-15 -2.400387e+01 4.531241e+00 -7.105427e-15 -2.752186e+01 1.117469e+01 -8.881784e-16 -3.194891e+01 7.067124e+00 -3.552714e-15 -3.429973e+01 1.005536e+01 -2.664535e-15 -2.275991e+01 1.376315e+00 -3.552714e-15 -1.905821e+01 1.853847e-01 4.902745e-13 -8.163888e+01 5.986264e-01 -4.618528e-14 -8.339743e+01 1.378513e+00 2.486900e-14 -7.858818e+01 6.202480e+01 1.967198e+01 7.105427e-15 5.848570e+01 1.758119e+01 0.000000e+00 6.209300e+01 2.153223e+01 0.000000e+00 3.451853e+02 1.401377e+02 0.000000e+00 1.776357e-15 -8.420587e-03 -3.854896e+00 2.290917e-01 -1.110223e-16 -6.355868e-01 1.866047e+00 4.440892e-16 -4.039965e+00 -1.421085e-14 -2.441710e+00 -4.708611e+01 1.928272e+00 5.551115e-17 -2.743306e+00 1.833767e+01 -2.664535e-15 -3.410032e+01 3.256816e+00 0.000000e+00 -1.065827e+00 2.949280e+00 -7.771561e-16 -3.027839e-01 2.184685e+00 1.547938e-01 2.220446e-16 3.194210e+00 -3.330669e-16 -1.161447e+00 1.146782e+01 -4.440892e-16 -6.834269e+00 1.655956e+01 -2.220446e-15 -8.942018e+00 2.168249e+01 -3.996803e-15 -1.109623e+01 2.538658e+01 4.440892e-15 -1.299967e+01 2.065893e+01 -1.110223e-15 -1.572649e+01 1.727390e+01 2.220446e-15 -2.191601e+01 1.631167e+01 -6.217249e-15 -2.396214e+01 1.482174e+01 -5.773160e-15 -2.363679e+01 1.245421e+01 -1.776357e-15 -2.100314e+01 6.688272e+00 -3.996803e-15 -1.399380e+01 3.714330e+00 -1.776357e-15 -1.024993e+01 1.092993e+00 -2.220446e-16 -6.993629e+00 -2.220446e-16 -9.967975e-01 -3.337338e+00 2.277852e-01 -6.661338e-16 -3.358495e+00 1.413774e+02 -2.131628e-14 -3.677386e+01 9.659507e+01 7.395443e+00 2.131628e-14 6.649166e+01 -3.552714e-15 -4.852097e+00 1.183558e+00 -2.775558e-16 -2.096423e+00 8.328806e+00 -1.776357e-15 -3.791891e+01 1.463195e+02 1.733850e+01 2.842171e-14 -2.131628e-14 -6.972420e+00 -9.918658e+01 1.743285e+01 0.000000e+00 -4.097680e+00 2.648696e+00 3.552714e-15 -7.397124e+01 6.940006e+00 -7.105427e-15 -5.928135e+01 3.157209e+01 -4.440892e-15 -1.315648e+01 3.382843e+01 -2.664535e-15 -1.171318e+01 1.644229e+01 2.664535e-15 -3.713363e+01 1.639508e+00 -3.885781e-16 -1.989988e+00 4.811394e+01 6.189132e+00 7.105427e-15 5.099844e+01 7.929484e+00 0.000000e+00 1.533453e+01 -2.664535e-15 -3.894606e+01 8.159971e+01 4.015906e+01 -7.105427e-15 8.462848e+01 4.257793e+01 0.000000e+00 2.420565e+02 8.077137e+01 0.000000e+00 3.747842e+01 5.329071e-15 -1.249192e+00 2.898171e+02 1.074372e+02 2.842171e-14 2.832998e+01 -3.552714e-15 -1.954307e+00 2.604960e+01 -3.552714e-15 -2.381071e+00 1.024947e+02 0.000000e+00 -1.009875e+01 1.401980e+02 9.741304e+01 0.000000e+00 1.737538e+02 1.084159e+02 0.000000e+00 2.565708e+01 2.664535e-15 -2.513173e+00 2.312991e+01 5.406104e-01 -8.881784e-16 3.057467e+00 -7.105427e-15 -2.965322e+01 6.998797e+00 -7.105427e-15 -3.966701e+01 2.556161e+01 5.329071e-15 -8.981214e-01 2.268274e+01 -3.552714e-15 -1.944016e+00 1.211691e+01 -4.440892e-16 -4.591363e+00 5.152091e+00 -4.440892e-16 -1.278783e+01 3.745292e+00 -1.110223e-16 -2.730866e+00 9.602582e-02 -1.110223e-16 -1.272880e+00 1.525577e+00 -1.387779e-16 -2.011901e+00 2.179523e+00 1.065814e-14 -5.354297e+01 5.133342e+00 3.552714e-15 -4.360105e+01 6.730434e+00 -4.440892e-15 -1.838230e+01 5.465102e+00 -2.131628e-14 -6.343937e+01 8.933122e+00 -1.776357e-15 -3.130963e+01 1.395993e+02 2.205738e+01 -1.421085e-14 4.826183e+00 -7.105427e-15 -6.536587e+01 9.350340e+00 0.000000e+00 -3.285896e+01 5.510256e+00 -3.552714e-15 -6.128744e+01 8.315248e+00 -1.776357e-15 -2.812082e+01 8.969580e+00 -1.332268e-15 -1.917524e+01 4.505204e+00 -8.881784e-15 -5.235641e+01 1.916007e+00 -5.551115e-16 -3.348311e+00 1.878418e+01 -1.776357e-15 -3.228824e+01 2.029225e+01 -3.552714e-15 -3.055448e+01 3.697135e-01 0.000000e+00 -2.693508e+00 1.332457e+00 -3.330669e-16 -3.510676e+00 0.000000e+00 -1.470610e+00 -2.743569e+00 0.000000e+00 -1.284886e+00 -7.386856e+00 0.000000e+00 -8.599669e-01 -4.552925e+00 7.532449e-02 8.437695e-15 -1.123222e+01 2.170910e+00 -8.881784e-16 -1.514701e+01 7.237098e+00 -2.664535e-15 -2.263018e+01 9.553726e+00 1.776357e-15 -1.733215e+01 1.023651e+01 -2.664535e-15 -2.488666e+01 1.233839e+01 0.000000e+00 -2.122805e+01 1.365700e+01 -5.773160e-15 -2.513412e+01 1.718685e+01 -2.220446e-15 -2.342274e+01 2.147862e+01 -7.327472e-15 -1.799113e+01 1.842417e+01 1.908196e-15 -1.860474e+01 2.400421e+01 -3.996803e-15 -1.383610e+01 2.339215e+01 -3.108624e-15 -1.406847e+01 2.493188e+01 -1.776357e-15 -8.821180e+00 2.467879e+01 -6.217249e-15 -1.216643e+01 2.261465e+01 -2.664535e-15 -6.764601e+00 1.766731e+01 -8.881784e-16 -5.138214e+00 8.183185e+00 -1.332268e-15 -1.101119e+00 1.746882e+00 -4.996004e-16 -2.627387e+00 7.041051e+00 -4.440892e-16 -3.692691e+00 4.782147e+00 1.065814e-14 -4.363575e-02 3.938707e+00 2.220446e-16 -7.169464e-01 5.741699e+00 -1.776357e-15 -2.680579e+01 2.642516e+00 -4.996004e-16 -1.566500e+00 1.720381e+01 -3.552714e-15 -3.553810e+01 1.292661e+01 -8.881784e-16 -2.753304e+00 2.482581e+01 4.440892e-15 -1.134222e+01 2.274209e+01 -1.776357e-15 -1.577705e+01 1.972582e+01 1.776357e-15 -2.073207e+01 4.536202e+00 -2.664535e-15 -1.896751e+01 -4.440892e-16 -1.900252e+00 -3.853546e+00 2.415820e+00 -2.220446e-16 -1.871791e+00 -4.263256e-14 -4.124170e+00 -9.226178e+01 8.632429e-01 2.273737e-13 -9.377139e+01 9.447732e-03 -1.996625e-12 -8.837794e+01 8.085938e+00 8.881784e-15 -5.519582e+01 7.313643e+00 0.000000e+00 -5.718366e+01 9.090095e+00 -1.776357e-15 -5.321155e+01 2.235173e+01 -4.662937e-15 -2.742233e+01 2.075271e+01 -3.108624e-15 -2.892454e+01 2.210128e+01 -2.886580e-15 -2.583533e+01 3.642269e+01 -1.776357e-15 -8.735288e+00 3.392619e+01 0.000000e+00 -1.017064e+01 3.664954e+01 -1.776357e-15 -7.113787e+00 5.457312e+01 1.147927e+01 3.552714e-15 5.068207e+01 9.661881e+00 3.552714e-15 5.439651e+01 1.359620e+01 3.552714e-15 9.183876e+01 4.782566e+01 0.000000e+00 8.255751e+01 4.480458e+01 0.000000e+00 8.812851e+01 5.056630e+01 0.000000e+00 2.012361e+02 1.228487e+02 -2.842171e-14 1.570986e+02 1.059508e+02 0.000000e+00 1.806151e+02 1.105535e+02 -1.421085e-14 7.409153e+00 -6.661338e-16 -2.978110e+00 1.297441e+00 -1.110223e-16 -1.775753e+00 8.457521e+00 -1.776357e-15 -3.869161e+01 2.568301e+00 -1.421085e-14 -5.058704e+01 -3.552714e-15 -9.105193e+00 -6.421775e+01 2.082425e+00 -7.105427e-15 -5.539843e+01 2.066115e+02 7.895761e+01 0.000000e+00 2.507074e+00 -1.776357e-15 -3.074147e+01 1.578074e+00 0.000000e+00 -2.746777e+00 7.168691e+00 -8.881784e-16 -2.789809e+01 5.861399e+00 -3.552714e-15 -5.617691e+01 2.913172e+00 -2.220446e-16 -1.297897e+00 8.695437e+00 3.552714e-15 -4.536817e+01 6.855083e+00 1.776357e-15 -4.917154e+01 7.698203e+00 -3.552714e-15 -5.875185e+01 -1.065814e-14 -1.148224e+00 -5.914012e+01 1.856807e+01 -1.332268e-15 -8.105816e+00 2.796212e+00 -3.552714e-15 -7.485837e+01 2.590648e+01 2.331468e-15 -2.335853e+01 2.193200e+00 -3.608225e-16 -1.926974e+00 1.025702e+02 5.322671e+01 0.000000e+00 4.078985e+01 0.000000e+00 -4.732083e+00 1.364325e+01 6.217249e-15 -2.712892e+01 7.694535e+01 3.419416e+01 0.000000e+00 4.069095e+01 1.421085e-14 -1.668989e+00 1.563757e+01 0.000000e+00 -3.894822e+01 4.888939e+01 7.105427e-14 -8.281759e-02 4.038753e+01 -7.105427e-15 -2.853963e+00 2.129082e+01 0.000000e+00 -3.475164e+00 3.090270e+01 0.000000e+00 -3.019100e+00 1.917586e+02 7.191426e+01 0.000000e+00 2.784560e+01 0.000000e+00 -2.736831e+00 2.720168e+01 0.000000e+00 -4.092448e+00 2.441921e+01 -3.552714e-15 -3.777310e+00 6.278397e+01 3.020175e+00 0.000000e+00 4.811092e+01 2.309264e-14 -2.049427e+00 2.011313e+02 1.056526e+02 0.000000e+00 2.216209e+02 7.962934e+01 1.421085e-14 3.506798e+01 -5.329071e-15 -2.422074e+00 3.036345e+01 3.552714e-15 -3.728766e+00 1.934443e+02 4.528336e+01 -1.421085e-14 1.705070e+02 2.786289e+01 0.000000e+00 2.028707e+01 0.000000e+00 -2.694741e+01 4.420419e+00 -8.881784e-16 -1.880696e+01 1.109390e+01 -1.776357e-15 -2.862618e+01 1.559981e+01 -6.217249e-15 -3.764292e+01 2.218470e+02 6.379934e+01 -4.263256e-14 6.826158e+00 -1.065814e-14 -6.138664e+01 6.065927e+00 -4.440892e-15 -2.360869e+01 2.454137e+00 -2.220446e-16 -1.523378e+00 9.915689e+00 -1.776357e-15 -4.983977e+01 1.744577e+01 -6.217249e-15 -2.963044e+01 0.000000e+00 -6.631575e-01 -9.803971e-01 7.345173e+00 0.000000e+00 -3.047265e+01 2.325538e+01 -8.881784e-16 -5.453388e+00 2.087308e+01 -3.552714e-15 -6.157729e+00 2.264768e+01 0.000000e+00 -9.687759e+00 2.250725e+00 -3.920475e-16 -2.328108e+00 8.788465e+01 6.849944e+00 1.421085e-14 5.759724e+01 4.263256e-14 -1.449350e+00 6.543560e+01 4.167687e+00 3.552714e-15 6.768214e+00 -2.664535e-15 -1.320492e+01 1.775243e+01 -3.219647e-15 -2.044275e+01 2.308141e+01 8.881784e-16 -1.379605e+01 4.307024e+00 -2.220446e-16 -5.795920e-01 1.459265e+01 8.881784e-16 -3.616649e+01 8.205562e+00 1.776357e-15 -4.750219e+01 1.455814e+01 -2.664535e-15 -2.608331e+01 1.581638e+01 -5.329071e-15 -3.059543e+01 1.285494e+01 -4.440892e-15 -3.119324e+01 2.574477e+01 4.440892e-15 -1.058735e+01 2.600267e+01 8.881784e-16 -1.222068e+01 1.997190e+01 -2.442491e-15 -1.692151e+01 2.325738e+01 -7.105427e-15 -1.648208e+01 2.134645e+01 -3.885781e-15 -1.915311e+01 1.628796e+01 -2.664535e-15 -2.347867e+01 1.458777e+01 -3.552714e-15 -2.378551e+01 1.457460e+01 -8.881784e-16 -2.377659e+01 9.852730e+00 2.664535e-15 -2.423368e+01 9.783199e+00 4.440892e-16 -1.702706e+01 3.874424e+00 -1.332268e-15 -9.956083e+00 1.767453e+00 0.000000e+00 -6.420605e+00 5.607353e+01 -2.486900e-14 -1.464689e+00 3.859239e+00 -3.197442e-14 -5.530111e+01 1.038269e+00 -5.551115e-16 -2.554633e+00 1.155603e+01 -7.105427e-15 -5.036300e+01 1.980864e+01 8.881784e-16 -2.860099e+01 1.494429e+01 4.440892e-16 -2.667604e+01 1.800438e+01 -1.332268e-15 -2.967510e+01 3.618837e+00 -1.065814e-14 -7.228289e+01 3.528527e+00 1.065814e-14 -7.011944e+01 5.711722e+01 1.232495e+01 -3.552714e-15 2.423887e+01 -5.551115e-16 -2.637001e+01 2.293651e+01 -4.440892e-15 -2.488346e+01 1.461063e+01 1.776357e-15 -4.247945e+01 1.343926e+01 1.776357e-15 -4.068089e+01 3.300667e+01 1.776357e-15 -1.372435e+01 7.394184e+01 2.911500e+01 -7.105427e-15 7.257221e+01 3.153181e+01 7.105427e-15 9.505253e+01 4.719959e+01 0.000000e+00 8.923659e+01 4.943634e+01 -7.105427e-15 9.263079e+00 -5.329071e-15 -2.318073e+01 1.923051e+02 1.062779e+02 2.842171e-14 1.908521e+02 8.533040e+01 -1.421085e-14 2.491077e+01 -1.065814e-14 -4.106807e-01 1.206643e+02 6.724731e+01 -7.105427e-15 4.591664e+01 1.713345e+00 -1.421085e-14 6.948710e+01 2.485595e+01 -3.552714e-15 6.670547e+01 2.645049e+01 3.552714e-15 2.403529e+01 0.000000e+00 -2.713038e+00 2.994497e+01 -3.552714e-15 -1.707061e+01 2.990050e+01 0.000000e+00 -1.510502e+01 1.390230e+02 8.267002e+01 2.842171e-14 3.490148e+01 -7.105427e-15 -3.289579e+00 5.655363e+00 -5.329071e-15 -3.064112e+01 6.565203e+00 -9.992007e-16 -3.803380e+00 4.758853e+00 -1.065814e-14 -6.777974e+01 4.965475e+00 -2.131628e-14 -6.564506e+01 1.156503e+02 1.552966e+01 7.105427e-15 9.681449e+01 5.583133e+01 -7.105427e-15 1.111527e+02 5.996375e+01 0.000000e+00 1.068722e+01 -1.776357e-15 -2.415850e+01 1.041817e+01 -5.329071e-15 -3.793982e+01 1.324292e-01 2.775558e-16 -1.465903e+00 5.892193e+00 -3.552714e-15 -5.913862e+01 7.766833e+00 3.552714e-15 -5.729077e+01 6.491678e+01 2.053695e+01 0.000000e+00 6.375596e+01 2.246282e+01 0.000000e+00 0.000000e+00 -9.315482e-01 -3.899451e+00 2.476486e+01 -3.552714e-15 -1.064535e+01 8.027385e+01 3.918850e+01 0.000000e+00 8.148614e+01 3.716062e+01 0.000000e+00 8.903580e+01 4.238826e+01 -7.105427e-15 0.000000e+00 -1.157439e+00 -1.336170e+00 2.522477e+01 -8.881784e-16 -6.579952e+00 2.254269e+01 -3.552714e-15 -7.254321e+00 2.413346e+01 -3.552714e-15 -9.786993e+00 1.148067e+02 9.982434e+00 0.000000e+00 9.947464e+00 8.881784e-16 -2.911247e+01 3.810917e+01 0.000000e+00 -7.949101e+00 3.721986e+01 -8.881784e-15 -6.334155e+00 6.086429e+01 1.616219e+01 -7.105427e-15 5.660998e+01 1.441026e+01 0.000000e+00 6.067641e+01 1.861799e+01 -7.105427e-15 1.864939e+01 -1.110223e-15 -2.184004e+01 1.626648e+01 -4.440892e-15 -2.246719e+01 1.213308e+01 -1.776357e-15 -4.791641e+01 1.218539e+01 3.552714e-15 -4.625052e+01 2.441594e+00 0.000000e+00 -8.012630e+01 1.951704e+01 -2.664535e-15 -3.245280e+01 8.887899e+00 -7.105427e-15 -5.320821e+01 1.087557e+01 -3.552714e-15 -5.129836e+01 1.734809e+00 1.278977e-13 -1.035558e+02 4.730788e+00 0.000000e+00 -1.855721e+01 7.194617e+00 -3.552714e-15 -2.253241e+01 2.425770e+01 -1.332268e-15 -1.384577e+01 -2.220446e-16 -6.467297e-01 -3.912416e+00 1.351036e+00 -3.330669e-16 -2.711543e+00 1.694295e+01 -6.217249e-15 -2.584177e+01 9.607993e+00 -8.881784e-16 -2.210209e+01 1.112407e+01 -4.440892e-15 -2.329181e+01 4.636162e+00 -2.486900e-14 -6.313403e+01 4.742600e+01 3.877553e+00 -3.552714e-15 5.022734e+01 5.588430e+00 -3.552714e-15 1.324455e+02 8.010449e+01 1.421085e-14 1.557932e+02 9.074306e+01 0.000000e+00 9.914372e+01 6.346852e+00 -1.421085e-14 7.101806e+01 7.027057e+00 0.000000e+00 3.017467e+00 -7.105427e-15 -7.669822e+01 3.888939e+00 7.105427e-15 -9.917173e+01 3.126388e-13 -8.662380e-01 -9.690526e+01 6.894134e-02 5.551115e-16 -2.424031e+00 2.687892e+00 4.440892e-16 -1.347895e+01 1.724345e+01 0.000000e+00 -3.594324e+01 1.183428e+01 4.440892e-16 -2.252933e+01 1.358817e+01 0.000000e+00 -3.189092e+01 1.089629e+00 7.105427e-15 -8.537021e+01 1.950402e+00 -3.197442e-14 -8.125528e+01 8.319688e-01 4.440892e-16 -1.020474e+01 0.000000e+00 -4.713915e-01 -3.694430e+00 8.788271e+00 0.000000e+00 -6.488738e+01 -7.460699e-14 -7.079411e-01 -8.997550e+01 2.941020e+00 -3.552714e-15 -9.311824e+01 2.594761e+00 0.000000e+00 -8.665818e+01 1.775065e+01 -1.776357e-15 -3.740708e+01 4.130318e+01 1.776357e-15 -2.744933e+00 4.320719e+01 -1.776357e-14 -1.300282e+00 2.620385e+01 -8.881784e-16 -2.142306e+01 2.747166e+01 -3.552714e-15 -1.993847e+01 1.749868e+01 2.664535e-15 -3.403408e+01 6.704788e+00 -1.332268e-15 -1.277078e+01 9.763882e+00 8.881784e-16 -2.386168e+01 1.426816e+01 -7.549517e-15 -2.506489e+01 1.053419e+01 -5.329071e-15 -2.719268e+01 5.091462e+00 2.131628e-14 -6.530601e+01 -2.220446e-16 -8.619079e-01 -1.730809e+00 9.081237e+00 3.552714e-15 -4.609921e+01 1.286518e+01 -7.105427e-15 -5.392089e+01 4.234275e+00 -2.842171e-14 -7.238679e+01 -2.220446e-16 -8.804187e-01 -2.694315e+00 5.805767e+00 0.000000e+00 -7.650003e+01 4.403838e+00 2.486900e-14 -7.962015e+01 -1.776357e-14 -1.435545e+00 -7.099327e+01 0.000000e+00 -1.619182e+01 -9.153053e+01 1.691316e+00 2.842171e-14 -7.982775e+01 1.661708e+00 -7.105427e-15 -7.298073e+01 3.781214e+00 1.065814e-14 -8.092967e+01 6.032810e+00 -1.421085e-14 -7.201512e+01 -3.517187e-13 -3.635596e-01 -7.673053e+01 3.907985e-14 -4.044955e+00 -8.344441e+01 2.174474e+00 -2.842171e-14 -7.983499e+01 1.548224e+00 6.394885e-14 -9.827385e+01 7.841645e+00 -1.065814e-14 -6.841482e+01 3.957611e+00 1.065814e-14 -6.084318e+01 1.531515e+00 -2.486900e-14 -6.496550e+01 4.643855e+00 1.065814e-14 -8.590390e+01 3.981872e+00 -1.421085e-14 -8.610346e+01 2.178582e+01 4.440892e-16 -2.928179e+01 2.020399e+01 1.332268e-15 -3.081905e+01 2.053294e+01 -1.332268e-15 -2.778456e+01 3.574082e+01 1.776357e-15 -1.088219e+01 3.236393e+01 -2.664535e-15 -1.229071e+01 3.454128e+01 1.776357e-15 -9.375710e+00 2.864042e+00 -6.661338e-16 -1.338086e+00 1.831278e+01 -5.218048e-15 -2.007275e+01 1.960063e+01 -8.881784e-16 -3.445214e+01 1.233523e+01 -3.552714e-15 -4.147898e+01 5.391624e+01 8.766941e+00 -3.552714e-15 4.780559e+01 6.821638e+00 -7.105427e-15 5.132465e+01 1.027176e+01 -7.105427e-15 1.157918e+02 7.166909e+01 0.000000e+00 1.736450e+02 9.910423e+01 0.000000e+00 1.466270e+02 8.382372e+01 1.421085e-14 1.669556e+02 8.768942e+01 1.421085e-14 2.303415e+01 -4.440892e-15 -4.626870e+00 2.641453e+01 0.000000e+00 -3.856065e+00 1.921792e+01 -8.881784e-16 -4.256314e+01 2.494570e+00 -3.330669e-16 -1.242997e+00 4.434912e+01 6.471517e-01 -2.131628e-14 3.835177e+00 -3.907985e-14 -9.642308e+01 3.998003e+01 -8.881784e-15 -3.088622e+00 9.546185e+00 1.776357e-15 -1.727584e+01 1.671149e+02 6.058486e+01 1.421085e-14 1.081306e+01 2.664535e-15 -2.439150e+01 1.472451e+01 -5.773160e-15 -2.297479e+01 1.044848e+02 6.247942e+01 1.421085e-14 2.161233e+01 4.440892e-15 -3.695623e+01 1.259341e+02 6.366108e+01 7.105427e-15 1.675830e+02 3.876070e+01 0.000000e+00 2.583229e+01 3.552714e-15 -1.075272e+01 3.508679e+00 -1.065814e-14 -7.142521e+01 2.255093e+02 3.338384e+01 0.000000e+00 7.080991e+00 3.552714e-15 -7.174532e+01 3.874242e+00 -2.131628e-14 -8.196661e+01 6.268370e+00 -2.842171e-14 -1.003873e+02 7.221615e+01 4.678099e+00 -1.065814e-14 1.312024e+02 2.802087e+01 7.105427e-15 1.005968e+00 -2.664535e-15 -8.375185e+00 5.407560e+00 0.000000e+00 -7.479303e+01 -2.220446e-15 -7.492693e-01 -7.211659e+00 1.876321e+00 -7.105427e-15 -6.819054e+01 1.483042e+01 -3.552714e-15 -3.596652e+01 1.984945e+01 -3.108624e-15 -3.114270e+01 2.008446e+01 -6.217249e-15 -3.348196e+01 4.709990e+00 -6.039613e-14 -9.595743e+01 4.141093e+00 -1.110223e-15 -8.837682e+00 2.268738e+00 -4.263256e-14 -7.067827e+01 1.458984e+02 4.196754e+01 0.000000e+00 1.926497e+02 5.882338e+01 -2.842171e-14 2.343822e+00 8.881784e-16 -1.415176e+01 2.544769e+01 -6.217249e-15 -1.168060e+01 8.053613e+00 3.552714e-15 -6.572659e+01 4.678756e+01 -7.105427e-15 -1.772944e+00 3.571108e+01 -1.776357e-15 -5.090605e+00 4.155395e-01 1.847411e-13 -8.329525e+01 1.592246e+01 1.776357e-15 -2.302463e+01 3.489263e+01 -8.881784e-16 -1.356051e+01 3.546631e+00 3.552714e-15 -7.532473e+01 1.187509e+01 -8.881784e-15 -4.406000e+01 9.828356e+01 1.552671e+01 -1.421085e-14 9.178991e+01 1.514021e+01 1.421085e-14 1.905673e+01 -1.776357e-15 -3.243014e+01 2.012341e+01 -2.664535e-15 -3.074707e+01 1.761775e+01 -4.107825e-15 -1.572504e+01 9.636835e+01 4.475460e+01 0.000000e+00 1.286566e+02 7.604364e+01 0.000000e+00 1.597063e+02 3.987037e+01 0.000000e+00 1.384494e+02 3.917406e+01 -2.842171e-14 1.157637e+02 2.561120e+01 7.105427e-15 7.453212e+01 2.542572e+01 0.000000e+00 5.896077e+01 1.221690e+01 -3.552714e-15 1.667987e+02 7.815811e+01 1.421085e-14 1.837123e+02 6.567155e+01 0.000000e+00 2.697232e+01 -7.105427e-15 -2.204741e+01 8.344647e+01 4.359791e+01 0.000000e+00 5.078617e+01 -2.131628e-14 -1.449476e+00 5.624191e+01 7.613834e-01 4.618528e-14 2.799993e+01 -1.776357e-15 -8.288879e+00 2.741189e+01 8.881784e-16 -1.159056e+01 3.209894e+01 -4.440892e-15 -1.673942e+01 3.090616e+01 -1.776357e-15 -1.486522e+01 2.696331e+02 8.982821e+01 1.421085e-14 8.356950e+01 8.485223e+00 1.065814e-14 6.084552e+01 4.258044e+00 -3.552714e-15 3.051528e+01 1.776357e-15 -3.908163e+00 1.778626e+01 -4.440892e-15 -3.370480e+01 1.178647e+02 6.683606e+01 0.000000e+00 1.394881e+02 7.503289e+01 0.000000e+00 1.368009e+01 0.000000e+00 -2.506086e+01 3.470625e+01 0.000000e+00 -3.964901e+00 1.155247e+00 1.110223e-16 -2.683208e+00 1.833329e+01 4.440892e-16 -1.878470e+01 6.678088e+00 3.552714e-15 -6.540745e+01 1.799282e+01 -4.440892e-15 -2.201665e+01 1.153768e+02 5.681122e+01 7.105427e-15 1.071332e+02 5.727054e+01 0.000000e+00 1.705834e+01 -7.105427e-15 -3.647457e+01 3.955649e+00 7.105427e-15 -6.621906e+01 8.306992e+00 -7.105427e-15 -5.507368e+01 4.498118e+01 2.131628e-14 -4.406826e-01 2.652555e+01 -4.440892e-15 -7.156005e+00 6.869186e+01 2.116380e+01 0.000000e+00 6.433593e+01 2.236377e+01 3.552714e-15 4.317074e+00 -1.776357e-14 -6.934694e+01 2.562322e+01 -4.135581e-15 -2.585187e+01 2.395985e+01 -4.246603e-15 -2.371834e+01 4.072397e+00 7.105427e-15 -6.492267e+01 8.575557e+00 -5.329071e-15 -5.104808e+01 4.034631e+01 0.000000e+00 -7.420136e+00 2.986115e+01 4.440892e-16 -1.810483e+01 5.145426e+01 7.105427e-15 -3.189157e+00 2.801423e+01 -3.552714e-15 -6.089752e+00 1.031925e+01 0.000000e+00 -6.219546e+01 1.890695e+01 1.776357e-15 -3.777184e+01 1.227708e-01 -1.998401e-15 -3.656782e+00 1.012733e+01 0.000000e+00 -4.697885e+01 1.210383e+01 -5.329071e-15 -4.935189e+01 1.413795e+01 -1.243450e-14 -4.576631e+01 3.218413e+01 -1.776357e-15 -5.384385e+00 2.770390e+01 -1.776357e-15 -1.819992e+01 4.228090e+01 -3.552714e-15 -4.067105e+00 3.907534e+01 -7.105427e-15 -5.581781e+00 4.423935e+01 3.552714e-15 -1.825871e+00 3.328689e+00 -3.552714e-14 -7.867655e+01 2.767503e+01 1.776357e-15 -2.397399e+00 2.213704e+01 -2.664535e-15 -1.499871e+01 3.048190e+00 -1.065814e-14 -7.985457e+01 3.381797e+00 -1.421085e-14 -6.028983e+01 4.238809e+01 1.776357e-15 -3.480899e+00 5.653676e+00 3.552714e-15 -6.906103e+01 9.027731e+01 4.676390e+01 -7.105427e-15 1.059786e+02 5.145062e+01 -1.421085e-14 2.276410e+01 -5.551115e-15 -1.807794e+01 4.352691e+00 -3.197442e-14 -6.156834e+01 6.944513e+00 -3.552714e-15 -6.138064e+01 8.059548e+00 3.552714e-15 -5.958311e+01 4.552961e+01 1.591960e+00 -2.842171e-14 4.743944e+01 3.160663e+00 7.105427e-15 1.450235e+00 4.440892e-16 -6.804632e+00 1.898355e+01 -2.685352e-15 -1.885533e+01 2.584447e+01 2.664535e-15 -1.444212e+01 5.727010e+01 -1.065814e-14 -6.731850e+00 1.195757e+01 -1.776357e-15 -5.862013e+01 6.589660e+00 -7.105427e-15 -5.149065e+01 5.758436e+00 0.000000e+00 -1.052045e+02 3.023305e+01 -2.664535e-15 -2.137842e+01 3.244476e+01 -2.664535e-15 -1.213056e+01 3.759212e+01 -1.776357e-15 -1.066461e+01 3.811604e+01 -5.329071e-15 -1.251792e+01 2.548835e+01 -7.105427e-15 -5.793035e+00 1.658434e+01 -8.881784e-15 -4.182280e+01 1.183575e+01 3.552714e-15 -4.319644e+01 1.328779e+01 1.776357e-15 -3.942608e+01 2.476809e+01 -6.661338e-15 -3.109381e+01 5.352624e+01 1.049394e+01 3.552714e-15 5.631490e+01 8.705393e+00 3.552714e-15 8.884624e+01 4.005821e+01 0.000000e+00 8.429359e+01 4.039089e+01 -7.105427e-15 2.471699e+01 -8.881784e-16 -7.820202e+00 1.538154e+01 0.000000e+00 -3.965092e+01 4.993630e+00 -1.065814e-14 -5.636581e+01 1.645828e+01 -2.997602e-15 -1.550668e+01 1.605739e+01 -6.217249e-15 -3.537635e+01 2.668916e+01 1.776357e-15 -3.577521e+01 8.558660e+00 -3.552714e-15 -5.504743e+01 6.636072e+00 -1.065814e-14 -5.669422e+01 1.081120e+01 7.105427e-15 -5.313369e+01 4.295027e+01 3.552714e-15 -4.003973e+00 5.907757e+01 2.536820e+00 -3.907985e-14 1.864195e+01 0.000000e+00 -4.508560e+01 3.507118e+01 1.776357e-15 -9.150489e+00 2.764800e+01 -5.773160e-15 -1.814142e+01 6.256214e+01 1.642745e+01 0.000000e+00 5.825973e+01 1.484532e+01 0.000000e+00 6.299970e+01 1.893605e+01 7.105427e-15 2.371432e+01 2.220446e-15 -2.273356e+01 3.211944e+01 -7.105427e-15 -6.093534e+00 5.035583e+01 -1.776357e-14 -1.145590e+00 4.433828e+01 -1.953993e-14 -2.252151e+00 3.583253e+01 0.000000e+00 -5.491756e+00 1.182648e+01 1.776357e-15 -5.727006e+01 2.069964e+01 1.054712e-15 -2.056539e+01 2.937389e+01 -1.776357e-15 -5.105483e+00 5.791911e+01 8.053257e+00 0.000000e+00 4.814322e+01 6.343233e+00 7.105427e-15 1.453645e+01 -5.329071e-15 -5.271849e+01 1.208245e+01 3.552714e-15 -4.276475e+01 1.884331e+01 -8.326673e-16 -1.862272e+01 2.641711e+01 -3.552714e-15 -8.900811e+00 2.360780e+01 -7.993606e-15 -2.952268e+01 7.382290e+01 6.877799e+00 1.421085e-14 2.101940e+01 -4.884981e-15 -2.729743e+01 2.452365e+01 0.000000e+00 -1.311948e+01 7.818572e+01 2.966737e+01 0.000000e+00 2.955208e+01 8.881784e-16 -1.180672e+01 3.267880e+00 -3.197442e-14 -8.632449e+01 8.004350e+01 3.601167e+01 0.000000e+00 2.346750e+01 2.220446e-16 -1.757980e+01 2.238643e+01 -3.552714e-15 -1.587056e+01 2.708146e+01 -6.217249e-15 -1.210700e+01 8.015426e+01 3.292733e+01 0.000000e+00 2.458814e+00 -7.105427e-15 -8.797275e+01 2.072348e+01 -3.330669e-15 -1.617439e+01 9.037434e+01 3.647996e+01 0.000000e+00 6.875775e+01 2.669948e+01 3.552714e-15 6.140652e+01 4.005805e+00 0.000000e+00 8.095582e+01 1.373857e+01 1.065814e-14 3.546525e+01 -5.329071e-15 -9.992316e+00 2.488923e+01 -3.552714e-15 -9.081057e+00 2.582726e+01 -4.440892e-15 -1.047931e+01 1.774013e+01 -1.776357e-15 -4.838170e+01 4.973799e-14 -5.068236e+00 -1.063523e+02 2.970248e+01 1.776357e-15 -1.466804e+01 5.546464e+01 1.051540e+01 0.000000e+00 6.119419e+01 1.274496e+01 0.000000e+00 1.724614e+01 -3.552714e-15 -4.196568e+01 9.096220e+01 1.144799e+01 -7.105427e-15 7.012984e+01 9.640899e+00 -1.065814e-14 2.742363e+01 8.881784e-16 -1.461616e+01 1.394359e+02 5.079197e+01 0.000000e+00 8.978779e+00 -5.329071e-15 -4.737485e+01 7.655544e+01 2.390699e+01 0.000000e+00 2.960162e+01 -6.217249e-15 -1.998050e+01 1.598212e+02 8.334483e+01 0.000000e+00 1.698427e+02 7.020916e+01 0.000000e+00 3.939250e+01 0.000000e+00 -1.102118e+01 1.509259e+02 7.959029e+01 0.000000e+00 1.475732e+02 6.962899e+01 0.000000e+00 2.786305e+01 8.881784e-16 -9.783922e+00 3.002412e+01 -8.881784e-16 -1.214983e+01 1.568713e+02 4.761297e+01 1.421085e-14 2.288796e+01 -2.664535e-15 -4.063161e+01 1.346409e+02 3.611889e+01 7.105427e-15 2.738194e+01 0.000000e+00 -3.257104e+01 1.348982e+02 6.930062e+01 0.000000e+00 2.351693e+01 -2.220446e-15 -3.286897e+01 2.083965e+01 -7.105427e-15 -3.373477e+01 1.168181e+02 5.100711e+01 0.000000e+00 2.485572e+01 -2.664535e-15 -3.123658e+01 2.557020e+01 0.000000e+00 -3.813055e+01 4.342820e+01 1.776357e-15 -2.691257e+00 5.893533e+01 2.333030e+00 -7.105427e-15 3.733791e+01 -3.552714e-15 -5.149555e+00 2.418945e+01 -1.332268e-15 -1.589033e+01 3.283878e+01 -7.105427e-15 -7.188940e+00 2.714420e+01 9.992007e-16 -2.527017e+01 5.412852e+01 4.130247e+00 3.552714e-15 5.080219e+01 5.837101e+00 0.000000e+00 4.006185e+01 -8.881784e-16 -1.704009e+01 9.945106e+01 4.226111e+01 7.105427e-15 6.350466e+00 -7.105427e-15 -5.256235e+01 9.957198e+01 5.143180e+01 0.000000e+00 2.297433e+01 -4.218847e-15 -2.849003e+01 2.451810e+01 -5.551115e-15 -2.972520e+01 4.218526e+01 0.000000e+00 -7.210862e+00 4.265724e+01 0.000000e+00 -4.640695e+00 7.981174e+01 3.193595e+01 0.000000e+00 9.599230e+00 -3.552714e-15 -4.729044e+01 1.430998e+01 0.000000e+00 -4.588138e+01 3.292690e+01 0.000000e+00 -2.805124e+01 8.527077e+01 3.778892e+01 0.000000e+00 1.437538e+01 3.552714e-15 -3.904143e+01 1.972348e+01 -8.881784e-16 -3.769175e+01 1.941844e+01 0.000000e+00 -3.540786e+01 1.276080e+01 -1.421085e-14 -4.928072e+01 2.817485e+01 1.776357e-15 -2.046868e+01 3.666953e+01 -3.552714e-15 -8.994324e+00 9.910736e+01 2.405927e+01 7.105427e-15 1.099327e+02 2.413091e+01 -7.105427e-15 1.086880e+02 5.130359e+01 7.105427e-15 1.300933e+02 5.864275e+01 0.000000e+00 4.499004e+01 0.000000e+00 -1.020864e+01 4.892919e+01 7.105427e-15 -8.028882e-01 2.707953e+01 -2.664535e-15 -2.244823e+01 3.175230e+01 1.332268e-15 -2.610199e+01 7.227602e+00 -3.552714e-15 -5.093090e+01 3.602051e+01 -2.664535e-15 -1.421672e+01 3.170016e+01 1.776357e-15 -1.603303e+01 3.272248e+01 -2.664535e-15 -1.286965e+01 3.194132e+01 -2.664535e-15 -1.796941e+01 3.328790e+01 -5.329071e-15 -1.934058e+01 1.878612e+01 -3.552714e-15 -4.279132e+01 1.180814e+02 3.368094e+01 -7.105427e-15 4.126438e+01 -3.552714e-15 -1.144173e+01 3.229108e+01 -6.994405e-15 -3.137326e+01 2.296953e+01 -3.552714e-15 -1.386452e+01 2.171547e+01 -3.552714e-15 -3.625162e+01 1.746331e+01 -8.881784e-16 -4.021333e+01 7.983034e+01 2.867533e+01 0.000000e+00 1.910283e+01 4.440892e-16 -3.109839e+01 7.543120e+01 1.532450e+01 7.105427e-15 3.288711e+01 2.442491e-15 -3.018362e+01 3.096813e+01 -2.886580e-15 -2.615635e+01 3.167638e+01 2.220446e-16 -2.747839e+01 5.601180e+00 -3.552714e-15 -5.502332e+01 7.012289e+01 2.034558e+01 -3.552714e-15 6.394577e+01 1.736067e+01 0.000000e+00 6.631323e+01 2.029931e+01 0.000000e+00 6.202792e+01 5.445552e+00 -1.065814e-14 2.890538e+01 -5.329071e-15 -7.770110e+00 2.307046e+01 -5.329071e-15 -1.897288e+01 1.007154e+02 4.655231e+01 0.000000e+00 1.516226e+01 1.776357e-15 -4.825120e+01 7.166578e+01 2.435538e+01 0.000000e+00 1.334624e+02 4.054422e+01 0.000000e+00 8.241304e+01 2.658353e+01 -7.105427e-15 3.252668e+01 -2.664535e-15 -8.995124e+00 7.673956e+01 2.092185e+01 0.000000e+00 4.928269e+01 1.776357e-15 -7.923011e+00 1.222685e+01 -7.105427e-15 -4.336290e+01 1.014096e+02 4.465079e+01 -7.105427e-15 5.266058e+01 5.067734e+00 -7.105427e-15 1.277161e+01 7.105427e-15 -5.287778e+01 8.785748e+01 3.199095e+01 0.000000e+00 3.011498e+01 -5.329071e-15 -9.308483e+00 1.525850e+02 5.532812e+01 1.421085e-14 1.154273e+02 4.288557e+01 0.000000e+00 1.012148e+02 3.832799e+01 -7.105427e-15 3.004527e+01 -8.770762e-15 -3.179677e+01 2.762078e+01 -1.110223e-15 -2.387241e+01 1.142217e+01 0.000000e+00 -4.653398e+01 1.371795e+01 -3.552714e-15 -4.486454e+01 6.117893e+01 8.128856e+00 3.552714e-15 2.300656e+01 4.440892e-15 -3.424854e+01 2.155741e+01 2.442491e-15 -2.683669e+01 9.957711e+01 2.902934e+01 0.000000e+00 7.293059e+01 2.346304e+01 -7.105427e-15 2.727599e+01 -3.830269e-15 -2.597679e+01 8.982358e+01 3.185115e+01 -1.421085e-14 8.733476e+01 2.603726e+01 -7.105427e-15 3.834596e+01 -3.552714e-15 -8.872160e+00 4.506766e+01 -1.776357e-15 -6.922865e+00 8.928819e+00 0.000000e+00 -4.887589e+01 3.014059e+01 -4.440892e-15 -1.781935e+01 3.690978e+01 -1.154632e-14 -1.527746e+01 7.632941e+01 1.427450e+01 1.421085e-14 6.403269e+01 5.762572e-01 6.039613e-14 4.790920e+01 0.000000e+00 -1.348047e+01 3.042673e+01 -1.776357e-15 -1.261037e+01 2.738026e+01 0.000000e+00 -1.058934e+01 1.260817e+02 6.469216e+01 7.105427e-15 3.309704e+01 0.000000e+00 -7.344705e+00 3.346645e+01 0.000000e+00 -1.358513e+01 1.095651e+01 1.776357e-15 -4.444368e+01 1.116752e+02 2.812054e+01 0.000000e+00 4.535860e+01 1.672441e+00 -1.243450e-14 1.681512e+01 -9.992007e-16 -1.981328e+01 6.910540e+01 1.718279e+01 -3.552714e-15 6.209825e+01 1.535645e+01 3.552714e-15 3.902821e+01 -1.776357e-15 -1.099513e+01 2.380257e+01 -3.552714e-15 -3.060821e+01 3.365783e+01 8.881784e-16 -9.848323e+00 3.537859e+01 -3.552714e-15 -8.573503e+00 3.925078e+01 -7.105427e-15 -2.169878e+01 3.085440e+01 2.664535e-15 -8.551717e+00 4.430241e+01 -1.953993e-14 -3.368322e+00 3.236612e+01 -7.549517e-15 -2.082819e+01 4.389341e+01 1.776357e-15 -4.656342e+00 4.575843e+01 1.030287e-13 -1.544231e-01 3.572929e+01 0.000000e+00 -2.488668e+01 6.733404e+01 1.692567e+01 3.552714e-15 5.255696e+01 1.811884e-13 -1.177734e-01 7.143016e+00 -2.131628e-14 -8.580989e+01 1.647553e+01 0.000000e+00 -4.365174e+01 9.410600e+00 1.065814e-14 -6.027958e+01 3.355639e+01 -5.329071e-15 -4.144847e+00 5.659342e+01 3.714786e+00 0.000000e+00 5.256603e+01 5.482661e+00 3.552714e-15 4.762595e+01 -1.776357e-14 -3.874130e+00 3.391811e+01 -3.552714e-15 -3.779866e+00 3.588310e+01 -1.776357e-15 -6.697596e+00 3.503243e+00 1.421085e-14 -8.932954e+01 2.686305e+01 2.192690e-15 -2.666410e+01 2.926351e+01 -8.049117e-16 -2.864337e+01 1.441375e+02 6.416591e+01 1.421085e-14 1.147286e+02 3.240211e+01 0.000000e+00 7.798229e+01 1.729555e+01 0.000000e+00 7.597253e+01 2.151603e+01 0.000000e+00 4.324362e+01 1.776357e-15 -4.152774e+00 4.414513e+01 0.000000e+00 -1.178831e+01 1.405851e+02 6.000115e+01 0.000000e+00 4.067730e+01 3.552714e-15 -1.417833e+01 6.679550e+01 1.297977e+01 -3.552714e-15 2.172513e+01 -1.154632e-14 -3.339801e+01 1.358620e+02 5.629407e+01 1.421085e-14 2.237141e+01 -4.884981e-15 -3.263420e+01 1.719777e+01 1.776357e-15 -3.463791e+01 2.442913e+01 -2.664535e-15 -2.995904e+01 3.941631e+01 -5.329071e-15 -2.538006e+01 6.450294e+01 1.382105e+01 3.552714e-15 6.009478e+01 1.113607e+01 -1.065814e-14 3.844724e+01 3.552714e-15 -1.677024e+01 3.015113e+01 0.000000e+00 -1.934461e+01 6.421148e+01 5.886549e+00 7.105427e-15 1.205146e+02 4.577519e+01 7.105427e-15 6.408250e+01 8.678162e+00 0.000000e+00 1.016073e+02 3.884118e+01 0.000000e+00 9.645173e+01 3.255593e+01 0.000000e+00 1.118353e+02 4.948166e+01 -1.421085e-14 5.948233e+01 -3.552714e-15 -3.211895e+00 8.906480e+01 2.008139e+01 1.421085e-14 3.387417e+01 -1.776357e-15 -2.714312e+01 2.890171e+01 -5.190293e-15 -2.945991e+01 3.647510e+01 4.440892e-15 -2.391529e+01 2.987282e+01 2.664535e-15 -2.619015e+01 5.392832e+01 2.051349e+00 1.065814e-14 4.671934e+01 1.462144e+00 1.776357e-14 6.714702e+01 7.711359e+00 -7.105427e-15 5.719569e+01 3.166100e+00 -7.105427e-15 4.885147e+01 1.067581e+00 3.197442e-14 6.828572e+01 1.333458e+01 3.552714e-15 6.769791e+01 1.228197e+01 3.552714e-15 9.097753e+01 2.648869e+01 -7.105427e-15 3.528687e+01 -1.776357e-15 -1.426079e+01 2.059070e+01 -5.329071e-15 -3.766382e+01 5.157652e+01 -3.552714e-15 -1.675666e+00 1.290311e+02 4.336593e+01 -7.105427e-15 4.747235e+01 1.243450e-14 -1.534779e+00 2.517223e+01 -5.773160e-15 -3.118739e+01 4.998509e+01 -8.881784e-15 -6.705552e+00 2.490216e+01 4.440892e-16 -2.915698e+01 4.042807e+01 -1.776357e-15 -9.575781e+00 6.115269e+00 3.552714e-14 -1.081304e+02 3.709563e+01 -5.329071e-15 -2.115325e+01 1.418798e+01 1.776357e-15 -3.902971e+01 5.028282e+01 0.000000e+00 -6.834840e+00 5.130922e+01 -3.552714e-15 -9.042379e+00 5.534405e+01 5.729631e+00 7.105427e-15 1.068535e+02 3.134198e+01 -7.105427e-15 3.492888e+01 5.329071e-15 -5.413641e+00 6.230302e+01 1.635236e+00 7.105427e-15 3.757159e+01 -3.552714e-15 -2.185598e+01 3.726374e+01 4.884981e-15 -2.567244e+01 8.816263e+01 2.438222e+01 -7.105427e-15 9.696714e+01 2.145201e+01 -7.105427e-15 4.277859e+01 -5.329071e-15 -2.042579e+01 3.832901e+01 -4.440892e-15 -2.179580e+01 1.911613e+01 -8.881784e-16 -3.974679e+01 6.676238e+01 8.692484e+00 -1.065814e-14 7.061042e+01 6.456293e+00 -3.552714e-15 4.702443e+01 -1.065814e-14 -3.513106e+00 2.123828e+01 2.664535e-15 -3.693785e+01 3.394439e+01 -4.440892e-16 -2.351252e+01 7.891805e+01 1.560751e+01 0.000000e+00 5.375461e+01 -5.329071e-15 -6.502592e+00 3.017895e+01 -3.996803e-15 -1.996577e+01 3.695392e+01 1.776357e-15 -2.178803e+01 4.084806e+01 -1.243450e-14 -1.704936e+01 6.146244e+01 7.992904e-01 3.552714e-15 5.727083e+01 5.641589e+00 3.552714e-15 8.668392e+01 2.433268e+01 7.105427e-15 9.700986e+01 2.194024e+01 -1.421085e-14 7.589000e+01 1.673167e+01 3.552714e-15 4.606956e+01 1.933649e+00 -1.065814e-14 8.538712e+01 2.124021e+01 1.421085e-14 7.822429e+01 1.772435e+01 -3.552714e-15 8.778258e+01 1.917125e+01 7.105427e-15 4.717251e+01 -8.881784e-15 -1.860640e+01 4.700926e+01 5.329071e-15 -1.249623e+01 3.781710e+01 -7.105427e-15 -1.503138e+01 4.278869e+01 -7.105427e-15 -9.721641e+00 8.757541e+01 1.569180e+01 -7.105427e-15 8.353672e+01 1.429021e+01 0.000000e+00 4.188767e+01 1.776357e-15 -1.606557e+01 4.632767e+01 -7.105427e-15 -1.974511e+01 4.887164e+01 -1.776357e-15 -1.431148e+01 6.630358e+01 7.404238e+00 0.000000e+00 5.991813e+01 7.809722e+00 -1.065814e-14 2.662261e+01 -2.553513e-15 -2.621292e+01 4.325926e+01 1.065814e-14 -5.254021e+00 7.048920e+01 8.572539e+00 -7.105427e-15 6.656983e+01 1.167915e+01 -3.552714e-15 5.321173e+01 -7.105427e-15 -1.287114e+01 7.204448e+01 1.353098e+01 -7.105427e-15 3.983270e+01 -8.881784e-16 -1.765074e+01 4.984777e+01 -1.065814e-14 -2.576074e+00 5.907381e+01 1.966307e+00 2.131628e-14 9.799132e+01 3.409329e+01 0.000000e+00 8.358518e+01 1.324398e+01 0.000000e+00 5.894729e+01 3.643017e+00 -1.065814e-14 3.946114e+01 -1.776357e-15 -1.942506e+01 5.301724e+01 2.486900e-14 -5.480398e-01 4.624652e+01 -1.065814e-14 -9.573295e+00 6.457271e+01 -4.369838e-13 -1.835888e-01 5.354818e+01 5.329071e-15 -1.326894e+01 7.651138e+01 1.156172e+01 -1.065814e-14 6.127187e+01 3.552714e-15 -5.046556e+00 1.955924e+01 -6.217249e-15 -3.222166e+01 3.997595e+01 8.881784e-16 -1.687688e+01 7.119803e+01 9.264547e+00 3.552714e-15   </DataArray>
  <DataArray type="Float64" Name="IST_StrainTensor" NumberOfComponents="9" format="ascii">8.186036e-05 -3.052653e-05 0.000000e+00 -3.052653e-05 -4.523167e-04 0.000000e+00 0.000000e+00 0.000000e+00 0.000000e+00 1.069514e-04 -1.385187e-05 0.000000e+00 -1.385187e-05 -4.143788e-04 0.000000e+00 0.000000e+00 0.000000e+00 0.000000e+00 1.142237e-04 -1.011467e-05 0.000000e+00 -1.011467e-05 -3.751658e-04 0.000000e+00 0.000000e+00 0.000000e+00 0.000000e+00 1.150234e-04 -9.014350e-06 0.000000e+00 -9.014350e-06 -3.362000e-04 0.000000e+00 0.000000e+00 0.000000e+00 0.000000e+00 1.160913e-04 -8.941199e-06 0.000000e+00 -8.941199e-06 -3.005748e-04 0.000000e+00 0.000000e+00 0.000000e+00 0.000000e+00 1.179935e-04 -9.137336e-06 0.000000e+00 -9.137336e-06 -2.660837e-04 0.000000e+00 0.000000e+00 0.000000e+00 0.000000e+00 1.224940e-04 -8.629971e-06 0.000000e+00 -8.629971e-06 -2.355137e-04 0.000000e+00 0.000000e+00 0.000000e+00 0.000000e+00 1.286026e-04 -8.960926e-06 0.000000e+00 -8.960926e-06 -2.069210e-04 0.000000e+00 0.000000e+00 0.000000e+00 0.000000e+00 1.368466e-04 -9.394755e-06 0.000000e+00 -9.394755e-06 -1.803795e-04 0.000000e+00 0.000000e+00 0.000000e+00 0.000000e+00 1.468604e-04 -9.995390e-06 0.000000e+00 -9.995390e-06 -1.554886e-04 0.000000e+00 0.000000e+00 0.000000e+00 0.000000e+00 1.578484e-04 -1.077728e-05 0.000000e+00 -1.077728e-05 -1.301981e-04 0.000000e+00 0.000000e+00 0.000000e+00 0.000000e+00 1.717464e-04 -1.094864e-05 0.000000e+00 -1.094864e-05 -1.075355e-04 0.000000e+00 0.000000e+00 0.000000e+00 0.000000e+00 1.874645e-04 -1.192922e-05 0.000000e+00 -1.192922e-05 -8.554131e-05 0.000000e+00 0.000000e+00 0.000000e+00 0.000000e+00 2.040146e-04 -1.265446e-05 0.000000e+00 -1.265446e-05 -6.141908e-05 0.000000e+00 0.000000e+00 0.000000e+00 0.000000e+00 2.237133e-04 -1.328800e-05 0.000000e+00 -1.328800e-05 -3.859846e-05 0.000000e+00 0.000000e+00 0.000000e+00 0.000000e+00 2.440901e-04 -1.494170e-05 0.000000e+00 -1.494170e-05 -1.195790e-05 0.000000e+00 0.000000e+00 0.000000e+00 0.000000e+00 2.671884e-04 -1.706277e-05 0.000000e+00 -1.706277e-05 1.637678e-05 0.000000e+00 0.000000e+00 0.000000e+00 0.000000e+00 2.956066e-04 -1.917112e-05 0.000000e+00 -1.917112e-05 4.408348e-05 0.000000e+00 0.000000e+00 0.000000e+00 0.000000e+00 3.261946e-04 -1.960172e-05 0.000000e+00 -1.960172e-05 8.024685e-05 0.000000e+00 0.000000e+00 0.000000e+00 0.000000e+00 3.636576e-04 -2.608098e-05 0.000000e+00 -2.608098e-05 1.195939e-04 0.000000e+00 0.000000e+00 0.000000e+00 0.000000e+00 4.116686e-04 -3.378866e-05 0.000000e+00 -3.378866e-05 1.664913e-04 0.000000e+00 0.000000e+00 0.000000e+00 0.000000e+00 4.777690e-04 -4.451860e-05 0.000000e+00 -4.451860e-05 2.293357e-04 0.000000e+00 0.000000e+00 0.000000e+00 0.000000e+00 5.815075e-04 -7.734545e-05 0.000000e+00 -7.734545e-05 3.157473e-04 0.000000e+00 0.000000e+00 0.000000e+00 0.000000e+00 7.793458e-04 -1.880223e-04 0.000000e+00 -1.880223e-04 4.813832e-04 0.000000e+00 0.000000e+00 0.000000e+00 0.000000e+00 1.067131e-03 -5.989308e-04 0.000000e+00 -5.989308e-04 1.120533e-03 0.000000e+00 0.000000e+00 0.000000e+00 0.000000e+00 1.694262e-04 1.148988e-05 0.000000e+00 1.148988e-05 -4.552244e-05 0.000000e+00 0.000000e+00 0.000000e+00 0.000000e+00 1.507942e-04 1.317082e-05 0.000000e+00 1.317082e-05 -4.749693e-05 0.000000e+00 0.000000e+00 0.000000e+00 0.000000e+00 1.162821e-04 1.773500e-05 0.000000e+00 1.773500e-05 -3.628627e-05 0.000000e+00 0.000000e+00 0.000000e+00 0.000000e+00 5.885061e-05 2.373560e-05 0.000000e+00 2.373560e-05 -1.495206e-05 0.000000e+00 0.000000e+00 0.000000e+00 0.000000e+00 7.056231e-05 2.773369e-05 0.000000e+00 2.773369e-05 -1.361045e-05 0.000000e+00 0.000000e+00 0.000000e+00 0.000000e+00 1.208639e-04 6.182340e-05 0.000000e+00 6.182340e-05 -1.521459e-05 0.000000e+00 0.000000e+00 0.000000e+00 0.000000e+00 1.445768e-04 4.317932e-05 0.000000e+00 4.317932e-05 -2.789574e-05 0.000000e+00 0.000000e+00 0.000000e+00 0.000000e+00 3.566261e-05 2.300597e-05 0.000000e+00 2.300597e-05 -7.931640e-06 0.000000e+00 0.000000e+00 0.000000e+00 0.000000e+00 -3.156562e-05 1.232731e-05 0.000000e+00 1.232731e-05 1.903047e-05 0.000000e+00 0.000000e+00 0.000000e+00 0.000000e+00 -2.653747e-05 -7.129912e-06 0.000000e+00 -7.129912e-06 1.102677e-05 0.000000e+00 0.000000e+00 0.000000e+00 0.000000e+00 -1.561641e-06 -3.071322e-06 0.000000e+00 -3.071322e-06 -1.747448e-06 0.000000e+00 0.000000e+00 0.000000e+00 0.000000e+00 2.243863e-06 -3.356864e-06 0.000000e+00 -3.356864e-06 -9.424327e-06 0.000000e+00 0.000000e+00 0.000000e+00 0.000000e+00 6.853377e-06 3.021277e-06 0.000000e+00 3.021277e-06 -1.521472e-05 0.000000e+00 0.000000e+00 0.000000e+00 0.000000e+00 -6.667668e-07 5.881606e-06 0.000000e+00 5.881606e-06 1.661977e-06 0.000000e+00 0.000000e+00 0.000000e+00 0.000000e+00 -6.304989e-06 2.140882e-06 0.000000e+00 2.140882e-06 1.519361e-05 0.000000e+00 0.000000e+00 0.000000e+00 0.000000e+00 -3.543732e-06 -3.305493e-06 0.000000e+00 -3.305493e-06 8.791091e-06 0.000000e+00 0.000000e+00 0.000000e+00 0.000000e+00 1.805215e-07 -2.822150e-06 0.000000e+00 -2.822150e-06 2.030280e-06 0.000000e+00 0.000000e+00 0.000000e+00 0.000000e+00 -1.764690e-07 -3.578168e-06 0.000000e+00 -3.578168e-06 1.244590e-06 0.000000e+00 0.000000e+00 0.000000e+00 0.000000e+00 2.627394e-06 -3.351536e-06 0.000000e+00 -3.351536e-06 -1.546070e-06 0.000000e+00 0.000000e+00 0.000000e+00 0.000000e+00 7.349072e-06 -1.864956e-06 0.000000e+00 -1.864956e-06 -2.143460e-06 0.000000e+00 0.000000e+00 0.000000e+00 0.000000e+00 1.257428e-05 5.813159e-07 0.000000e+00 5.813159e-07 -7.769782e-06 0.000000e+00 0.000000e+00 0.000000e+00 0.000000e+00 -1.083676e-05 1.392823e-05 0.000000e+00 1.392823e-05 -1.578942e-06 0.000000e+00 0.000000e+00 0.000000e+00 0.000000e+00 -9.435549e-05 2.887607e-05 0.000000e+00 2.887607e-05 2.593843e-05 0.000000e+00 0.000000e+00 0.000000e+00 0.000000e+00 -2.055434e-04 3.130898e-05 0.000000e+00 3.130898e-05 6.555053e-05 0.000000e+00 0.000000e+00 0.000000e+00 0.000000e+00 -2.865623e-04 1.562649e-05 0.000000e+00 1.562649e-05 1.005124e-04 0.000000e+00 0.000000e+00 0.000000e+00 0.000000e+00 -2.224415e-04 -3.511554e-05 0.000000e+00 -3.511554e-05 8.648950e-05 0.000000e+00 0.000000e+00 0.000000e+00 0.000000e+00 -1.019462e-04 -5.324872e-05 0.000000e+00 -5.324872e-05 3.485582e-05 0.000000e+00 0.000000e+00 0.000000e+00 0.000000e+00 -1.238002e-05 -2.004630e-05 0.000000e+00 -2.004630e-05 -8.556303e-06 0.000000e+00 0.000000e+00 0.000000e+00 0.000000e+00 -7.147436e-05 -4.732409e-05 0.000000e+00 -4.732409e-05 1.127191e-05 0.000000e+00 0.000000e+00 0.000000e+00 0.000000e+00 -9.005538e-06 -1.922374e-05 0.000000e+00 -1.922374e-05 -1.068746e-05 0.000000e+00 0.000000e+00 0.000000e+00 0.000000e+00 2.278093e-05 -5.170239e-05 0.000000e+00 -5.170239e-05 -8.817005e-05 0.000000e+00 0.000000e+00 0.000000e+00 0.000000e+00 9.863497e-06 1.556894e-05 0.000000e+00 1.556894e-05 -1.159390e-05 0.000000e+00 0.000000e+00 0.000000e+00 0.000000e+00 1.770662e-05 7.898262e-06 0.000000e+00 7.898262e-06 -1.392487e-05 0.000000e+00 0.000000e+00 0.000000e+00 0.000000e+00 2.003150e-05 -2.203449e-06 0.000000e+00 -2.203449e-06 -1.055427e-05 0.000000e+00 0.000000e+00 0.000000e+00 0.000000e+00 1.547918e-05 -8.880722e-06 0.000000e+00 -8.880722e-06 -1.215396e-06 0.000000e+00 0.000000e+00 0.000000e+00 0.000000e+00 4.399132e-06 -7.952756e-06 0.000000e+00 -7.952756e-06 1.182682e-05 0.000000e+00 0.000000e+00 0.000000e+00 0.000000e+00 -7.012945e-06 6.072942e-06 0.000000e+00 6.072942e-06 2.422758e-05 0.000000e+00 0.000000e+00 0.000000e+00 0.000000e+00 -8.194932e-06 2.542801e-05 0.000000e+00 2.542801e-05 2.795723e-05 0.000000e+00 0.000000e+00 0.000000e+00 0.000000e+00 -5.859896e-06 5.260505e-05 0.000000e+00 5.260505e-05 2.597075e-05 0.000000e+00 0.000000e+00 0.000000e+00 0.000000e+00 2.431320e-06 7.870877e-05 0.000000e+00 7.870877e-05 2.040555e-05 0.000000e+00 0.000000e+00 0.000000e+00 0.000000e+00 2.912043e-05 1.027684e-04 0.000000e+00 1.027684e-04 7.103907e-06 0.000000e+00 0.000000e+00 0.000000e+00 0.000000e+00 4.485270e-05 1.134464e-04 0.000000e+00 1.134464e-04 -5.914546e-06 0.000000e+00 0.000000e+00 0.000000e+00 0.000000e+00 5.205898e-05 1.166551e-04 0.000000e+00 1.166551e-04 -1.524471e-05 0.000000e+00 0.000000e+00 0.000000e+00 0.000000e+00 4.876311e-05 1.146592e-04 0.000000e+00 1.146592e-04 -1.762702e-05 0.000000e+00 0.000000e+00 0.000000e+00 0.000000e+00 3.377469e-05 1.114633e-04 0.000000e+00 1.114633e-04 -1.393793e-05 0.000000e+00 0.000000e+00 0.000000e+00 0.000000e+00 1.229159e-05 1.111655e-04 0.000000e+00 1.111655e-04 -7.021857e-06 0.000000e+00 0.000000e+00 0.000000e+00 0.000000e+00 -9.767911e-06 1.169272e-04 0.000000e+00 1.169272e-04 5.423732e-07 0.000000e+00 0.000000e+00 0.000000e+00 0.000000e+00 -1.904852e-05 1.263737e-04 0.000000e+00 1.263737e-04 -1.628076e-06 0.000000e+00 0.000000e+00 0.000000e+00 0.000000e+00 -1.472520e-05 1.289418e-04 0.000000e+00 1.289418e-04 -1.425498e-05 0.000000e+00 0.000000e+00 0.000000e+00 0.000000e+00 -6.206526e-07 1.193539e-04 0.000000e+00 1.193539e-04 -3.117540e-05 0.000000e+00 0.000000e+00 0.000000e+00 0.000000e+00 1.342166e-05 9.948591e-05 0.000000e+00 9.948591e-05 -4.414767e-05 0.000000e+00 0.000000e+00 0.000000e+00 0.000000e+00 2.233697e-05 7.746454e-05 0.000000e+00 7.746454e-05 -5.198670e-05 0.000000e+00 0.000000e+00 0.000000e+00 0.000000e+00 2.669198e-05 5.100274e-05 0.000000e+00 5.100274e-05 -5.573871e-05 0.000000e+00 0.000000e+00 0.000000e+00 0.000000e+00 2.286202e-05 2.539622e-05 0.000000e+00 2.539622e-05 -5.025694e-05 0.000000e+00 0.000000e+00 0.000000e+00 0.000000e+00 1.277530e-05 6.978824e-06 0.000000e+00 6.978824e-06 -3.879705e-05 0.000000e+00 0.000000e+00 0.000000e+00 0.000000e+00 -1.614477e-06 3.285511e-06 0.000000e+00 3.285511e-06 -2.058259e-05 0.000000e+00 0.000000e+00 0.000000e+00 0.000000e+00 -6.715897e-06 8.306666e-06 0.000000e+00 8.306666e-06 -1.072464e-05 0.000000e+00 0.000000e+00 0.000000e+00 0.000000e+00 -4.368502e-06 1.409257e-05 0.000000e+00 1.409257e-05 -7.471459e-06 0.000000e+00 0.000000e+00 0.000000e+00 0.000000e+00 1.643541e-06 1.713676e-05 0.000000e+00 1.713676e-05 -8.684411e-06 0.000000e+00 0.000000e+00 0.000000e+00 0.000000e+00 7.787676e-07 -3.834512e-06 0.000000e+00 -3.834512e-06 -2.469579e-06 0.000000e+00 0.000000e+00 0.000000e+00 0.000000e+00 4.582054e-05 -2.637458e-05 0.000000e+00 -2.637458e-05 -4.523167e-04 0.000000e+00 0.000000e+00 0.000000e+00 0.000000e+00 9.895129e-05 -1.949016e-05 0.000000e+00 -1.949016e-05 -4.355201e-04 0.000000e+00 0.000000e+00 0.000000e+00 0.000000e+00 1.083482e-04 -1.367943e-05 0.000000e+00 -1.367943e-05 -4.416821e-04 0.000000e+00 0.000000e+00 0.000000e+00 0.000000e+00 1.130982e-04 -5.590563e-06 0.000000e+00 -5.590563e-06 -4.241517e-04 0.000000e+00 0.000000e+00 0.000000e+00 0.000000e+00 1.120182e-04 -1.129303e-05 0.000000e+00 -1.129303e-05 -3.949270e-04 0.000000e+00 0.000000e+00 0.000000e+00 0.000000e+00 1.153673e-04 -6.945567e-07 0.000000e+00 -6.945567e-07 -3.844560e-04 0.000000e+00 0.000000e+00 0.000000e+00 0.000000e+00 1.145226e-04 -9.569360e-06 0.000000e+00 -9.569360e-06 -3.547828e-04 0.000000e+00 0.000000e+00 0.000000e+00 0.000000e+00 1.151617e-04 -8.847700e-06 0.000000e+00 -8.847700e-06 -3.176635e-04 0.000000e+00 0.000000e+00 0.000000e+00 0.000000e+00 1.166696e-04 -9.391829e-06 0.000000e+00 -9.391829e-06 -2.828106e-04 0.000000e+00 0.000000e+00 0.000000e+00 0.000000e+00 1.154331e-04 7.499998e-08 0.000000e+00 7.499998e-08 -2.912184e-04 0.000000e+00 0.000000e+00 0.000000e+00 0.000000e+00 1.178685e-04 -3.716502e-07 0.000000e+00 -3.716502e-07 -2.745146e-04 0.000000e+00 0.000000e+00 0.000000e+00 0.000000e+00 1.196738e-04 -8.779103e-06 0.000000e+00 -8.779103e-06 -2.498480e-04 0.000000e+00 0.000000e+00 0.000000e+00 0.000000e+00 1.259267e-04 -8.738873e-06 0.000000e+00 -8.738873e-06 -2.220344e-04 0.000000e+00 0.000000e+00 0.000000e+00 0.000000e+00 1.321879e-04 -9.218696e-06 0.000000e+00 -9.218696e-06 -1.929224e-04 0.000000e+00 0.000000e+00 0.000000e+00 0.000000e+00 1.413181e-04 -9.794722e-06 0.000000e+00 -9.794722e-06 -1.672586e-04 0.000000e+00 0.000000e+00 0.000000e+00 0.000000e+00 1.381550e-04 -2.561515e-06 0.000000e+00 -2.561515e-06 -1.734171e-04 0.000000e+00 0.000000e+00 0.000000e+00 0.000000e+00 1.435309e-04 -3.199116e-06 0.000000e+00 -3.199116e-06 -1.610605e-04 0.000000e+00 0.000000e+00 0.000000e+00 0.000000e+00 1.524372e-04 -1.043662e-05 0.000000e+00 -1.043662e-05 -1.432684e-04 0.000000e+00 0.000000e+00 0.000000e+00 0.000000e+00 1.643561e-04 -1.079460e-05 0.000000e+00 -1.079460e-05 -1.183927e-04 0.000000e+00 0.000000e+00 0.000000e+00 0.000000e+00 1.794224e-04 -1.135103e-05 0.000000e+00 -1.135103e-05 -9.661796e-05 0.000000e+00 0.000000e+00 0.000000e+00 0.000000e+00 1.746174e-04 -4.602030e-06 0.000000e+00 -4.602030e-06 -1.018808e-04 0.000000e+00 0.000000e+00 0.000000e+00 0.000000e+00 1.819335e-04 -4.918607e-06 0.000000e+00 -4.918607e-06 -9.066410e-05 0.000000e+00 0.000000e+00 0.000000e+00 0.000000e+00 1.959113e-04 -1.227113e-05 0.000000e+00 -1.227113e-05 -7.422449e-05 0.000000e+00 0.000000e+00 0.000000e+00 0.000000e+00 2.131757e-04 -1.279557e-05 0.000000e+00 -1.279557e-05 -4.934768e-05 0.000000e+00 0.000000e+00 0.000000e+00 0.000000e+00 2.340249e-04 -1.412798e-05 0.000000e+00 -1.412798e-05 -2.621897e-05 0.000000e+00 0.000000e+00 0.000000e+00 0.000000e+00 2.269526e-04 -6.477256e-06 0.000000e+00 -6.477256e-06 -3.203411e-05 0.000000e+00 0.000000e+00 0.000000e+00 0.000000e+00 2.375483e-04 -6.357737e-06 0.000000e+00 -6.357737e-06 -1.917042e-05 0.000000e+00 0.000000e+00 0.000000e+00 0.000000e+00 2.550540e-04 -1.594330e-05 0.000000e+00 -1.594330e-05 2.367624e-06 0.000000e+00 0.000000e+00 0.000000e+00 0.000000e+00 2.590759e-04 -7.813485e-06 0.000000e+00 -7.813485e-06 9.079727e-06 0.000000e+00 0.000000e+00 0.000000e+00 0.000000e+00 2.813066e-04 -1.822122e-05 0.000000e+00 -1.822122e-05 2.918547e-05 0.000000e+00 0.000000e+00 0.000000e+00 0.000000e+00 3.097127e-04 -1.947221e-05 0.000000e+00 -1.947221e-05 6.230236e-05 0.000000e+00 0.000000e+00 0.000000e+00 0.000000e+00 3.452634e-04 -2.130573e-05 0.000000e+00 -2.130573e-05 9.764322e-05 0.000000e+00 0.000000e+00 0.000000e+00 0.000000e+00 3.323314e-04 -1.025507e-05 0.000000e+00 -1.025507e-05 8.937346e-05 0.000000e+00 0.000000e+00 0.000000e+00 0.000000e+00 3.455785e-04 -1.147268e-05 0.000000e+00 -1.147268e-05 1.091032e-04 0.000000e+00 0.000000e+00 0.000000e+00 0.000000e+00 3.862564e-04 -2.963168e-05 0.000000e+00 -2.963168e-05 1.415460e-04 0.000000e+00 0.000000e+00 0.000000e+00 0.000000e+00 4.425042e-04 -3.903194e-05 0.000000e+00 -3.903194e-05 1.936634e-04 0.000000e+00 0.000000e+00 0.000000e+00 0.000000e+00 5.232585e-04 -5.503883e-05 0.000000e+00 -5.503883e-05 2.685780e-04 0.000000e+00 0.000000e+00 0.000000e+00 0.000000e+00 6.610674e-04 -1.159864e-04 0.000000e+00 -1.159864e-04 3.831383e-04 0.000000e+00 0.000000e+00 0.000000e+00 0.000000e+00 5.438370e-04 -5.417252e-05 0.000000e+00 -5.417252e-05 3.507113e-04 0.000000e+00 0.000000e+00 0.000000e+00 0.000000e+00 5.701005e-04 -8.615558e-05 0.000000e+00 -8.615558e-05 4.317952e-04 0.000000e+00 0.000000e+00 0.000000e+00 0.000000e+00 9.415990e-04 -3.333233e-04 0.000000e+00 -3.333233e-04 6.694971e-04 0.000000e+00 0.000000e+00 0.000000e+00 0.000000e+00 2.689795e-04 8.308327e-06 0.000000e+00 8.308327e-06 -8.169388e-05 0.000000e+00 0.000000e+00 0.000000e+00 0.000000e+00 1.634603e-04 1.511550e-06 0.000000e+00 1.511550e-06 -5.774854e-05 0.000000e+00 0.000000e+00 0.000000e+00 0.000000e+00 1.617904e-04 1.044518e-05 0.000000e+00 1.044518e-05 -4.956631e-05 0.000000e+00 0.000000e+00 0.000000e+00 0.000000e+00 1.351082e-04 1.557423e-05 0.000000e+00 1.557423e-05 -4.193252e-05 0.000000e+00 0.000000e+00 0.000000e+00 0.000000e+00 9.280606e-05 2.077095e-05 0.000000e+00 2.077095e-05 -2.984007e-05 0.000000e+00 0.000000e+00 0.000000e+00 0.000000e+00 8.077324e-05 4.605194e-05 0.000000e+00 4.605194e-05 -2.126957e-05 0.000000e+00 0.000000e+00 0.000000e+00 0.000000e+00 1.011603e-04 3.918285e-05 0.000000e+00 3.918285e-05 -1.467243e-05 0.000000e+00 0.000000e+00 0.000000e+00 0.000000e+00 9.033661e-05 5.191970e-05 0.000000e+00 5.191970e-05 -8.792466e-06 0.000000e+00 0.000000e+00 0.000000e+00 0.000000e+00 8.113782e-05 2.736419e-05 0.000000e+00 2.736419e-05 -2.126785e-05 0.000000e+00 0.000000e+00 0.000000e+00 0.000000e+00 -2.856438e-06 1.947307e-05 0.000000e+00 1.947307e-05 8.368613e-06 0.000000e+00 0.000000e+00 0.000000e+00 0.000000e+00 -4.191060e-06 8.345480e-06 0.000000e+00 8.345480e-06 -2.453743e-06 0.000000e+00 0.000000e+00 0.000000e+00 0.000000e+00 -1.572273e-05 -3.987524e-06 0.000000e+00 -3.987524e-06 2.192128e-06 0.000000e+00 0.000000e+00 0.000000e+00 0.000000e+00 -3.811876e-05 2.356518e-07 0.000000e+00 2.356518e-07 1.801683e-05 0.000000e+00 0.000000e+00 0.000000e+00 0.000000e+00 -1.069881e-05 -6.975149e-06 0.000000e+00 -6.975149e-06 2.790379e-06 0.000000e+00 0.000000e+00 0.000000e+00 0.000000e+00 2.764305e-06 -3.990302e-06 0.000000e+00 -3.990302e-06 -8.657968e-06 0.000000e+00 0.000000e+00 0.000000e+00 0.000000e+00 7.012773e-06 -1.131740e-06 0.000000e+00 -1.131740e-06 -1.604915e-05 0.000000e+00 0.000000e+00 0.000000e+00 0.000000e+00 3.591051e-06 -3.096999e-07 0.000000e+00 -3.096999e-07 -1.157230e-05 0.000000e+00 0.000000e+00 0.000000e+00 0.000000e+00 3.818727e-06 5.224454e-06 0.000000e+00 5.224454e-06 -8.352538e-06 0.000000e+00 0.000000e+00 0.000000e+00 0.000000e+00 -4.345296e-06 4.281846e-06 0.000000e+00 4.281846e-06 9.804343e-06 0.000000e+00 0.000000e+00 0.000000e+00 0.000000e+00 -5.579810e-06 -7.786887e-07 0.000000e+00 -7.786887e-07 1.407956e-05 0.000000e+00 0.000000e+00 0.000000e+00 0.000000e+00 -9.429353e-05 3.057496e-05 0.000000e+00 3.057496e-05 2.829846e-05 0.000000e+00 0.000000e+00 0.000000e+00 0.000000e+00 -1.496232e-04 3.135204e-05 0.000000e+00 3.135204e-05 4.438542e-05 0.000000e+00 0.000000e+00 0.000000e+00 0.000000e+00 2.302915e-06 -2.819644e-06 0.000000e+00 -2.819644e-06 1.091165e-07 0.000000e+00 0.000000e+00 0.000000e+00 0.000000e+00 -1.782799e-07 2.076091e-06 0.000000e+00 2.076091e-06 1.210129e-06 0.000000e+00 0.000000e+00 0.000000e+00 0.000000e+00 7.537229e-06 6.672894e-06 0.000000e+00 6.672894e-06 -7.460123e-06 0.000000e+00 0.000000e+00 0.000000e+00 0.000000e+00 -1.212485e-05 9.384395e-06 0.000000e+00 9.384395e-06 4.423585e-06 0.000000e+00 0.000000e+00 0.000000e+00 0.000000e+00 -4.462901e-05 2.213692e-05 0.000000e+00 2.213692e-05 8.728018e-06 0.000000e+00 0.000000e+00 0.000000e+00 0.000000e+00 -1.342780e-04 3.102735e-05 0.000000e+00 3.102735e-05 3.858256e-05 0.000000e+00 0.000000e+00 0.000000e+00 0.000000e+00 -2.552264e-04 2.600755e-05 0.000000e+00 2.600755e-05 8.516621e-05 0.000000e+00 0.000000e+00 0.000000e+00 0.000000e+00 -1.751655e-04 -3.788077e-05 0.000000e+00 -3.788077e-05 4.771725e-05 0.000000e+00 0.000000e+00 0.000000e+00 0.000000e+00 -2.798789e-04 -7.775890e-06 0.000000e+00 -7.775890e-06 1.036394e-04 0.000000e+00 0.000000e+00 0.000000e+00 0.000000e+00 -1.260865e-04 -4.137421e-05 0.000000e+00 -4.137421e-05 2.989209e-05 0.000000e+00 0.000000e+00 0.000000e+00 0.000000e+00 1.534664e-05 8.364964e-06 0.000000e+00 8.364964e-06 -1.100263e-05 0.000000e+00 0.000000e+00 0.000000e+00 0.000000e+00 6.422790e-06 1.377029e-05 0.000000e+00 1.377029e-05 -8.694845e-06 0.000000e+00 0.000000e+00 0.000000e+00 0.000000e+00 2.014778e-05 -1.651499e-06 0.000000e+00 -1.651499e-06 -9.938866e-06 0.000000e+00 0.000000e+00 0.000000e+00 0.000000e+00 1.755610e-05 -1.112349e-05 0.000000e+00 -1.112349e-05 -2.516696e-06 0.000000e+00 0.000000e+00 0.000000e+00 0.000000e+00 1.052247e-05 -1.564829e-05 0.000000e+00 -1.564829e-05 1.137968e-05 0.000000e+00 0.000000e+00 0.000000e+00 0.000000e+00 -1.600310e-06 -7.325315e-06 0.000000e+00 -7.325315e-06 2.953716e-05 0.000000e+00 0.000000e+00 0.000000e+00 0.000000e+00 -6.073573e-06 1.323177e-05 0.000000e+00 1.323177e-05 3.825736e-05 0.000000e+00 0.000000e+00 0.000000e+00 0.000000e+00 -3.260082e-06 4.002105e-05 0.000000e+00 4.002105e-05 4.443289e-05 0.000000e+00 0.000000e+00 0.000000e+00 0.000000e+00 9.925596e-06 6.792866e-05 0.000000e+00 6.792866e-05 3.568012e-05 0.000000e+00 0.000000e+00 0.000000e+00 0.000000e+00 3.166939e-05 9.478927e-05 0.000000e+00 9.478927e-05 2.609272e-05 0.000000e+00 0.000000e+00 0.000000e+00 0.000000e+00 4.721495e-05 1.077523e-04 0.000000e+00 1.077523e-04 6.849177e-06 0.000000e+00 0.000000e+00 0.000000e+00 0.000000e+00 5.281265e-05 1.122186e-04 0.000000e+00 1.122186e-04 -5.958311e-06 0.000000e+00 0.000000e+00 0.000000e+00 0.000000e+00 4.889207e-05 1.154469e-04 0.000000e+00 1.154469e-04 -1.288025e-05 0.000000e+00 0.000000e+00 0.000000e+00 0.000000e+00 3.775715e-05 1.169775e-04 0.000000e+00 1.169775e-04 -1.225818e-05 0.000000e+00 0.000000e+00 0.000000e+00 0.000000e+00 2.165201e-05 1.186024e-04 0.000000e+00 1.186024e-04 -7.501918e-06 0.000000e+00 0.000000e+00 0.000000e+00 0.000000e+00 2.638373e-06 1.220533e-04 0.000000e+00 1.220533e-04 -1.511232e-06 0.000000e+00 0.000000e+00 0.000000e+00 0.000000e+00 -1.227657e-05 1.273742e-04 0.000000e+00 1.273742e-04 -2.434487e-06 0.000000e+00 0.000000e+00 0.000000e+00 0.000000e+00 -1.824926e-05 1.298092e-04 0.000000e+00 1.298092e-04 -1.353224e-05 0.000000e+00 0.000000e+00 0.000000e+00 0.000000e+00 -1.570414e-05 1.247855e-04 0.000000e+00 1.247855e-04 -3.054832e-05 0.000000e+00 0.000000e+00 0.000000e+00 0.000000e+00 -6.845759e-06 1.095067e-04 0.000000e+00 1.095067e-04 -4.645665e-05 0.000000e+00 0.000000e+00 0.000000e+00 0.000000e+00 3.417883e-06 8.794405e-05 0.000000e+00 8.794405e-05 -5.743144e-05 0.000000e+00 0.000000e+00 0.000000e+00 0.000000e+00 1.380524e-05 6.354814e-05 0.000000e+00 6.354814e-05 -6.680361e-05 0.000000e+00 0.000000e+00 0.000000e+00 0.000000e+00 1.734796e-05 3.563358e-05 0.000000e+00 3.563358e-05 -6.698604e-05 0.000000e+00 0.000000e+00 0.000000e+00 0.000000e+00 1.217034e-05 1.216251e-05 0.000000e+00 1.216251e-05 -5.536045e-05 0.000000e+00 0.000000e+00 0.000000e+00 0.000000e+00 1.265086e-06 -1.037709e-06 0.000000e+00 -1.037709e-06 -3.631886e-05 0.000000e+00 0.000000e+00 0.000000e+00 0.000000e+00 -6.212512e-06 3.057834e-07 0.000000e+00 3.057834e-07 -1.824593e-05 0.000000e+00 0.000000e+00 0.000000e+00 0.000000e+00 -6.596150e-06 6.961884e-06 0.000000e+00 6.961884e-06 -9.327500e-06 0.000000e+00 0.000000e+00 0.000000e+00 0.000000e+00 -2.138339e-06 1.258125e-05 0.000000e+00 1.258125e-05 -6.695146e-06 0.000000e+00 0.000000e+00 0.000000e+00 0.000000e+00 -5.021130e-05 2.585771e-05 0.000000e+00 2.585771e-05 3.002179e-04 0.000000e+00 0.000000e+00 0.000000e+00 0.000000e+00 1.143229e-04 -2.438913e-06 0.000000e+00 -2.438913e-06 -4.041955e-04 0.000000e+00 0.000000e+00 0.000000e+00 0.000000e+00 1.154544e-04 3.548787e-07 0.000000e+00 3.548787e-07 -3.646366e-04 0.000000e+00 0.000000e+00 0.000000e+00 0.000000e+00 1.154253e-04 4.266462e-07 0.000000e+00 4.266462e-07 -3.265213e-04 0.000000e+00 0.000000e+00 0.000000e+00 0.000000e+00 1.214109e-04 -1.269258e-06 0.000000e+00 -1.269258e-06 -2.428453e-04 0.000000e+00 0.000000e+00 0.000000e+00 0.000000e+00 1.195748e-04 -6.468797e-07 0.000000e+00 -6.468797e-07 -2.582139e-04 0.000000e+00 0.000000e+00 0.000000e+00 0.000000e+00 1.239728e-04 -1.512140e-06 0.000000e+00 -1.512140e-06 -2.286970e-04 0.000000e+00 0.000000e+00 0.000000e+00 0.000000e+00 1.298807e-04 -1.898451e-06 0.000000e+00 -1.898451e-06 -1.998471e-04 0.000000e+00 0.000000e+00 0.000000e+00 0.000000e+00 1.541399e-04 -3.358586e-06 0.000000e+00 -3.358586e-06 -1.359748e-04 0.000000e+00 0.000000e+00 0.000000e+00 0.000000e+00 1.483868e-04 -3.047521e-06 0.000000e+00 -3.047521e-06 -1.486865e-04 0.000000e+00 0.000000e+00 0.000000e+00 0.000000e+00 1.609350e-04 -4.147844e-06 0.000000e+00 -4.147844e-06 -1.240538e-04 0.000000e+00 0.000000e+00 0.000000e+00 0.000000e+00 1.989814e-04 -5.209036e-06 0.000000e+00 -5.209036e-06 -6.744886e-05 0.000000e+00 0.000000e+00 0.000000e+00 0.000000e+00 1.905605e-04 -5.189400e-06 0.000000e+00 -5.189400e-06 -7.933244e-05 0.000000e+00 0.000000e+00 0.000000e+00 0.000000e+00 2.081823e-04 -5.475710e-06 0.000000e+00 -5.475710e-06 -5.521664e-05 0.000000e+00 0.000000e+00 0.000000e+00 0.000000e+00 2.477493e-04 -6.736099e-06 0.000000e+00 -6.736099e-06 -5.100203e-06 0.000000e+00 0.000000e+00 0.000000e+00 0.000000e+00 2.718645e-04 -9.039662e-06 0.000000e+00 -9.039662e-06 2.265545e-05 0.000000e+00 0.000000e+00 0.000000e+00 0.000000e+00 3.026165e-04 -8.570130e-06 0.000000e+00 -8.570130e-06 5.248398e-05 0.000000e+00 0.000000e+00 0.000000e+00 0.000000e+00 3.912825e-04 -1.604466e-05 0.000000e+00 -1.604466e-05 1.534585e-04 0.000000e+00 0.000000e+00 0.000000e+00 0.000000e+00 3.680917e-04 -1.386798e-05 0.000000e+00 -1.386798e-05 1.302272e-04 0.000000e+00 0.000000e+00 0.000000e+00 0.000000e+00 4.169230e-04 -1.858432e-05 0.000000e+00 -1.858432e-05 1.795249e-04 0.000000e+00 0.000000e+00 0.000000e+00 0.000000e+00 4.814231e-04 -2.583655e-05 0.000000e+00 -2.583655e-05 2.490888e-04 0.000000e+00 0.000000e+00 0.000000e+00 0.000000e+00 4.582800e-04 -1.806989e-04 0.000000e+00 -1.806989e-04 8.388987e-04 0.000000e+00 0.000000e+00 0.000000e+00 0.000000e+00 5.585862e-04 -1.362511e-04 0.000000e+00 -1.362511e-04 5.681127e-04 0.000000e+00 0.000000e+00 0.000000e+00 0.000000e+00 2.134595e-04 1.491370e-05 0.000000e+00 1.491370e-05 -6.497860e-05 0.000000e+00 0.000000e+00 0.000000e+00 0.000000e+00 1.545642e-04 1.571455e-05 0.000000e+00 1.571455e-05 -4.578534e-05 0.000000e+00 0.000000e+00 0.000000e+00 0.000000e+00 1.144921e-04 1.934330e-05 0.000000e+00 1.934330e-05 -3.406693e-05 0.000000e+00 0.000000e+00 0.000000e+00 0.000000e+00 8.826258e-05 3.052191e-05 0.000000e+00 3.052191e-05 -2.850123e-05 0.000000e+00 0.000000e+00 0.000000e+00 0.000000e+00 3.032777e-05 1.846903e-05 0.000000e+00 1.846903e-05 -1.148766e-05 0.000000e+00 0.000000e+00 0.000000e+00 0.000000e+00 -1.625846e-05 -8.715928e-07 0.000000e+00 -8.715928e-07 7.653306e-07 0.000000e+00 0.000000e+00 0.000000e+00 0.000000e+00 -1.012245e-05 -6.022781e-06 0.000000e+00 -6.022781e-06 1.865189e-06 0.000000e+00 0.000000e+00 0.000000e+00 0.000000e+00 2.703009e-06 3.641464e-06 0.000000e+00 3.641464e-06 -9.568455e-06 0.000000e+00 0.000000e+00 0.000000e+00 0.000000e+00 -3.461531e-07 6.156582e-06 0.000000e+00 6.156582e-06 -3.483476e-07 0.000000e+00 0.000000e+00 0.000000e+00 0.000000e+00 -1.527956e-06 -2.067844e-08 0.000000e+00 -2.067844e-08 4.593374e-06 0.000000e+00 0.000000e+00 0.000000e+00 0.000000e+00 -3.200314e-05 1.737632e-05 0.000000e+00 1.737632e-05 9.669322e-06 0.000000e+00 0.000000e+00 0.000000e+00 0.000000e+00 -1.672852e-04 2.689287e-05 0.000000e+00 2.689287e-05 4.696646e-05 0.000000e+00 0.000000e+00 0.000000e+00 0.000000e+00 -1.978759e-04 -6.873716e-07 0.000000e+00 -6.873716e-07 5.614107e-05 0.000000e+00 0.000000e+00 0.000000e+00 0.000000e+00 3.962940e-05 -4.545579e-05 0.000000e+00 -4.545579e-05 -1.173587e-04 0.000000e+00 0.000000e+00 0.000000e+00 0.000000e+00 1.340643e-04 -2.306236e-06 0.000000e+00 -2.306236e-06 -1.864047e-04 0.000000e+00 0.000000e+00 0.000000e+00 0.000000e+00 5.069185e-04 -3.631514e-05 0.000000e+00 -3.631514e-05 2.935445e-04 0.000000e+00 0.000000e+00 0.000000e+00 0.000000e+00 1.330109e-04 1.707250e-05 0.000000e+00 1.707250e-05 -3.937306e-05 0.000000e+00 0.000000e+00 0.000000e+00 0.000000e+00 9.600791e-05 2.183465e-05 0.000000e+00 2.183465e-05 -2.955103e-05 0.000000e+00 0.000000e+00 0.000000e+00 0.000000e+00 -1.411928e-06 -2.200276e-06 0.000000e+00 -2.200276e-06 3.270555e-06 0.000000e+00 0.000000e+00 0.000000e+00 0.000000e+00 1.154092e-04 1.043892e-07 0.000000e+00 1.043892e-07 -3.087008e-04 0.000000e+00 0.000000e+00 0.000000e+00 0.000000e+00 1.159476e-04 6.682302e-07 0.000000e+00 6.682302e-07 -3.452187e-04 0.000000e+00 0.000000e+00 0.000000e+00 0.000000e+00 1.267883e-04 -1.226990e-06 0.000000e+00 -1.226990e-06 -2.142037e-04 0.000000e+00 0.000000e+00 0.000000e+00 0.000000e+00 1.676842e-04 -4.485969e-06 0.000000e+00 -4.485969e-06 -1.128810e-04 0.000000e+00 0.000000e+00 0.000000e+00 0.000000e+00 2.170386e-04 -6.284970e-06 0.000000e+00 -6.284970e-06 -4.356602e-05 0.000000e+00 0.000000e+00 0.000000e+00 0.000000e+00 3.179436e-04 -8.569043e-06 0.000000e+00 -8.569043e-06 7.100628e-05 0.000000e+00 0.000000e+00 0.000000e+00 0.000000e+00 2.867240e-04 -9.363118e-06 0.000000e+00 -9.363118e-06 3.643074e-05 0.000000e+00 0.000000e+00 0.000000e+00 0.000000e+00 4.496758e-04 -1.977531e-05 0.000000e+00 -1.977531e-05 2.112195e-04 0.000000e+00 0.000000e+00 0.000000e+00 0.000000e+00 1.812809e-04 1.548286e-05 0.000000e+00 1.548286e-05 -5.354015e-05 0.000000e+00 0.000000e+00 0.000000e+00 0.000000e+00 6.220470e-05 2.399640e-05 0.000000e+00 2.399640e-05 -1.932528e-05 0.000000e+00 0.000000e+00 0.000000e+00 0.000000e+00 -1.333058e-06 2.285359e-06 0.000000e+00 2.285359e-06 4.265611e-06 0.000000e+00 0.000000e+00 0.000000e+00 0.000000e+00 1.489461e-06 6.119556e-06 0.000000e+00 6.119556e-06 -4.967410e-06 0.000000e+00 0.000000e+00 0.000000e+00 0.000000e+00 -5.920120e-05 2.464182e-05 0.000000e+00 2.464182e-05 1.756351e-05 0.000000e+00 0.000000e+00 0.000000e+00 0.000000e+00 -1.917610e-04 1.738392e-05 0.000000e+00 1.738392e-05 5.241398e-05 0.000000e+00 0.000000e+00 0.000000e+00 0.000000e+00 1.166051e-04 -1.914158e-05 0.000000e+00 -1.914158e-05 -3.667637e-04 0.000000e+00 0.000000e+00 0.000000e+00 0.000000e+00 1.152599e-04 -1.801317e-05 0.000000e+00 -1.801317e-05 -3.276280e-04 0.000000e+00 0.000000e+00 0.000000e+00 0.000000e+00 1.269899e-04 -1.992552e-05 0.000000e+00 -1.992552e-05 -2.142865e-04 0.000000e+00 0.000000e+00 0.000000e+00 0.000000e+00 1.209749e-04 -1.905429e-05 0.000000e+00 -1.905429e-05 -2.430145e-04 0.000000e+00 0.000000e+00 0.000000e+00 0.000000e+00 1.157216e-04 -1.861263e-05 0.000000e+00 -1.861263e-05 -3.474749e-04 0.000000e+00 0.000000e+00 0.000000e+00 0.000000e+00 1.180701e-04 -7.257147e-06 0.000000e+00 -7.257147e-06 -3.374275e-04 0.000000e+00 0.000000e+00 0.000000e+00 0.000000e+00 1.236752e-04 -1.919225e-05 0.000000e+00 -1.919225e-05 -2.278395e-04 0.000000e+00 0.000000e+00 0.000000e+00 0.000000e+00 1.226872e-04 -1.145090e-05 0.000000e+00 -1.145090e-05 -2.355348e-04 0.000000e+00 0.000000e+00 0.000000e+00 0.000000e+00 1.225484e-04 -1.189514e-05 0.000000e+00 -1.189514e-05 -2.205982e-04 0.000000e+00 0.000000e+00 0.000000e+00 0.000000e+00 1.179549e-04 -1.947114e-05 0.000000e+00 -1.947114e-05 -2.572775e-04 0.000000e+00 0.000000e+00 0.000000e+00 0.000000e+00 1.228140e-04 -1.103723e-05 0.000000e+00 -1.103723e-05 -2.510003e-04 0.000000e+00 0.000000e+00 0.000000e+00 0.000000e+00 1.676583e-04 -2.650178e-05 0.000000e+00 -2.650178e-05 -1.128867e-04 0.000000e+00 0.000000e+00 0.000000e+00 0.000000e+00 1.541331e-04 -2.583303e-05 0.000000e+00 -2.583303e-05 -1.365904e-04 0.000000e+00 0.000000e+00 0.000000e+00 0.000000e+00 5.230866e-04 -1.402085e-04 0.000000e+00 -1.402085e-04 3.108305e-04 0.000000e+00 0.000000e+00 0.000000e+00 0.000000e+00 1.598225e-04 -2.612265e-05 0.000000e+00 -2.612265e-05 -1.237730e-04 0.000000e+00 0.000000e+00 0.000000e+00 0.000000e+00 1.580212e-04 -1.830215e-05 0.000000e+00 -1.830215e-05 -1.304225e-04 0.000000e+00 0.000000e+00 0.000000e+00 0.000000e+00 1.634216e-04 -1.959832e-05 0.000000e+00 -1.959832e-05 -1.181439e-04 0.000000e+00 0.000000e+00 0.000000e+00 0.000000e+00 1.491531e-04 -2.472444e-05 0.000000e+00 -2.472444e-05 -1.490739e-04 0.000000e+00 0.000000e+00 0.000000e+00 0.000000e+00 1.487571e-04 -1.766640e-05 0.000000e+00 -1.766640e-05 -1.422262e-04 0.000000e+00 0.000000e+00 0.000000e+00 0.000000e+00 1.981474e-04 -3.183081e-05 0.000000e+00 -3.183081e-05 -6.675355e-05 0.000000e+00 0.000000e+00 0.000000e+00 0.000000e+00 2.169373e-04 -3.238139e-05 0.000000e+00 -3.238139e-05 -4.329375e-05 0.000000e+00 0.000000e+00 0.000000e+00 0.000000e+00 2.073816e-04 -3.218583e-05 0.000000e+00 -3.218583e-05 -5.531307e-05 0.000000e+00 0.000000e+00 0.000000e+00 0.000000e+00 2.021444e-04 -2.469931e-05 0.000000e+00 -2.469931e-05 -6.097981e-05 0.000000e+00 0.000000e+00 0.000000e+00 0.000000e+00 2.131763e-04 -2.447896e-05 0.000000e+00 -2.447896e-05 -4.964102e-05 0.000000e+00 0.000000e+00 0.000000e+00 0.000000e+00 1.900890e-04 -3.068727e-05 0.000000e+00 -3.068727e-05 -7.946523e-05 0.000000e+00 0.000000e+00 0.000000e+00 0.000000e+00 1.905856e-04 -2.323796e-05 0.000000e+00 -2.323796e-05 -7.256862e-05 0.000000e+00 0.000000e+00 0.000000e+00 0.000000e+00 2.489148e-04 -3.947172e-05 0.000000e+00 -3.947172e-05 -2.811656e-06 0.000000e+00 0.000000e+00 0.000000e+00 0.000000e+00 3.109006e-04 -4.983903e-05 0.000000e+00 -4.983903e-05 7.603401e-05 0.000000e+00 0.000000e+00 0.000000e+00 0.000000e+00 2.727015e-04 -4.517552e-05 0.000000e+00 -4.517552e-05 2.588566e-05 0.000000e+00 0.000000e+00 0.000000e+00 0.000000e+00 2.974947e-04 -5.012322e-05 0.000000e+00 -5.012322e-05 5.809526e-05 0.000000e+00 0.000000e+00 0.000000e+00 0.000000e+00 3.066227e-04 -3.862251e-05 0.000000e+00 -3.862251e-05 6.473982e-05 0.000000e+00 0.000000e+00 0.000000e+00 0.000000e+00 4.391048e-04 -1.002490e-04 0.000000e+00 -1.002490e-04 2.247782e-04 0.000000e+00 0.000000e+00 0.000000e+00 0.000000e+00 3.907441e-04 -8.086094e-05 0.000000e+00 -8.086094e-05 1.630420e-04 0.000000e+00 0.000000e+00 0.000000e+00 0.000000e+00 2.844674e-04 -4.825118e-05 0.000000e+00 -4.825118e-05 4.131262e-05 0.000000e+00 0.000000e+00 0.000000e+00 0.000000e+00 2.712844e-04 -3.688919e-05 0.000000e+00 -3.688919e-05 3.301567e-05 0.000000e+00 0.000000e+00 0.000000e+00 0.000000e+00 2.845550e-04 -3.795641e-05 0.000000e+00 -3.795641e-05 4.890253e-05 0.000000e+00 0.000000e+00 0.000000e+00 0.000000e+00 4.145143e-04 -9.162577e-05 0.000000e+00 -9.162577e-05 1.930334e-04 0.000000e+00 0.000000e+00 0.000000e+00 0.000000e+00 3.768517e-04 -6.758737e-05 0.000000e+00 -6.758737e-05 1.785332e-04 0.000000e+00 0.000000e+00 0.000000e+00 0.000000e+00 4.022613e-04 -7.448890e-05 0.000000e+00 -7.448890e-05 2.075859e-04 0.000000e+00 0.000000e+00 0.000000e+00 0.000000e+00 3.711355e-04 -7.037076e-05 0.000000e+00 -7.037076e-05 1.357199e-04 0.000000e+00 0.000000e+00 0.000000e+00 0.000000e+00 3.542151e-04 -5.940755e-05 0.000000e+00 -5.940755e-05 1.516412e-04 0.000000e+00 0.000000e+00 0.000000e+00 0.000000e+00 4.795204e-04 -1.127835e-04 0.000000e+00 -1.127835e-04 2.650712e-04 0.000000e+00 0.000000e+00 0.000000e+00 0.000000e+00 4.378187e-04 -7.966700e-05 0.000000e+00 -7.966700e-05 2.406439e-04 0.000000e+00 0.000000e+00 0.000000e+00 0.000000e+00 4.291460e-04 -1.030169e-04 0.000000e+00 -1.030169e-04 2.962757e-04 0.000000e+00 0.000000e+00 0.000000e+00 0.000000e+00 1.772956e-04 4.618716e-05 0.000000e+00 4.618716e-05 -4.986389e-05 0.000000e+00 0.000000e+00 0.000000e+00 0.000000e+00 4.771349e-04 -2.732657e-04 0.000000e+00 -2.732657e-04 8.924908e-04 0.000000e+00 0.000000e+00 0.000000e+00 0.000000e+00 1.344475e-04 4.092181e-05 0.000000e+00 4.092181e-05 -4.152409e-05 0.000000e+00 0.000000e+00 0.000000e+00 0.000000e+00 2.095466e-04 5.980221e-05 0.000000e+00 5.980221e-05 -4.976042e-05 0.000000e+00 0.000000e+00 0.000000e+00 0.000000e+00 2.051434e-04 5.031271e-05 0.000000e+00 5.031271e-05 -6.021506e-05 0.000000e+00 0.000000e+00 0.000000e+00 0.000000e+00 2.536793e-04 9.432850e-05 0.000000e+00 9.432850e-05 -4.161856e-05 0.000000e+00 0.000000e+00 0.000000e+00 0.000000e+00 2.422289e-04 6.801044e-05 0.000000e+00 6.801044e-05 -6.821776e-05 0.000000e+00 0.000000e+00 0.000000e+00 0.000000e+00 5.784050e-04 -2.936600e-04 0.000000e+00 -2.936600e-04 6.607600e-04 0.000000e+00 0.000000e+00 0.000000e+00 0.000000e+00 2.638826e-04 -1.599210e-04 0.000000e+00 -1.599210e-04 8.328145e-04 0.000000e+00 0.000000e+00 0.000000e+00 0.000000e+00 1.545642e-04 4.243757e-05 0.000000e+00 4.243757e-05 -4.556861e-05 0.000000e+00 0.000000e+00 0.000000e+00 0.000000e+00 1.463838e-04 4.067815e-05 0.000000e+00 4.067815e-05 -4.475447e-05 0.000000e+00 0.000000e+00 0.000000e+00 0.000000e+00 3.672444e-04 -3.121969e-05 0.000000e+00 -3.121969e-05 -2.192715e-04 0.000000e+00 0.000000e+00 0.000000e+00 0.000000e+00 5.243849e-05 5.761725e-05 0.000000e+00 5.761725e-05 -1.083791e-05 0.000000e+00 0.000000e+00 0.000000e+00 0.000000e+00 1.011499e-04 4.245508e-05 0.000000e+00 4.245508e-05 -3.336680e-05 0.000000e+00 0.000000e+00 0.000000e+00 0.000000e+00 7.652661e-05 6.062385e-05 0.000000e+00 6.062385e-05 -1.161501e-05 0.000000e+00 0.000000e+00 0.000000e+00 0.000000e+00 7.134803e-05 5.781067e-05 0.000000e+00 5.781067e-05 -1.208088e-05 0.000000e+00 0.000000e+00 0.000000e+00 0.000000e+00 -3.689754e-06 -3.312911e-06 0.000000e+00 -3.312911e-06 2.925562e-06 0.000000e+00 0.000000e+00 0.000000e+00 0.000000e+00 1.086685e-04 4.172749e-05 0.000000e+00 4.172749e-05 -3.473167e-05 0.000000e+00 0.000000e+00 0.000000e+00 0.000000e+00 2.405180e-05 5.026367e-05 0.000000e+00 5.026367e-05 3.182255e-07 0.000000e+00 0.000000e+00 0.000000e+00 0.000000e+00 -5.491108e-06 6.344403e-06 0.000000e+00 6.344403e-06 3.446607e-06 0.000000e+00 0.000000e+00 0.000000e+00 0.000000e+00 8.663368e-06 6.492903e-06 0.000000e+00 6.492903e-06 -9.897480e-06 0.000000e+00 0.000000e+00 0.000000e+00 0.000000e+00 -1.525695e-05 -7.022901e-06 0.000000e+00 -7.022901e-06 1.325890e-05 0.000000e+00 0.000000e+00 0.000000e+00 0.000000e+00 -7.749186e-06 -1.251069e-05 0.000000e+00 -1.251069e-05 3.820528e-06 0.000000e+00 0.000000e+00 0.000000e+00 0.000000e+00 -3.506561e-06 -7.210134e-06 0.000000e+00 -7.210134e-06 -1.046298e-06 0.000000e+00 0.000000e+00 0.000000e+00 0.000000e+00 1.146198e-04 -2.393736e-05 0.000000e+00 -2.393736e-05 -4.092883e-04 0.000000e+00 0.000000e+00 0.000000e+00 0.000000e+00 6.705906e-06 -6.776598e-06 0.000000e+00 -6.776598e-06 -8.368217e-06 0.000000e+00 0.000000e+00 0.000000e+00 0.000000e+00 1.106025e-05 -4.606917e-07 0.000000e+00 -4.606917e-07 -1.157347e-05 0.000000e+00 0.000000e+00 0.000000e+00 0.000000e+00 4.951801e-06 -5.435134e-06 0.000000e+00 -5.435134e-06 -8.752911e-06 0.000000e+00 0.000000e+00 0.000000e+00 0.000000e+00 5.835740e-06 4.167550e-06 0.000000e+00 4.167550e-06 -1.084469e-05 0.000000e+00 0.000000e+00 0.000000e+00 0.000000e+00 -6.629229e-05 5.903497e-05 0.000000e+00 5.903497e-05 8.987975e-06 0.000000e+00 0.000000e+00 0.000000e+00 0.000000e+00 -5.208788e-06 -5.641162e-08 0.000000e+00 -5.641162e-08 4.673691e-06 0.000000e+00 0.000000e+00 0.000000e+00 0.000000e+00 -1.182229e-06 2.911378e-06 0.000000e+00 2.911378e-06 -1.756579e-06 0.000000e+00 0.000000e+00 0.000000e+00 0.000000e+00 -9.707876e-07 3.873796e-07 0.000000e+00 3.873796e-07 -4.183956e-06 0.000000e+00 0.000000e+00 0.000000e+00 0.000000e+00 2.907996e-06 1.062811e-05 0.000000e+00 1.062811e-05 -4.634525e-06 0.000000e+00 0.000000e+00 0.000000e+00 0.000000e+00 -3.406727e-05 4.365528e-05 0.000000e+00 4.365528e-05 -2.403168e-06 0.000000e+00 0.000000e+00 0.000000e+00 0.000000e+00 -1.005076e-04 6.800830e-05 0.000000e+00 6.800830e-05 2.695758e-05 0.000000e+00 0.000000e+00 0.000000e+00 0.000000e+00 -1.073840e-06 -3.659614e-06 0.000000e+00 -3.659614e-06 1.285988e-06 0.000000e+00 0.000000e+00 0.000000e+00 0.000000e+00 2.427779e-07 -1.899237e-06 0.000000e+00 -1.899237e-06 -5.766493e-06 0.000000e+00 0.000000e+00 0.000000e+00 0.000000e+00 2.532622e-06 -1.404688e-06 0.000000e+00 -1.404688e-06 -7.508312e-06 0.000000e+00 0.000000e+00 0.000000e+00 0.000000e+00 -1.711014e-04 5.955628e-05 0.000000e+00 5.955628e-05 6.662246e-05 0.000000e+00 0.000000e+00 0.000000e+00 0.000000e+00 -1.778739e-04 -5.570370e-05 0.000000e+00 -5.570370e-05 9.205429e-05 0.000000e+00 0.000000e+00 0.000000e+00 0.000000e+00 -1.137216e-05 2.588758e-05 0.000000e+00 2.588758e-05 -1.050554e-05 0.000000e+00 0.000000e+00 0.000000e+00 0.000000e+00 -1.787353e-05 3.439017e-05 0.000000e+00 3.439017e-05 2.885498e-06 0.000000e+00 0.000000e+00 0.000000e+00 0.000000e+00 -1.375285e-04 7.042090e-05 0.000000e+00 7.042090e-05 4.799235e-05 0.000000e+00 0.000000e+00 0.000000e+00 0.000000e+00 -8.657514e-05 7.202359e-05 0.000000e+00 7.202359e-05 2.449255e-05 0.000000e+00 0.000000e+00 0.000000e+00 0.000000e+00 -1.105759e-04 6.798356e-05 0.000000e+00 6.798356e-05 3.394054e-05 0.000000e+00 0.000000e+00 0.000000e+00 0.000000e+00 -1.254670e-04 -9.779480e-05 0.000000e+00 -9.779480e-05 5.621960e-05 0.000000e+00 0.000000e+00 0.000000e+00 0.000000e+00 2.514924e-05 -1.068590e-04 0.000000e+00 -1.068590e-04 -1.159246e-04 0.000000e+00 0.000000e+00 0.000000e+00 0.000000e+00 -4.846762e-05 -9.783536e-05 0.000000e+00 -9.783536e-05 6.119114e-06 0.000000e+00 0.000000e+00 0.000000e+00 0.000000e+00 1.058180e-05 -4.895298e-05 0.000000e+00 -4.895298e-05 -6.952145e-05 0.000000e+00 0.000000e+00 0.000000e+00 0.000000e+00 1.166795e-04 -2.049042e-05 0.000000e+00 -2.049042e-05 -3.881912e-04 0.000000e+00 0.000000e+00 0.000000e+00 0.000000e+00 1.217379e-04 -1.144223e-05 0.000000e+00 -1.144223e-05 -3.977339e-04 0.000000e+00 0.000000e+00 0.000000e+00 0.000000e+00 1.187096e-04 -7.821887e-06 0.000000e+00 -7.821887e-06 -3.760751e-04 0.000000e+00 0.000000e+00 0.000000e+00 0.000000e+00 2.602983e-04 -4.213236e-05 0.000000e+00 -4.213236e-05 1.202429e-05 0.000000e+00 0.000000e+00 0.000000e+00 0.000000e+00 2.494592e-04 -3.129302e-05 0.000000e+00 -3.129302e-05 4.097135e-06 0.000000e+00 0.000000e+00 0.000000e+00 0.000000e+00 2.601704e-04 -3.420776e-05 0.000000e+00 -3.420776e-05 1.858035e-05 0.000000e+00 0.000000e+00 0.000000e+00 0.000000e+00 1.878447e-04 1.308924e-04 0.000000e+00 1.308924e-04 1.429899e-03 0.000000e+00 0.000000e+00 0.000000e+00 0.000000e+00 2.299568e-07 9.862755e-06 0.000000e+00 9.862755e-06 -1.310768e-05 0.000000e+00 0.000000e+00 0.000000e+00 0.000000e+00 -7.151166e-07 2.676121e-06 0.000000e+00 2.676121e-06 -6.398672e-07 0.000000e+00 0.000000e+00 0.000000e+00 0.000000e+00 -6.644397e-06 1.802913e-05 0.000000e+00 1.802913e-05 -6.019945e-07 0.000000e+00 0.000000e+00 0.000000e+00 0.000000e+00 5.098121e-05 -3.557379e-05 0.000000e+00 -3.557379e-05 -2.160740e-04 0.000000e+00 0.000000e+00 0.000000e+00 0.000000e+00 8.767372e-06 1.032232e-05 0.000000e+00 1.032232e-05 -1.148415e-05 0.000000e+00 0.000000e+00 0.000000e+00 0.000000e+00 1.346691e-04 -2.102801e-05 0.000000e+00 -2.102801e-05 -1.872112e-04 0.000000e+00 0.000000e+00 0.000000e+00 0.000000e+00 1.490700e-05 -7.234019e-06 0.000000e+00 -7.234019e-06 -7.603703e-06 0.000000e+00 0.000000e+00 0.000000e+00 0.000000e+00 7.227206e-06 -9.663883e-06 0.000000e+00 -9.663883e-06 1.594449e-06 0.000000e+00 0.000000e+00 0.000000e+00 0.000000e+00 -2.196917e-06 -1.521262e-06 0.000000e+00 -1.521262e-06 9.995179e-06 0.000000e+00 0.000000e+00 0.000000e+00 0.000000e+00 -4.412522e-06 1.099598e-05 0.000000e+00 1.099598e-05 1.118840e-05 0.000000e+00 0.000000e+00 0.000000e+00 0.000000e+00 6.603839e-06 5.663828e-05 0.000000e+00 5.663828e-05 8.841341e-06 0.000000e+00 0.000000e+00 0.000000e+00 0.000000e+00 2.216492e-05 7.836344e-05 0.000000e+00 7.836344e-05 3.226889e-06 0.000000e+00 0.000000e+00 0.000000e+00 0.000000e+00 4.076738e-05 9.878770e-05 0.000000e+00 9.878770e-05 -5.479853e-06 0.000000e+00 0.000000e+00 0.000000e+00 0.000000e+00 5.935061e-05 1.123333e-04 0.000000e+00 1.123333e-04 -1.806093e-05 0.000000e+00 0.000000e+00 0.000000e+00 0.000000e+00 2.395848e-05 1.115165e-04 0.000000e+00 1.115165e-04 -7.517000e-06 0.000000e+00 0.000000e+00 0.000000e+00 0.000000e+00 -2.165119e-05 1.205014e-04 0.000000e+00 1.205014e-04 6.177482e-06 0.000000e+00 0.000000e+00 0.000000e+00 0.000000e+00 -2.686330e-05 1.238556e-04 0.000000e+00 1.238556e-04 1.361730e-06 0.000000e+00 0.000000e+00 0.000000e+00 0.000000e+00 -1.867262e-05 1.189717e-04 0.000000e+00 1.189717e-04 -1.071088e-05 0.000000e+00 0.000000e+00 0.000000e+00 0.000000e+00 -5.940644e-06 1.032247e-04 0.000000e+00 1.032247e-04 -2.255580e-05 0.000000e+00 0.000000e+00 0.000000e+00 0.000000e+00 1.362136e-05 5.858791e-05 0.000000e+00 5.858791e-05 -3.797312e-05 0.000000e+00 0.000000e+00 0.000000e+00 0.000000e+00 1.556002e-05 3.418271e-05 0.000000e+00 3.418271e-05 -3.734534e-05 0.000000e+00 0.000000e+00 0.000000e+00 0.000000e+00 1.030246e-05 1.486637e-05 0.000000e+00 1.486637e-05 -2.997125e-05 0.000000e+00 0.000000e+00 0.000000e+00 0.000000e+00 -3.956619e-06 6.466091e-06 0.000000e+00 6.466091e-06 -1.049050e-05 0.000000e+00 0.000000e+00 0.000000e+00 0.000000e+00 -4.632409e-06 1.108494e-05 0.000000e+00 1.108494e-05 -5.803291e-06 0.000000e+00 0.000000e+00 0.000000e+00 0.000000e+00 6.391913e-04 2.966094e-04 0.000000e+00 2.966094e-04 -2.905129e-04 0.000000e+00 0.000000e+00 0.000000e+00 0.000000e+00 3.596536e-04 2.037322e-04 0.000000e+00 2.037322e-04 -1.301854e-05 0.000000e+00 0.000000e+00 0.000000e+00 0.000000e+00 2.866015e-04 1.222959e-04 0.000000e+00 1.222959e-04 -8.113633e-05 0.000000e+00 0.000000e+00 0.000000e+00 0.000000e+00 8.492533e-07 -9.871648e-06 0.000000e+00 -9.871648e-06 -3.892135e-06 0.000000e+00 0.000000e+00 0.000000e+00 0.000000e+00 6.342754e-05 -8.820411e-05 0.000000e+00 -8.820411e-05 -1.620612e-04 0.000000e+00 0.000000e+00 0.000000e+00 0.000000e+00 3.515361e-04 3.913784e-04 0.000000e+00 3.913784e-04 1.939907e-04 0.000000e+00 0.000000e+00 0.000000e+00 0.000000e+00 1.047113e-04 -4.630902e-05 0.000000e+00 -4.630902e-05 -4.585747e-04 0.000000e+00 0.000000e+00 0.000000e+00 0.000000e+00 5.277058e-05 5.922968e-05 0.000000e+00 5.922968e-05 -8.320025e-06 0.000000e+00 0.000000e+00 0.000000e+00 0.000000e+00 1.181666e-04 -7.527058e-06 0.000000e+00 -7.527058e-06 -3.559084e-04 0.000000e+00 0.000000e+00 0.000000e+00 0.000000e+00 1.168461e-04 -1.907123e-05 0.000000e+00 -1.907123e-05 -2.913173e-04 0.000000e+00 0.000000e+00 0.000000e+00 0.000000e+00 1.676729e-04 -2.008947e-05 0.000000e+00 -2.008947e-05 -1.062875e-04 0.000000e+00 0.000000e+00 0.000000e+00 0.000000e+00 1.750511e-04 -2.780637e-05 0.000000e+00 -2.780637e-05 -1.013336e-04 0.000000e+00 0.000000e+00 0.000000e+00 0.000000e+00 1.300577e-04 -2.061965e-05 0.000000e+00 -2.061965e-05 -1.990288e-04 0.000000e+00 0.000000e+00 0.000000e+00 0.000000e+00 2.379615e-06 -1.083616e-05 0.000000e+00 -1.083616e-05 -3.547882e-06 0.000000e+00 0.000000e+00 0.000000e+00 0.000000e+00 2.176604e-04 -2.590518e-05 0.000000e+00 -2.590518e-05 -3.665016e-05 0.000000e+00 0.000000e+00 0.000000e+00 0.000000e+00 2.270648e-04 -3.418289e-05 0.000000e+00 -3.418289e-05 -3.063838e-05 0.000000e+00 0.000000e+00 0.000000e+00 0.000000e+00 1.282374e-04 -1.189228e-05 0.000000e+00 -1.189228e-05 -2.069425e-04 0.000000e+00 0.000000e+00 0.000000e+00 0.000000e+00 3.248506e-04 -3.985650e-05 0.000000e+00 -3.985650e-05 8.101200e-05 0.000000e+00 0.000000e+00 0.000000e+00 0.000000e+00 3.316418e-04 -5.127477e-05 0.000000e+00 -5.127477e-05 9.237959e-05 0.000000e+00 0.000000e+00 0.000000e+00 0.000000e+00 1.339205e-04 2.930850e-04 0.000000e+00 2.930850e-04 9.421725e-04 0.000000e+00 0.000000e+00 0.000000e+00 0.000000e+00 1.721361e-04 4.336053e-05 0.000000e+00 4.336053e-05 -5.137199e-05 0.000000e+00 0.000000e+00 0.000000e+00 0.000000e+00 9.778780e-05 1.526655e-05 0.000000e+00 1.526655e-05 1.226393e-03 0.000000e+00 0.000000e+00 0.000000e+00 0.000000e+00 1.285625e-04 4.036048e-05 0.000000e+00 4.036048e-05 -4.064357e-05 0.000000e+00 0.000000e+00 0.000000e+00 0.000000e+00 1.170656e-04 4.146559e-05 0.000000e+00 4.146559e-05 -3.817044e-05 0.000000e+00 0.000000e+00 0.000000e+00 0.000000e+00 3.696102e-04 2.737956e-04 0.000000e+00 2.737956e-04 -6.162373e-05 0.000000e+00 0.000000e+00 0.000000e+00 0.000000e+00 4.320830e-04 -1.274244e-04 0.000000e+00 -1.274244e-04 3.599539e-04 0.000000e+00 0.000000e+00 0.000000e+00 0.000000e+00 5.552892e-04 -1.835032e-04 0.000000e+00 -1.835032e-04 3.852762e-04 0.000000e+00 0.000000e+00 0.000000e+00 0.000000e+00 1.156430e-04 4.077955e-05 0.000000e+00 4.077955e-05 -3.849665e-05 0.000000e+00 0.000000e+00 0.000000e+00 0.000000e+00 8.851624e-05 4.981260e-05 0.000000e+00 4.981260e-05 -9.614489e-06 0.000000e+00 0.000000e+00 0.000000e+00 0.000000e+00 -1.294963e-04 5.474561e-05 0.000000e+00 5.474561e-05 4.084385e-05 0.000000e+00 0.000000e+00 0.000000e+00 0.000000e+00 -1.945959e-04 3.495303e-05 0.000000e+00 3.495303e-05 8.570188e-05 0.000000e+00 0.000000e+00 0.000000e+00 0.000000e+00 1.097781e-04 4.462730e-05 0.000000e+00 4.462730e-05 -2.756644e-05 0.000000e+00 0.000000e+00 0.000000e+00 0.000000e+00 9.391623e-05 4.783024e-05 0.000000e+00 4.783024e-05 -2.478714e-05 0.000000e+00 0.000000e+00 0.000000e+00 0.000000e+00 2.263145e-05 5.072246e-05 0.000000e+00 5.072246e-05 2.453712e-06 0.000000e+00 0.000000e+00 0.000000e+00 0.000000e+00 -3.486068e-05 5.092602e-05 0.000000e+00 5.092602e-05 9.408231e-06 0.000000e+00 0.000000e+00 0.000000e+00 0.000000e+00 -1.711278e-05 6.945577e-06 0.000000e+00 6.945577e-06 2.049420e-05 0.000000e+00 0.000000e+00 0.000000e+00 0.000000e+00 -6.191495e-06 -2.437616e-07 0.000000e+00 -2.437616e-07 2.268648e-06 0.000000e+00 0.000000e+00 0.000000e+00 0.000000e+00 -1.941026e-06 -1.089082e-05 0.000000e+00 -1.089082e-05 3.199466e-07 0.000000e+00 0.000000e+00 0.000000e+00 0.000000e+00 6.891204e-05 -7.662683e-05 0.000000e+00 -7.662683e-05 -2.401235e-04 0.000000e+00 0.000000e+00 0.000000e+00 0.000000e+00 4.208308e-05 -1.071284e-04 0.000000e+00 -1.071284e-04 -1.703088e-04 0.000000e+00 0.000000e+00 0.000000e+00 0.000000e+00 -5.660294e-05 6.825944e-05 0.000000e+00 6.825944e-05 1.776337e-05 0.000000e+00 0.000000e+00 0.000000e+00 0.000000e+00 1.158785e-04 -1.814695e-05 0.000000e+00 -1.814695e-05 -3.091261e-04 0.000000e+00 0.000000e+00 0.000000e+00 0.000000e+00 -1.443021e-04 -6.375520e-05 0.000000e+00 -6.375520e-05 6.971373e-05 0.000000e+00 0.000000e+00 0.000000e+00 0.000000e+00 3.277232e-04 3.591196e-04 0.000000e+00 3.591196e-04 2.111325e-04 0.000000e+00 0.000000e+00 0.000000e+00 0.000000e+00 1.162130e-04 -8.036434e-06 0.000000e+00 -8.036434e-06 -3.180119e-04 0.000000e+00 0.000000e+00 0.000000e+00 0.000000e+00 2.772421e-05 -1.122165e-04 0.000000e+00 -1.122165e-04 -1.060863e-04 0.000000e+00 0.000000e+00 0.000000e+00 0.000000e+00 1.136136e-04 -8.606302e-06 0.000000e+00 -8.606302e-06 -2.995376e-04 0.000000e+00 0.000000e+00 0.000000e+00 0.000000e+00 -8.009092e-05 -1.024806e-04 0.000000e+00 -1.024806e-04 1.407234e-05 0.000000e+00 0.000000e+00 0.000000e+00 0.000000e+00 -8.425171e-06 -8.669094e-05 0.000000e+00 -8.669094e-05 -2.559369e-05 0.000000e+00 0.000000e+00 0.000000e+00 0.000000e+00 8.780036e-05 -5.387286e-05 0.000000e+00 -5.387286e-05 -2.473044e-04 0.000000e+00 0.000000e+00 0.000000e+00 0.000000e+00 3.857239e-06 1.505032e-05 0.000000e+00 1.505032e-05 -8.631587e-06 0.000000e+00 0.000000e+00 0.000000e+00 0.000000e+00 1.349819e-04 -1.367523e-05 0.000000e+00 -1.367523e-05 -1.799954e-04 0.000000e+00 0.000000e+00 0.000000e+00 0.000000e+00 1.387573e-04 -2.183257e-05 0.000000e+00 -2.183257e-05 -1.729647e-04 0.000000e+00 0.000000e+00 0.000000e+00 0.000000e+00 -4.187186e-06 9.476192e-06 0.000000e+00 9.476192e-06 -3.558795e-06 0.000000e+00 0.000000e+00 0.000000e+00 0.000000e+00 -1.604198e-06 1.485309e-05 0.000000e+00 1.485309e-05 -5.656533e-06 0.000000e+00 0.000000e+00 0.000000e+00 0.000000e+00 -6.772250e-06 3.932086e-06 0.000000e+00 3.932086e-06 -7.275013e-06 0.000000e+00 0.000000e+00 0.000000e+00 0.000000e+00 3.785120e-06 4.908679e-06 0.000000e+00 4.908679e-06 -3.269093e-05 0.000000e+00 0.000000e+00 0.000000e+00 0.000000e+00 1.206637e-06 5.103310e-06 0.000000e+00 5.103310e-06 -1.924961e-05 0.000000e+00 0.000000e+00 0.000000e+00 0.000000e+00 8.734938e-06 2.186441e-05 0.000000e+00 2.186441e-05 -4.592461e-05 0.000000e+00 0.000000e+00 0.000000e+00 0.000000e+00 7.342845e-06 4.510043e-05 0.000000e+00 4.510043e-05 -5.059651e-05 0.000000e+00 0.000000e+00 0.000000e+00 0.000000e+00 -1.558590e-05 9.189632e-05 0.000000e+00 9.189632e-05 -3.572436e-05 0.000000e+00 0.000000e+00 0.000000e+00 0.000000e+00 5.102496e-06 8.123341e-05 0.000000e+00 8.123341e-05 -3.103057e-05 0.000000e+00 0.000000e+00 0.000000e+00 0.000000e+00 -2.550025e-05 1.087092e-04 0.000000e+00 1.087092e-04 -2.333360e-05 0.000000e+00 0.000000e+00 0.000000e+00 0.000000e+00 -2.567303e-05 1.033273e-04 0.000000e+00 1.033273e-04 -3.959183e-06 0.000000e+00 0.000000e+00 0.000000e+00 0.000000e+00 -2.790163e-05 1.197468e-04 0.000000e+00 1.197468e-04 -1.035544e-05 0.000000e+00 0.000000e+00 0.000000e+00 0.000000e+00 -2.240594e-05 1.251210e-04 0.000000e+00 1.251210e-04 1.619643e-06 0.000000e+00 0.000000e+00 0.000000e+00 0.000000e+00 1.085898e-05 1.220640e-04 0.000000e+00 1.220640e-04 7.659858e-07 0.000000e+00 0.000000e+00 0.000000e+00 0.000000e+00 -2.181234e-06 1.145979e-04 0.000000e+00 1.145979e-04 1.579324e-06 0.000000e+00 0.000000e+00 0.000000e+00 0.000000e+00 4.697047e-05 1.132113e-04 0.000000e+00 1.132113e-04 -1.307676e-05 0.000000e+00 0.000000e+00 0.000000e+00 0.000000e+00 4.629254e-05 1.117969e-04 0.000000e+00 1.117969e-04 -1.521360e-05 0.000000e+00 0.000000e+00 0.000000e+00 0.000000e+00 5.938882e-05 9.927773e-05 0.000000e+00 9.927773e-05 -5.686489e-06 0.000000e+00 0.000000e+00 0.000000e+00 0.000000e+00 5.589244e-05 1.085288e-04 0.000000e+00 1.085288e-04 -1.418459e-05 0.000000e+00 0.000000e+00 0.000000e+00 0.000000e+00 4.750988e-05 8.845560e-05 0.000000e+00 8.845560e-05 5.323603e-06 0.000000e+00 0.000000e+00 0.000000e+00 0.000000e+00 2.410752e-05 7.051478e-05 0.000000e+00 7.051478e-05 1.765613e-05 0.000000e+00 0.000000e+00 0.000000e+00 0.000000e+00 -5.392387e-06 2.302447e-05 0.000000e+00 2.302447e-05 2.899928e-05 0.000000e+00 0.000000e+00 0.000000e+00 0.000000e+00 -4.291887e-06 1.324154e-05 0.000000e+00 1.324154e-05 1.356870e-06 0.000000e+00 0.000000e+00 0.000000e+00 0.000000e+00 -3.818476e-06 3.186625e-05 0.000000e+00 3.186625e-05 1.497968e-05 0.000000e+00 0.000000e+00 0.000000e+00 0.000000e+00 -7.023929e-06 -6.802809e-07 0.000000e+00 -6.802809e-07 2.281897e-05 0.000000e+00 0.000000e+00 0.000000e+00 0.000000e+00 9.489100e-06 -1.380898e-05 0.000000e+00 -1.380898e-05 1.250101e-06 0.000000e+00 0.000000e+00 0.000000e+00 0.000000e+00 -3.929534e-05 -1.006551e-04 0.000000e+00 -1.006551e-04 -3.091829e-05 0.000000e+00 0.000000e+00 0.000000e+00 0.000000e+00 1.442290e-05 3.197035e-06 0.000000e+00 3.197035e-06 -1.083618e-05 0.000000e+00 0.000000e+00 0.000000e+00 0.000000e+00 1.320738e-04 -1.418860e-05 0.000000e+00 -1.418860e-05 -1.931881e-04 0.000000e+00 0.000000e+00 0.000000e+00 0.000000e+00 7.854126e-06 4.767205e-05 0.000000e+00 4.767205e-05 2.605691e-05 0.000000e+00 0.000000e+00 0.000000e+00 0.000000e+00 5.754554e-05 1.063127e-04 0.000000e+00 1.063127e-04 -1.260024e-05 0.000000e+00 0.000000e+00 0.000000e+00 0.000000e+00 3.066179e-05 1.176936e-04 0.000000e+00 1.176936e-04 -7.444982e-06 0.000000e+00 0.000000e+00 0.000000e+00 0.000000e+00 -8.609928e-06 1.250347e-04 0.000000e+00 1.250347e-04 5.255741e-06 0.000000e+00 0.000000e+00 0.000000e+00 0.000000e+00 -2.907143e-06 6.960883e-05 0.000000e+00 6.960883e-05 -4.519721e-05 0.000000e+00 0.000000e+00 0.000000e+00 0.000000e+00 -3.566298e-06 -5.216130e-07 0.000000e+00 -5.216130e-07 -1.561303e-05 0.000000e+00 0.000000e+00 0.000000e+00 0.000000e+00 1.400938e-05 2.108187e-06 0.000000e+00 2.108187e-06 -1.219594e-05 0.000000e+00 0.000000e+00 0.000000e+00 0.000000e+00 1.104390e-04 -3.062677e-05 0.000000e+00 -3.062677e-05 -4.317255e-04 0.000000e+00 0.000000e+00 0.000000e+00 0.000000e+00 1.370579e-04 -2.432639e-05 0.000000e+00 -2.432639e-05 -4.467518e-04 0.000000e+00 0.000000e+00 0.000000e+00 0.000000e+00 1.258456e-04 -1.574772e-05 0.000000e+00 -1.574772e-05 -4.204072e-04 0.000000e+00 0.000000e+00 0.000000e+00 0.000000e+00 1.163687e-04 -1.963823e-05 0.000000e+00 -1.963823e-05 -2.734016e-04 0.000000e+00 0.000000e+00 0.000000e+00 0.000000e+00 1.162976e-04 -9.373656e-06 0.000000e+00 -9.373656e-06 -2.825310e-04 0.000000e+00 0.000000e+00 0.000000e+00 0.000000e+00 1.190319e-04 -1.021516e-05 0.000000e+00 -1.021516e-05 -2.661034e-04 0.000000e+00 0.000000e+00 0.000000e+00 0.000000e+00 1.438587e-04 -2.317392e-05 0.000000e+00 -2.317392e-05 -1.607607e-04 0.000000e+00 0.000000e+00 0.000000e+00 0.000000e+00 1.393262e-04 -1.583006e-05 0.000000e+00 -1.583006e-05 -1.665656e-04 0.000000e+00 0.000000e+00 0.000000e+00 0.000000e+00 1.411926e-04 -1.684441e-05 0.000000e+00 -1.684441e-05 -1.536394e-04 0.000000e+00 0.000000e+00 0.000000e+00 0.000000e+00 1.827788e-04 -2.946783e-05 0.000000e+00 -2.946783e-05 -9.048745e-05 0.000000e+00 0.000000e+00 0.000000e+00 0.000000e+00 1.743248e-04 -2.183548e-05 0.000000e+00 -2.183548e-05 -9.513966e-05 0.000000e+00 0.000000e+00 0.000000e+00 0.000000e+00 1.827523e-04 -2.279589e-05 0.000000e+00 -2.279589e-05 -8.429975e-05 0.000000e+00 0.000000e+00 0.000000e+00 0.000000e+00 2.383398e-04 -3.664756e-05 0.000000e+00 -3.664756e-05 -1.816519e-05 0.000000e+00 0.000000e+00 0.000000e+00 0.000000e+00 2.245493e-04 -2.739739e-05 0.000000e+00 -2.739739e-05 -2.340282e-05 0.000000e+00 0.000000e+00 0.000000e+00 0.000000e+00 2.362544e-04 -2.890951e-05 0.000000e+00 -2.890951e-05 -9.611974e-06 0.000000e+00 0.000000e+00 0.000000e+00 0.000000e+00 3.555139e-04 -5.910860e-05 0.000000e+00 -5.910860e-05 1.100342e-04 0.000000e+00 0.000000e+00 0.000000e+00 0.000000e+00 3.201294e-04 -4.495907e-05 0.000000e+00 -4.495907e-05 1.044110e-04 0.000000e+00 0.000000e+00 0.000000e+00 0.000000e+00 3.352577e-04 -5.177416e-05 0.000000e+00 -5.177416e-05 1.270583e-04 0.000000e+00 0.000000e+00 0.000000e+00 0.000000e+00 5.854467e-04 -2.383605e-04 0.000000e+00 -2.383605e-04 4.948359e-04 0.000000e+00 0.000000e+00 0.000000e+00 0.000000e+00 4.212067e-04 -1.573766e-04 0.000000e+00 -1.573766e-04 4.556248e-04 0.000000e+00 0.000000e+00 0.000000e+00 0.000000e+00 3.677961e-04 -1.822755e-04 0.000000e+00 -1.822755e-04 6.027660e-04 0.000000e+00 0.000000e+00 0.000000e+00 0.000000e+00 -1.366119e-06 3.093714e-05 0.000000e+00 3.093714e-05 1.613626e-05 0.000000e+00 0.000000e+00 0.000000e+00 0.000000e+00 -2.321437e-06 9.389350e-06 0.000000e+00 9.389350e-06 7.270615e-07 0.000000e+00 0.000000e+00 0.000000e+00 0.000000e+00 -1.959176e-04 -1.093590e-05 0.000000e+00 -1.093590e-05 9.513732e-05 0.000000e+00 0.000000e+00 0.000000e+00 0.000000e+00 7.258084e-05 -6.147490e-05 0.000000e+00 -6.147490e-05 -2.326433e-04 0.000000e+00 0.000000e+00 0.000000e+00 0.000000e+00 4.821686e-05 -7.494523e-06 0.000000e+00 -7.494523e-06 -2.926267e-04 0.000000e+00 0.000000e+00 0.000000e+00 0.000000e+00 6.914889e-05 -8.177788e-05 0.000000e+00 -8.177788e-05 -2.468689e-04 0.000000e+00 0.000000e+00 0.000000e+00 0.000000e+00 1.578679e-04 2.344014e-04 0.000000e+00 2.344014e-04 7.940293e-04 0.000000e+00 0.000000e+00 0.000000e+00 0.000000e+00 -1.445790e-04 3.286991e-05 0.000000e+00 3.286991e-05 5.046437e-05 0.000000e+00 0.000000e+00 0.000000e+00 0.000000e+00 9.817250e-07 1.306195e-05 0.000000e+00 1.306195e-05 -4.877401e-06 0.000000e+00 0.000000e+00 0.000000e+00 0.000000e+00 1.713270e-06 -1.023034e-04 0.000000e+00 -1.023034e-04 -7.081126e-05 0.000000e+00 0.000000e+00 0.000000e+00 0.000000e+00 8.847130e-05 -8.470636e-05 0.000000e+00 -8.470636e-05 -2.561897e-04 0.000000e+00 0.000000e+00 0.000000e+00 0.000000e+00 1.314585e-05 -7.785350e-06 0.000000e+00 -7.785350e-06 -7.761598e-06 0.000000e+00 0.000000e+00 0.000000e+00 0.000000e+00 6.268040e-05 -1.125866e-04 0.000000e+00 -1.125866e-04 -1.849228e-04 0.000000e+00 0.000000e+00 0.000000e+00 0.000000e+00 6.797286e-05 -1.043585e-04 0.000000e+00 -1.043585e-04 -2.090277e-04 0.000000e+00 0.000000e+00 0.000000e+00 0.000000e+00 9.730499e-05 -9.505800e-05 0.000000e+00 -9.505800e-05 -2.674838e-04 0.000000e+00 0.000000e+00 0.000000e+00 0.000000e+00 6.861744e-05 -6.021340e-05 0.000000e+00 -6.021340e-05 -2.695786e-04 0.000000e+00 0.000000e+00 0.000000e+00 0.000000e+00 3.988984e-05 7.945038e-05 0.000000e+00 7.945038e-05 -5.015662e-06 0.000000e+00 0.000000e+00 0.000000e+00 0.000000e+00 1.187357e-04 -2.698963e-05 0.000000e+00 -2.698963e-05 -3.589429e-04 0.000000e+00 0.000000e+00 0.000000e+00 0.000000e+00 1.508221e-04 -4.204611e-05 0.000000e+00 -4.204611e-05 -1.423290e-04 0.000000e+00 0.000000e+00 0.000000e+00 0.000000e+00 3.842753e-06 -1.229160e-05 0.000000e+00 -1.229160e-05 -2.955336e-06 0.000000e+00 0.000000e+00 0.000000e+00 0.000000e+00 3.589649e-04 -1.160399e-04 0.000000e+00 -1.160399e-04 1.603582e-04 0.000000e+00 0.000000e+00 0.000000e+00 0.000000e+00 1.909848e-04 -5.216661e-05 0.000000e+00 -5.216661e-05 -7.079222e-05 0.000000e+00 0.000000e+00 0.000000e+00 0.000000e+00 -1.448221e-04 3.094829e-05 0.000000e+00 3.094829e-05 9.986985e-05 0.000000e+00 0.000000e+00 0.000000e+00 0.000000e+00 2.887396e-04 -8.243924e-05 0.000000e+00 -8.243924e-05 8.172548e-05 0.000000e+00 0.000000e+00 0.000000e+00 0.000000e+00 1.699201e-04 7.867888e-05 0.000000e+00 7.867888e-05 -3.984685e-05 0.000000e+00 0.000000e+00 0.000000e+00 0.000000e+00 1.265116e-04 -3.465983e-05 0.000000e+00 -3.465983e-05 -2.042138e-04 0.000000e+00 0.000000e+00 0.000000e+00 0.000000e+00 1.966958e-04 9.833975e-05 0.000000e+00 9.833975e-05 -3.400727e-05 0.000000e+00 0.000000e+00 0.000000e+00 0.000000e+00 1.680929e-04 8.231538e-05 0.000000e+00 8.231538e-05 -4.298103e-05 0.000000e+00 0.000000e+00 0.000000e+00 0.000000e+00 7.431277e-05 6.233209e-05 0.000000e+00 6.233209e-05 -1.492726e-05 0.000000e+00 0.000000e+00 0.000000e+00 0.000000e+00 1.325261e-04 6.015800e-05 0.000000e+00 6.015800e-05 -3.958071e-05 0.000000e+00 0.000000e+00 0.000000e+00 0.000000e+00 8.413026e-05 1.065174e-04 0.000000e+00 1.065174e-04 7.947791e-04 0.000000e+00 0.000000e+00 0.000000e+00 0.000000e+00 1.197949e-04 5.371000e-05 0.000000e+00 5.371000e-05 -3.609904e-05 0.000000e+00 0.000000e+00 0.000000e+00 0.000000e+00 1.166603e-04 5.723431e-05 0.000000e+00 5.723431e-05 -3.962956e-05 0.000000e+00 0.000000e+00 0.000000e+00 0.000000e+00 1.046770e-04 5.175425e-05 0.000000e+00 5.175425e-05 -3.587068e-05 0.000000e+00 0.000000e+00 0.000000e+00 0.000000e+00 2.344590e-04 1.365554e-04 0.000000e+00 1.365554e-04 -1.511179e-05 0.000000e+00 0.000000e+00 0.000000e+00 0.000000e+00 1.918857e-04 1.041791e-04 0.000000e+00 1.041791e-04 -3.834739e-05 0.000000e+00 0.000000e+00 0.000000e+00 0.000000e+00 2.675249e-04 -1.670572e-04 0.000000e+00 -1.670572e-04 7.550882e-04 0.000000e+00 0.000000e+00 0.000000e+00 0.000000e+00 6.266437e-05 -8.299254e-06 0.000000e+00 -8.299254e-06 9.415031e-04 0.000000e+00 0.000000e+00 0.000000e+00 0.000000e+00 1.486998e-04 6.763748e-05 0.000000e+00 6.763748e-05 -3.988015e-05 0.000000e+00 0.000000e+00 0.000000e+00 0.000000e+00 1.297029e-04 6.210567e-05 0.000000e+00 6.210567e-05 -4.092065e-05 0.000000e+00 0.000000e+00 0.000000e+00 0.000000e+00 5.260766e-04 4.403105e-04 0.000000e+00 4.403105e-04 2.696822e-04 0.000000e+00 0.000000e+00 0.000000e+00 0.000000e+00 1.946140e-04 4.200487e-04 0.000000e+00 4.200487e-04 4.666189e-04 0.000000e+00 0.000000e+00 0.000000e+00 0.000000e+00 -1.442151e-04 -6.046095e-05 0.000000e+00 -6.046095e-05 1.220140e-04 0.000000e+00 0.000000e+00 0.000000e+00 0.000000e+00 -4.063098e-05 6.993891e-05 0.000000e+00 6.993891e-05 -7.324163e-06 0.000000e+00 0.000000e+00 0.000000e+00 0.000000e+00 -1.327839e-04 6.625427e-05 0.000000e+00 6.625427e-05 7.434293e-05 0.000000e+00 0.000000e+00 0.000000e+00 0.000000e+00 4.954323e-05 -1.404071e-04 0.000000e+00 -1.404071e-04 -1.230203e-04 0.000000e+00 0.000000e+00 0.000000e+00 0.000000e+00 6.399267e-05 2.636250e-04 0.000000e+00 2.636250e-04 8.881617e-04 0.000000e+00 0.000000e+00 0.000000e+00 0.000000e+00 1.182257e-04 -2.881093e-05 0.000000e+00 -2.881093e-05 -3.000940e-04 0.000000e+00 0.000000e+00 0.000000e+00 0.000000e+00 -6.473703e-05 8.471268e-05 0.000000e+00 8.471268e-05 6.261153e-06 0.000000e+00 0.000000e+00 0.000000e+00 0.000000e+00 1.191616e-05 -6.643683e-06 0.000000e+00 -6.643683e-06 -8.813624e-06 0.000000e+00 0.000000e+00 0.000000e+00 0.000000e+00 1.158342e-04 -3.080283e-05 0.000000e+00 -3.080283e-05 -2.489145e-04 0.000000e+00 0.000000e+00 0.000000e+00 0.000000e+00 -7.682124e-05 -1.343065e-04 0.000000e+00 -1.343065e-04 3.620569e-05 0.000000e+00 0.000000e+00 0.000000e+00 0.000000e+00 -1.768624e-06 1.485279e-07 0.000000e+00 1.485279e-07 -3.709891e-06 0.000000e+00 0.000000e+00 0.000000e+00 0.000000e+00 -1.161904e-04 -8.759692e-05 0.000000e+00 -8.759692e-05 3.909886e-05 0.000000e+00 0.000000e+00 0.000000e+00 0.000000e+00 6.476263e-05 8.163754e-05 0.000000e+00 8.163754e-05 -5.422663e-06 0.000000e+00 0.000000e+00 0.000000e+00 0.000000e+00 5.909180e-05 7.619258e-05 0.000000e+00 7.619258e-05 -1.004063e-05 0.000000e+00 0.000000e+00 0.000000e+00 0.000000e+00 5.547994e-05 9.417710e-05 0.000000e+00 9.417710e-05 -1.228019e-05 0.000000e+00 0.000000e+00 0.000000e+00 0.000000e+00 8.558490e-06 1.119777e-05 0.000000e+00 1.119777e-05 -8.816435e-06 0.000000e+00 0.000000e+00 0.000000e+00 0.000000e+00 2.779277e-04 2.202333e-04 0.000000e+00 2.202333e-04 3.785425e-05 0.000000e+00 0.000000e+00 0.000000e+00 0.000000e+00 2.040419e-04 1.456040e-04 0.000000e+00 1.456040e-04 -1.688230e-05 0.000000e+00 0.000000e+00 0.000000e+00 0.000000e+00 4.343369e-05 -1.752033e-04 0.000000e+00 -1.752033e-04 1.885773e-04 0.000000e+00 0.000000e+00 0.000000e+00 0.000000e+00 -1.961405e-06 6.119690e-05 0.000000e+00 6.119690e-05 -1.949429e-05 0.000000e+00 0.000000e+00 0.000000e+00 0.000000e+00 -1.985819e-05 1.172192e-04 0.000000e+00 1.172192e-04 1.089046e-05 0.000000e+00 0.000000e+00 0.000000e+00 0.000000e+00 3.986355e-05 1.115088e-04 0.000000e+00 1.115088e-04 -8.912351e-06 0.000000e+00 0.000000e+00 0.000000e+00 0.000000e+00 3.328989e-06 -1.484786e-05 0.000000e+00 -1.484786e-05 9.095785e-06 0.000000e+00 0.000000e+00 0.000000e+00 0.000000e+00 2.478412e-05 -1.448953e-04 0.000000e+00 -1.448953e-04 -9.669691e-05 0.000000e+00 0.000000e+00 0.000000e+00 0.000000e+00 5.756319e-05 -1.207829e-04 0.000000e+00 -1.207829e-04 -1.885519e-04 0.000000e+00 0.000000e+00 0.000000e+00 0.000000e+00 -2.196138e-05 -1.257648e-04 0.000000e+00 -1.257648e-04 -1.645584e-05 0.000000e+00 0.000000e+00 0.000000e+00 0.000000e+00 -4.498077e-05 -1.422071e-04 0.000000e+00 -1.422071e-04 -4.282734e-06 0.000000e+00 0.000000e+00 0.000000e+00 0.000000e+00 -9.334814e-06 -1.346767e-04 0.000000e+00 -1.346767e-04 -5.179285e-05 0.000000e+00 0.000000e+00 0.000000e+00 0.000000e+00 6.922677e-05 1.035066e-04 0.000000e+00 1.035066e-04 -1.870205e-05 0.000000e+00 0.000000e+00 0.000000e+00 0.000000e+00 6.324900e-05 1.112427e-04 0.000000e+00 1.112427e-04 -1.730905e-05 0.000000e+00 0.000000e+00 0.000000e+00 0.000000e+00 8.291708e-06 1.141488e-04 0.000000e+00 1.141488e-04 1.876273e-06 0.000000e+00 0.000000e+00 0.000000e+00 0.000000e+00 2.077628e-05 1.226369e-04 0.000000e+00 1.226369e-04 1.808046e-06 0.000000e+00 0.000000e+00 0.000000e+00 0.000000e+00 -3.149443e-06 1.251709e-04 0.000000e+00 1.251709e-04 1.046059e-05 0.000000e+00 0.000000e+00 0.000000e+00 0.000000e+00 -3.765623e-05 1.203803e-04 0.000000e+00 1.203803e-04 1.368721e-05 0.000000e+00 0.000000e+00 0.000000e+00 0.000000e+00 -3.755001e-05 1.166774e-04 0.000000e+00 1.166774e-04 6.890856e-06 0.000000e+00 0.000000e+00 0.000000e+00 0.000000e+00 -3.752515e-05 1.166139e-04 0.000000e+00 1.166139e-04 6.851864e-06 0.000000e+00 0.000000e+00 0.000000e+00 0.000000e+00 -4.397401e-05 1.035915e-04 0.000000e+00 1.035915e-04 -3.962494e-06 0.000000e+00 0.000000e+00 0.000000e+00 0.000000e+00 -1.239869e-05 8.298349e-05 0.000000e+00 8.298349e-05 -1.174751e-05 0.000000e+00 0.000000e+00 0.000000e+00 0.000000e+00 5.319196e-06 3.992142e-05 0.000000e+00 3.992142e-05 -2.559139e-05 0.000000e+00 0.000000e+00 0.000000e+00 0.000000e+00 6.899204e-06 2.067764e-05 0.000000e+00 2.067764e-05 -2.240971e-05 0.000000e+00 0.000000e+00 0.000000e+00 0.000000e+00 4.409352e-05 -1.718023e-04 0.000000e+00 -1.718023e-04 1.379359e-04 0.000000e+00 0.000000e+00 0.000000e+00 0.000000e+00 7.568239e-05 -8.645919e-05 0.000000e+00 -8.645919e-05 -2.471553e-04 0.000000e+00 0.000000e+00 0.000000e+00 0.000000e+00 -2.530088e-06 1.112089e-05 0.000000e+00 1.112089e-05 -2.524459e-06 0.000000e+00 0.000000e+00 0.000000e+00 0.000000e+00 8.264739e-05 -1.225825e-04 0.000000e+00 -1.225825e-04 -2.120039e-04 0.000000e+00 0.000000e+00 0.000000e+00 0.000000e+00 -1.190314e-04 -1.075042e-04 0.000000e+00 -1.075042e-04 8.972364e-05 0.000000e+00 0.000000e+00 0.000000e+00 0.000000e+00 -1.095702e-04 -9.215605e-05 0.000000e+00 -9.215605e-05 7.046432e-05 0.000000e+00 0.000000e+00 0.000000e+00 0.000000e+00 -7.707114e-05 -1.358661e-04 0.000000e+00 -1.358661e-04 3.816873e-05 0.000000e+00 0.000000e+00 0.000000e+00 0.000000e+00 1.200468e-04 -1.448605e-05 0.000000e+00 -1.448605e-05 -3.489270e-04 0.000000e+00 0.000000e+00 0.000000e+00 0.000000e+00 1.154344e-04 -2.644178e-05 0.000000e+00 -2.644178e-05 -3.374041e-04 0.000000e+00 0.000000e+00 0.000000e+00 0.000000e+00 2.385104e-04 -6.440884e-05 0.000000e+00 -6.440884e-05 -7.036440e-06 0.000000e+00 0.000000e+00 0.000000e+00 0.000000e+00 1.481135e-04 -3.918852e-05 0.000000e+00 -3.918852e-05 -1.552173e-04 0.000000e+00 0.000000e+00 0.000000e+00 0.000000e+00 1.410636e-04 -3.291276e-05 0.000000e+00 -3.291276e-05 -1.475534e-04 0.000000e+00 0.000000e+00 0.000000e+00 0.000000e+00 1.272672e-04 -3.238102e-05 0.000000e+00 -3.238102e-05 -2.201633e-04 0.000000e+00 0.000000e+00 0.000000e+00 0.000000e+00 1.202264e-04 -2.506358e-05 0.000000e+00 -2.506358e-05 -2.110318e-04 0.000000e+00 0.000000e+00 0.000000e+00 0.000000e+00 1.700730e-04 -4.353747e-05 0.000000e+00 -4.353747e-05 -1.057985e-04 0.000000e+00 0.000000e+00 0.000000e+00 0.000000e+00 2.837807e-04 -8.187288e-05 0.000000e+00 -8.187288e-05 5.974212e-05 0.000000e+00 0.000000e+00 0.000000e+00 0.000000e+00 2.803209e-04 -6.875533e-05 0.000000e+00 -6.875533e-05 6.669249e-05 0.000000e+00 0.000000e+00 0.000000e+00 0.000000e+00 3.470891e-04 -9.918637e-05 0.000000e+00 -9.918637e-05 1.270847e-04 0.000000e+00 0.000000e+00 0.000000e+00 0.000000e+00 3.106268e-04 -9.410099e-05 0.000000e+00 -9.410099e-05 1.516163e-04 0.000000e+00 0.000000e+00 0.000000e+00 0.000000e+00 -9.792903e-05 6.707775e-05 0.000000e+00 6.707775e-05 5.153687e-05 0.000000e+00 0.000000e+00 0.000000e+00 0.000000e+00 3.825431e-04 -2.401151e-04 0.000000e+00 -2.401151e-04 6.127338e-04 0.000000e+00 0.000000e+00 0.000000e+00 0.000000e+00 1.674148e-04 -1.445444e-04 0.000000e+00 -1.445444e-04 7.531937e-04 0.000000e+00 0.000000e+00 0.000000e+00 0.000000e+00 9.748374e-05 5.416211e-05 0.000000e+00 5.416211e-05 -1.581677e-05 0.000000e+00 0.000000e+00 0.000000e+00 0.000000e+00 3.857665e-04 -1.485556e-04 0.000000e+00 -1.485556e-04 2.406053e-04 0.000000e+00 0.000000e+00 0.000000e+00 0.000000e+00 2.056275e-04 -5.274499e-05 0.000000e+00 -5.274499e-05 -4.686090e-05 0.000000e+00 0.000000e+00 0.000000e+00 0.000000e+00 2.728570e-04 -7.560507e-05 0.000000e+00 -7.560507e-05 4.161989e-05 0.000000e+00 0.000000e+00 0.000000e+00 0.000000e+00 2.605371e-04 -6.664503e-05 0.000000e+00 -6.664503e-05 4.998274e-05 0.000000e+00 0.000000e+00 0.000000e+00 0.000000e+00 8.065235e-05 6.942047e-05 0.000000e+00 6.942047e-05 -9.578180e-06 0.000000e+00 0.000000e+00 0.000000e+00 0.000000e+00 1.608313e-04 -4.185981e-05 0.000000e+00 -4.185981e-05 -1.179168e-04 0.000000e+00 0.000000e+00 0.000000e+00 0.000000e+00 1.594616e-04 -3.512191e-05 0.000000e+00 -3.512191e-05 -1.101434e-04 0.000000e+00 0.000000e+00 0.000000e+00 0.000000e+00 4.518583e-04 -1.537515e-04 0.000000e+00 -1.537515e-04 2.871183e-04 0.000000e+00 0.000000e+00 0.000000e+00 0.000000e+00 1.478620e-04 7.010939e-05 0.000000e+00 7.010939e-05 -4.248900e-05 0.000000e+00 0.000000e+00 0.000000e+00 0.000000e+00 -1.539635e-04 2.403562e-06 0.000000e+00 2.403562e-06 7.067762e-05 0.000000e+00 0.000000e+00 0.000000e+00 0.000000e+00 1.182759e-06 3.191046e-05 0.000000e+00 3.191046e-05 8.023318e-06 0.000000e+00 0.000000e+00 0.000000e+00 0.000000e+00 1.189833e-04 -1.506694e-05 0.000000e+00 -1.506694e-05 -3.290529e-04 0.000000e+00 0.000000e+00 0.000000e+00 0.000000e+00 1.157921e-04 -2.665654e-05 0.000000e+00 -2.665654e-05 -3.180573e-04 0.000000e+00 0.000000e+00 0.000000e+00 0.000000e+00 2.180708e-04 3.098968e-04 0.000000e+00 3.098968e-04 2.191958e-04 0.000000e+00 0.000000e+00 0.000000e+00 0.000000e+00 3.244906e-04 -1.057368e-04 0.000000e+00 -1.057368e-04 1.843289e-04 0.000000e+00 0.000000e+00 0.000000e+00 0.000000e+00 3.712007e-04 -1.330669e-04 0.000000e+00 -1.330669e-04 1.991877e-04 0.000000e+00 0.000000e+00 0.000000e+00 0.000000e+00 -8.167159e-05 9.014393e-05 0.000000e+00 9.014393e-05 3.676733e-05 0.000000e+00 0.000000e+00 0.000000e+00 0.000000e+00 1.971845e-05 -1.345444e-04 0.000000e+00 -1.345444e-04 -1.114573e-04 0.000000e+00 0.000000e+00 0.000000e+00 0.000000e+00 -3.742902e-06 4.707784e-06 0.000000e+00 4.707784e-06 -7.020111e-07 0.000000e+00 0.000000e+00 0.000000e+00 0.000000e+00 1.116323e-04 -1.911285e-05 0.000000e+00 -1.911285e-05 -2.891204e-04 0.000000e+00 0.000000e+00 0.000000e+00 0.000000e+00 1.163946e-04 -3.121628e-05 0.000000e+00 -3.121628e-05 -2.814743e-04 0.000000e+00 0.000000e+00 0.000000e+00 0.000000e+00 2.605246e-04 -7.015302e-05 0.000000e+00 -7.015302e-05 2.432117e-05 0.000000e+00 0.000000e+00 0.000000e+00 0.000000e+00 2.554738e-04 -6.198473e-05 0.000000e+00 -6.198473e-05 3.192216e-05 0.000000e+00 0.000000e+00 0.000000e+00 0.000000e+00 4.585317e-07 3.459172e-06 0.000000e+00 3.459172e-06 -1.656186e-05 0.000000e+00 0.000000e+00 0.000000e+00 0.000000e+00 6.169713e-05 1.027438e-04 0.000000e+00 1.027438e-04 -1.463208e-05 0.000000e+00 0.000000e+00 0.000000e+00 0.000000e+00 3.006883e-04 -7.650191e-05 0.000000e+00 -7.650191e-05 9.751951e-05 0.000000e+00 0.000000e+00 0.000000e+00 0.000000e+00 3.124199e-04 -7.531856e-05 0.000000e+00 -7.531856e-05 8.306931e-05 0.000000e+00 0.000000e+00 0.000000e+00 0.000000e+00 3.405070e-04 -7.805694e-05 0.000000e+00 -7.805694e-05 9.757318e-05 0.000000e+00 0.000000e+00 0.000000e+00 0.000000e+00 -3.875077e-06 -4.765694e-07 0.000000e+00 -4.765694e-07 -4.436953e-06 0.000000e+00 0.000000e+00 0.000000e+00 0.000000e+00 7.434185e-05 8.842520e-05 0.000000e+00 8.842520e-05 -1.219245e-05 0.000000e+00 0.000000e+00 0.000000e+00 0.000000e+00 6.836441e-05 8.165257e-05 0.000000e+00 8.165257e-05 -1.740317e-05 0.000000e+00 0.000000e+00 0.000000e+00 0.000000e+00 6.506986e-05 9.658791e-05 0.000000e+00 9.658791e-05 -1.724830e-05 0.000000e+00 0.000000e+00 0.000000e+00 0.000000e+00 1.968913e-04 3.242663e-04 0.000000e+00 3.242663e-04 2.190723e-04 0.000000e+00 0.000000e+00 0.000000e+00 0.000000e+00 -1.154137e-04 8.745959e-05 0.000000e+00 8.745959e-05 5.153035e-05 0.000000e+00 0.000000e+00 0.000000e+00 0.000000e+00 1.838919e-04 -4.967944e-05 0.000000e+00 -4.967944e-05 -8.335837e-05 0.000000e+00 0.000000e+00 0.000000e+00 0.000000e+00 1.793255e-04 -4.275866e-05 0.000000e+00 -4.275866e-05 -7.637313e-05 0.000000e+00 0.000000e+00 0.000000e+00 0.000000e+00 2.493320e-04 -6.719002e-05 0.000000e+00 -6.719002e-05 7.422938e-06 0.000000e+00 0.000000e+00 0.000000e+00 0.000000e+00 2.364244e-04 -5.588905e-05 0.000000e+00 -5.588905e-05 3.097975e-07 0.000000e+00 0.000000e+00 0.000000e+00 0.000000e+00 2.489274e-04 -5.754823e-05 0.000000e+00 -5.754823e-05 1.538725e-05 0.000000e+00 0.000000e+00 0.000000e+00 0.000000e+00 -2.317741e-05 1.240453e-04 0.000000e+00 1.240453e-04 1.254190e-05 0.000000e+00 0.000000e+00 0.000000e+00 0.000000e+00 -4.271409e-05 1.154347e-04 0.000000e+00 1.154347e-04 2.204507e-05 0.000000e+00 0.000000e+00 0.000000e+00 0.000000e+00 1.248886e-04 -2.227858e-05 0.000000e+00 -2.227858e-05 -2.441664e-04 0.000000e+00 0.000000e+00 0.000000e+00 0.000000e+00 1.216151e-04 -2.986603e-05 0.000000e+00 -2.986603e-05 -2.351655e-04 0.000000e+00 0.000000e+00 0.000000e+00 0.000000e+00 1.247189e-04 -2.646428e-05 0.000000e+00 -2.646428e-05 -3.836679e-04 0.000000e+00 0.000000e+00 0.000000e+00 0.000000e+00 1.355866e-04 -3.436126e-05 0.000000e+00 -3.436126e-05 -1.787058e-04 0.000000e+00 0.000000e+00 0.000000e+00 0.000000e+00 1.156490e-04 -3.202086e-05 0.000000e+00 -3.202086e-05 -2.633833e-04 0.000000e+00 0.000000e+00 0.000000e+00 0.000000e+00 1.236807e-04 -2.309723e-05 0.000000e+00 -2.309723e-05 -2.584233e-04 0.000000e+00 0.000000e+00 0.000000e+00 0.000000e+00 1.540284e-04 -3.754054e-05 0.000000e+00 -3.754054e-05 -4.934316e-04 0.000000e+00 0.000000e+00 0.000000e+00 0.000000e+00 -2.016746e-05 7.202446e-05 0.000000e+00 7.202446e-05 -2.592060e-05 0.000000e+00 0.000000e+00 0.000000e+00 0.000000e+00 -3.647429e-05 9.136298e-05 0.000000e+00 9.136298e-05 -1.465169e-05 0.000000e+00 0.000000e+00 0.000000e+00 0.000000e+00 4.324175e-05 1.150629e-04 0.000000e+00 1.150629e-04 -8.535317e-06 0.000000e+00 0.000000e+00 0.000000e+00 0.000000e+00 -2.342267e-07 6.923841e-06 0.000000e+00 6.923841e-06 -1.496293e-05 0.000000e+00 0.000000e+00 0.000000e+00 0.000000e+00 5.476443e-07 1.225548e-05 0.000000e+00 1.225548e-05 -5.082667e-06 0.000000e+00 0.000000e+00 0.000000e+00 0.000000e+00 -1.458773e-04 -1.908838e-05 0.000000e+00 -1.908838e-05 1.162146e-04 0.000000e+00 0.000000e+00 0.000000e+00 0.000000e+00 -1.154069e-04 2.621939e-05 0.000000e+00 2.621939e-05 7.375989e-05 0.000000e+00 0.000000e+00 0.000000e+00 0.000000e+00 -1.215893e-04 -3.292390e-05 0.000000e+00 -3.292390e-05 8.103021e-05 0.000000e+00 0.000000e+00 0.000000e+00 0.000000e+00 1.115916e-04 -1.683749e-05 0.000000e+00 -1.683749e-05 -3.065845e-04 0.000000e+00 0.000000e+00 0.000000e+00 0.000000e+00 2.128326e-04 -4.423830e-05 0.000000e+00 -4.423830e-05 -4.182072e-05 0.000000e+00 0.000000e+00 0.000000e+00 0.000000e+00 2.201137e-04 -5.421432e-05 0.000000e+00 -5.421432e-05 -3.406115e-05 0.000000e+00 0.000000e+00 0.000000e+00 0.000000e+00 3.454103e-04 -1.617666e-04 0.000000e+00 -1.617666e-04 3.630897e-04 0.000000e+00 0.000000e+00 0.000000e+00 0.000000e+00 4.465464e-04 -1.981640e-04 0.000000e+00 -1.981640e-04 3.752411e-04 0.000000e+00 0.000000e+00 0.000000e+00 0.000000e+00 2.138166e-04 2.847038e-04 0.000000e+00 2.847038e-04 1.378187e-04 0.000000e+00 0.000000e+00 0.000000e+00 0.000000e+00 1.630465e-04 1.953038e-04 0.000000e+00 1.953038e-04 9.710387e-05 0.000000e+00 0.000000e+00 0.000000e+00 0.000000e+00 1.235895e-04 -1.310469e-05 0.000000e+00 -1.310469e-05 -3.691921e-04 0.000000e+00 0.000000e+00 0.000000e+00 0.000000e+00 1.593827e-04 -2.271781e-05 0.000000e+00 -2.271781e-05 -4.769920e-04 0.000000e+00 0.000000e+00 0.000000e+00 0.000000e+00 1.315207e-04 -4.063502e-05 0.000000e+00 -4.063502e-05 -4.574257e-04 0.000000e+00 0.000000e+00 0.000000e+00 0.000000e+00 -4.097168e-06 7.714427e-06 0.000000e+00 7.714427e-06 -3.753133e-06 0.000000e+00 0.000000e+00 0.000000e+00 0.000000e+00 -1.937374e-05 5.002095e-05 0.000000e+00 5.002095e-05 -1.659645e-05 0.000000e+00 0.000000e+00 0.000000e+00 0.000000e+00 1.298871e-04 -3.410756e-05 0.000000e+00 -3.410756e-05 -1.922198e-04 0.000000e+00 0.000000e+00 0.000000e+00 0.000000e+00 -4.898496e-05 1.016969e-04 0.000000e+00 1.016969e-04 1.333480e-05 0.000000e+00 0.000000e+00 0.000000e+00 0.000000e+00 -6.746071e-06 -1.387492e-04 0.000000e+00 -1.387492e-04 -5.426310e-05 0.000000e+00 0.000000e+00 0.000000e+00 0.000000e+00 1.256448e-04 -2.830734e-05 0.000000e+00 -2.830734e-05 -4.065801e-04 0.000000e+00 0.000000e+00 0.000000e+00 0.000000e+00 1.249523e-04 -1.460217e-05 0.000000e+00 -1.460217e-05 -3.893019e-04 0.000000e+00 0.000000e+00 0.000000e+00 0.000000e+00 3.584077e-06 2.825146e-05 0.000000e+00 2.825146e-05 -3.482666e-05 0.000000e+00 0.000000e+00 0.000000e+00 0.000000e+00 1.531729e-06 5.263115e-06 0.000000e+00 5.263115e-06 -1.541780e-05 0.000000e+00 0.000000e+00 0.000000e+00 0.000000e+00 1.173467e-04 -8.688060e-05 0.000000e+00 -8.688060e-05 -3.043437e-04 0.000000e+00 0.000000e+00 0.000000e+00 0.000000e+00 1.231337e-04 -3.344458e-05 0.000000e+00 -3.344458e-05 -4.254119e-04 0.000000e+00 0.000000e+00 0.000000e+00 0.000000e+00 1.462143e-04 -2.202099e-05 0.000000e+00 -2.202099e-05 -4.468050e-04 0.000000e+00 0.000000e+00 0.000000e+00 0.000000e+00 1.354331e-04 -1.993599e-05 0.000000e+00 -1.993599e-05 -4.156445e-04 0.000000e+00 0.000000e+00 0.000000e+00 0.000000e+00 1.356609e-04 -2.795740e-05 0.000000e+00 -2.795740e-05 -2.011824e-04 0.000000e+00 0.000000e+00 0.000000e+00 0.000000e+00 1.932840e-04 -4.407046e-05 0.000000e+00 -4.407046e-05 -6.475652e-05 0.000000e+00 0.000000e+00 0.000000e+00 0.000000e+00 1.969239e-04 -5.318904e-05 0.000000e+00 -5.318904e-05 -5.723419e-05 0.000000e+00 0.000000e+00 0.000000e+00 0.000000e+00 1.514778e-04 -3.371363e-05 0.000000e+00 -3.371363e-05 -1.355418e-04 0.000000e+00 0.000000e+00 0.000000e+00 0.000000e+00 1.529837e-04 -4.259279e-05 0.000000e+00 -4.259279e-05 -1.278731e-04 0.000000e+00 0.000000e+00 0.000000e+00 0.000000e+00 1.298174e-04 -2.597881e-05 0.000000e+00 -2.597881e-05 -1.849354e-04 0.000000e+00 0.000000e+00 0.000000e+00 0.000000e+00 -1.694571e-05 5.989270e-05 0.000000e+00 5.989270e-05 -3.274271e-06 0.000000e+00 0.000000e+00 0.000000e+00 0.000000e+00 -5.929897e-05 9.772735e-05 0.000000e+00 9.772735e-05 1.230630e-05 0.000000e+00 0.000000e+00 0.000000e+00 0.000000e+00 -5.872695e-05 1.147291e-04 0.000000e+00 1.147291e-04 2.273782e-05 0.000000e+00 0.000000e+00 0.000000e+00 0.000000e+00 -8.971862e-05 9.898348e-05 0.000000e+00 9.898348e-05 3.419033e-05 0.000000e+00 0.000000e+00 0.000000e+00 0.000000e+00 1.088346e-04 -6.097305e-05 0.000000e+00 -6.097305e-05 -3.095497e-04 0.000000e+00 0.000000e+00 0.000000e+00 0.000000e+00 -6.543461e-06 1.514826e-06 0.000000e+00 1.514826e-06 -2.098928e-06 0.000000e+00 0.000000e+00 0.000000e+00 0.000000e+00 6.174765e-05 -1.180381e-04 0.000000e+00 -1.180381e-04 -1.851409e-04 0.000000e+00 0.000000e+00 0.000000e+00 0.000000e+00 1.027556e-04 -1.158855e-04 0.000000e+00 -1.158855e-04 -2.396080e-04 0.000000e+00 0.000000e+00 0.000000e+00 0.000000e+00 1.175860e-04 -5.295174e-05 0.000000e+00 -5.295174e-05 -3.447610e-04 0.000000e+00 0.000000e+00 0.000000e+00 0.000000e+00 -2.316887e-06 4.273762e-06 0.000000e+00 4.273762e-06 -9.598890e-06 0.000000e+00 0.000000e+00 0.000000e+00 0.000000e+00 1.250748e-04 -7.681741e-05 0.000000e+00 -7.681741e-05 -3.607223e-04 0.000000e+00 0.000000e+00 0.000000e+00 0.000000e+00 1.311107e-04 -4.314083e-05 0.000000e+00 -4.314083e-05 -3.818318e-04 0.000000e+00 0.000000e+00 0.000000e+00 0.000000e+00 8.700316e-05 -5.662513e-05 0.000000e+00 -5.662513e-05 -3.284326e-04 0.000000e+00 0.000000e+00 0.000000e+00 0.000000e+00 5.196839e-05 2.798723e-05 0.000000e+00 2.798723e-05 -4.110429e-04 0.000000e+00 0.000000e+00 0.000000e+00 0.000000e+00 1.203376e-04 -2.971554e-05 0.000000e+00 -2.971554e-05 -3.807924e-04 0.000000e+00 0.000000e+00 0.000000e+00 0.000000e+00 1.091565e-04 -3.720037e-05 0.000000e+00 -3.720037e-05 -3.468866e-04 0.000000e+00 0.000000e+00 0.000000e+00 0.000000e+00 1.312702e-04 -3.502147e-05 0.000000e+00 -3.502147e-05 -3.884317e-04 0.000000e+00 0.000000e+00 0.000000e+00 0.000000e+00 1.257822e-04 -5.272644e-05 0.000000e+00 -5.272644e-05 -3.457232e-04 0.000000e+00 0.000000e+00 0.000000e+00 0.000000e+00 1.068354e-04 -2.223795e-05 0.000000e+00 -2.223795e-05 -3.638157e-04 0.000000e+00 0.000000e+00 0.000000e+00 0.000000e+00 9.990443e-05 -4.443882e-06 0.000000e+00 -4.443882e-06 -3.915357e-04 0.000000e+00 0.000000e+00 0.000000e+00 0.000000e+00 1.225917e-04 -3.028339e-05 0.000000e+00 -3.028339e-05 -3.814601e-04 0.000000e+00 0.000000e+00 0.000000e+00 0.000000e+00 1.476128e-04 9.654626e-06 0.000000e+00 9.654626e-06 -4.700316e-04 0.000000e+00 0.000000e+00 0.000000e+00 0.000000e+00 1.223453e-04 -7.647155e-05 0.000000e+00 -7.647155e-05 -3.242559e-04 0.000000e+00 0.000000e+00 0.000000e+00 0.000000e+00 9.163780e-05 -7.394160e-05 0.000000e+00 -7.394160e-05 -2.812564e-04 0.000000e+00 0.000000e+00 0.000000e+00 0.000000e+00 9.238001e-05 -5.584472e-05 0.000000e+00 -5.584472e-05 -3.038266e-04 0.000000e+00 0.000000e+00 0.000000e+00 0.000000e+00 1.444842e-04 -1.398719e-05 0.000000e+00 -1.398719e-05 -4.153510e-04 0.000000e+00 0.000000e+00 0.000000e+00 0.000000e+00 1.410624e-04 -2.243238e-05 0.000000e+00 -2.243238e-05 -4.148011e-04 0.000000e+00 0.000000e+00 0.000000e+00 0.000000e+00 1.414104e-04 -3.603649e-05 0.000000e+00 -3.603649e-05 -1.663970e-04 0.000000e+00 0.000000e+00 0.000000e+00 0.000000e+00 1.378713e-04 -2.723104e-05 0.000000e+00 -2.723104e-05 -1.732549e-04 0.000000e+00 0.000000e+00 0.000000e+00 0.000000e+00 1.341288e-04 -3.142709e-05 0.000000e+00 -3.142709e-05 -1.583009e-04 0.000000e+00 0.000000e+00 0.000000e+00 0.000000e+00 1.779525e-04 -4.676625e-05 0.000000e+00 -4.676625e-05 -9.509038e-05 0.000000e+00 0.000000e+00 0.000000e+00 0.000000e+00 1.661324e-04 -3.873848e-05 0.000000e+00 -3.873848e-05 -9.922167e-05 0.000000e+00 0.000000e+00 0.000000e+00 0.000000e+00 1.715476e-04 -4.099353e-05 0.000000e+00 -4.099353e-05 -8.766240e-05 0.000000e+00 0.000000e+00 0.000000e+00 0.000000e+00 8.525911e-06 -1.154899e-05 0.000000e+00 -1.154899e-05 -3.439390e-06 0.000000e+00 0.000000e+00 0.000000e+00 0.000000e+00 -9.929234e-05 6.950763e-05 0.000000e+00 6.950763e-05 9.342577e-05 0.000000e+00 0.000000e+00 0.000000e+00 0.000000e+00 1.360326e-04 -4.625493e-05 0.000000e+00 -4.625493e-05 -1.855376e-04 0.000000e+00 0.000000e+00 0.000000e+00 0.000000e+00 4.891063e-05 -1.350621e-04 0.000000e+00 -1.350621e-04 -1.460565e-04 0.000000e+00 0.000000e+00 0.000000e+00 0.000000e+00 2.309395e-04 -5.945932e-05 0.000000e+00 -5.945932e-05 -2.199560e-05 0.000000e+00 0.000000e+00 0.000000e+00 0.000000e+00 2.076846e-04 -4.987502e-05 0.000000e+00 -4.987502e-05 -2.559380e-05 0.000000e+00 0.000000e+00 0.000000e+00 0.000000e+00 2.182476e-04 -5.278310e-05 0.000000e+00 -5.278310e-05 -1.292628e-05 0.000000e+00 0.000000e+00 0.000000e+00 0.000000e+00 3.684409e-04 -1.245584e-04 0.000000e+00 -1.245584e-04 2.564288e-04 0.000000e+00 0.000000e+00 0.000000e+00 0.000000e+00 4.333933e-04 -2.297465e-04 0.000000e+00 -2.297465e-04 4.757708e-04 0.000000e+00 0.000000e+00 0.000000e+00 0.000000e+00 3.117209e-04 -1.804202e-04 0.000000e+00 -1.804202e-04 4.564482e-04 0.000000e+00 0.000000e+00 0.000000e+00 0.000000e+00 2.619147e-04 -1.838241e-04 0.000000e+00 -1.838241e-04 5.869020e-04 0.000000e+00 0.000000e+00 0.000000e+00 0.000000e+00 8.668518e-05 6.475827e-05 0.000000e+00 6.475827e-05 -2.532758e-05 0.000000e+00 0.000000e+00 0.000000e+00 0.000000e+00 9.377409e-05 7.498588e-05 0.000000e+00 7.498588e-05 -1.857920e-05 0.000000e+00 0.000000e+00 0.000000e+00 0.000000e+00 6.301145e-05 -1.618026e-04 0.000000e+00 -1.618026e-04 -1.408288e-04 0.000000e+00 0.000000e+00 0.000000e+00 0.000000e+00 -2.020671e-06 -1.081525e-05 0.000000e+00 -1.081525e-05 6.192582e-06 0.000000e+00 0.000000e+00 0.000000e+00 0.000000e+00 2.022535e-04 -4.585193e-05 0.000000e+00 -4.585193e-05 -5.226591e-05 0.000000e+00 0.000000e+00 0.000000e+00 0.000000e+00 1.552817e-04 -2.124864e-05 0.000000e+00 -2.124864e-05 -4.639080e-04 0.000000e+00 0.000000e+00 0.000000e+00 0.000000e+00 1.490309e-04 1.005325e-04 0.000000e+00 1.005325e-04 -2.605957e-05 0.000000e+00 0.000000e+00 0.000000e+00 0.000000e+00 -3.173889e-05 8.085085e-05 0.000000e+00 8.085085e-05 5.973367e-06 0.000000e+00 0.000000e+00 0.000000e+00 0.000000e+00 5.398557e-05 5.259618e-05 0.000000e+00 5.259618e-05 7.050137e-04 0.000000e+00 0.000000e+00 0.000000e+00 0.000000e+00 -7.086521e-05 9.770942e-05 0.000000e+00 9.770942e-05 2.560373e-05 0.000000e+00 0.000000e+00 0.000000e+00 0.000000e+00 -8.355226e-05 9.350869e-05 0.000000e+00 9.350869e-05 5.605131e-05 0.000000e+00 0.000000e+00 0.000000e+00 0.000000e+00 3.348425e-04 -1.170654e-04 0.000000e+00 -1.170654e-04 2.217050e-04 0.000000e+00 0.000000e+00 0.000000e+00 0.000000e+00 2.906653e-05 -1.728533e-04 0.000000e+00 -1.728533e-04 -8.021287e-05 0.000000e+00 0.000000e+00 0.000000e+00 0.000000e+00 3.314001e-04 -1.921330e-04 0.000000e+00 -1.921330e-04 3.005839e-04 0.000000e+00 0.000000e+00 0.000000e+00 0.000000e+00 7.175699e-05 2.914188e-04 0.000000e+00 2.914188e-04 6.160552e-04 0.000000e+00 0.000000e+00 0.000000e+00 0.000000e+00 7.149212e-05 1.033147e-04 0.000000e+00 1.033147e-04 -2.122689e-05 0.000000e+00 0.000000e+00 0.000000e+00 0.000000e+00 1.163514e-04 -3.322849e-05 0.000000e+00 -3.322849e-05 -3.427399e-04 0.000000e+00 0.000000e+00 0.000000e+00 0.000000e+00 3.137997e-04 5.829120e-04 0.000000e+00 5.829120e-04 5.491774e-04 0.000000e+00 0.000000e+00 0.000000e+00 0.000000e+00 1.300184e-04 -5.462680e-05 0.000000e+00 -5.462680e-05 -3.455662e-04 0.000000e+00 0.000000e+00 0.000000e+00 0.000000e+00 1.355342e-04 -2.277984e-06 0.000000e+00 -2.277984e-06 -3.958421e-04 0.000000e+00 0.000000e+00 0.000000e+00 0.000000e+00 1.725342e-04 -2.187554e-05 0.000000e+00 -2.187554e-05 -4.862640e-04 0.000000e+00 0.000000e+00 0.000000e+00 0.000000e+00 2.041768e-04 1.947341e-04 0.000000e+00 1.947341e-04 5.213732e-05 0.000000e+00 0.000000e+00 0.000000e+00 0.000000e+00 9.319007e-05 2.689823e-04 0.000000e+00 2.689823e-04 4.375543e-04 0.000000e+00 0.000000e+00 0.000000e+00 0.000000e+00 -4.059991e-06 2.784851e-05 0.000000e+00 2.784851e-05 -2.050407e-05 0.000000e+00 0.000000e+00 0.000000e+00 0.000000e+00 1.295300e-04 -3.890392e-05 0.000000e+00 -3.890392e-05 -3.608149e-04 0.000000e+00 0.000000e+00 0.000000e+00 0.000000e+00 2.515719e-06 1.228710e-05 0.000000e+00 1.228710e-05 -2.905215e-05 0.000000e+00 0.000000e+00 0.000000e+00 0.000000e+00 1.027433e-04 -3.938711e-05 0.000000e+00 -3.938711e-05 -3.237907e-04 0.000000e+00 0.000000e+00 0.000000e+00 0.000000e+00 1.167061e-04 -4.046269e-05 0.000000e+00 -4.046269e-05 -1.871598e-04 0.000000e+00 0.000000e+00 0.000000e+00 0.000000e+00 -4.183584e-05 -1.561460e-04 0.000000e+00 -1.561460e-04 4.191659e-06 0.000000e+00 0.000000e+00 0.000000e+00 0.000000e+00 -1.067115e-05 -1.653905e-04 0.000000e+00 -1.653905e-04 -3.398720e-05 0.000000e+00 0.000000e+00 0.000000e+00 0.000000e+00 1.583304e-04 -2.709355e-05 0.000000e+00 -2.709355e-05 -4.624886e-04 0.000000e+00 0.000000e+00 0.000000e+00 0.000000e+00 -6.744459e-06 4.015779e-05 0.000000e+00 4.015779e-05 -8.910837e-06 0.000000e+00 0.000000e+00 0.000000e+00 0.000000e+00 1.094902e-04 -3.202227e-05 0.000000e+00 -3.202227e-05 -3.375220e-04 0.000000e+00 0.000000e+00 0.000000e+00 0.000000e+00 9.963005e-05 2.406477e-04 0.000000e+00 2.406477e-04 5.265898e-04 0.000000e+00 0.000000e+00 0.000000e+00 0.000000e+00 2.903846e-05 1.393440e-04 0.000000e+00 1.393440e-04 8.092051e-04 0.000000e+00 0.000000e+00 0.000000e+00 0.000000e+00 -6.243538e-06 4.925808e-05 0.000000e+00 4.925808e-05 -3.311626e-05 0.000000e+00 0.000000e+00 0.000000e+00 0.000000e+00 5.605431e-05 1.100481e-04 0.000000e+00 1.100481e-04 -1.016401e-05 0.000000e+00 0.000000e+00 0.000000e+00 0.000000e+00 1.241920e-04 -6.011278e-05 0.000000e+00 -6.011278e-05 -3.164352e-04 0.000000e+00 0.000000e+00 0.000000e+00 0.000000e+00 1.635935e-04 1.214393e-04 0.000000e+00 1.214393e-04 -1.354475e-05 0.000000e+00 0.000000e+00 0.000000e+00 0.000000e+00 1.243278e-04 1.028467e-04 0.000000e+00 1.028467e-04 -2.225954e-05 0.000000e+00 0.000000e+00 0.000000e+00 0.000000e+00 1.140475e-04 -5.950091e-05 0.000000e+00 -5.950091e-05 -3.903132e-04 0.000000e+00 0.000000e+00 0.000000e+00 0.000000e+00 -4.300961e-05 1.164504e-04 0.000000e+00 1.164504e-04 1.933571e-05 0.000000e+00 0.000000e+00 0.000000e+00 0.000000e+00 1.722216e-04 -6.175803e-05 0.000000e+00 -6.175803e-05 -1.011145e-04 0.000000e+00 0.000000e+00 0.000000e+00 0.000000e+00 1.239025e-04 -1.700502e-05 0.000000e+00 -1.700502e-05 -3.631628e-04 0.000000e+00 0.000000e+00 0.000000e+00 0.000000e+00 1.179812e-04 -2.281371e-05 0.000000e+00 -2.281371e-05 -2.252643e-04 0.000000e+00 0.000000e+00 0.000000e+00 0.000000e+00 8.577430e-05 2.341298e-04 0.000000e+00 2.341298e-04 2.935932e-04 0.000000e+00 0.000000e+00 0.000000e+00 0.000000e+00 7.471658e-05 2.134826e-04 0.000000e+00 2.134826e-04 2.817171e-04 0.000000e+00 0.000000e+00 0.000000e+00 0.000000e+00 1.320633e-04 -3.965194e-05 0.000000e+00 -3.965194e-05 -1.766414e-04 0.000000e+00 0.000000e+00 0.000000e+00 0.000000e+00 1.323752e-04 -4.762435e-05 0.000000e+00 -4.762435e-05 -1.677874e-04 0.000000e+00 0.000000e+00 0.000000e+00 0.000000e+00 -7.217040e-05 7.054923e-05 0.000000e+00 7.054923e-05 7.847944e-05 0.000000e+00 0.000000e+00 0.000000e+00 0.000000e+00 3.177925e-04 -1.367536e-04 0.000000e+00 -1.367536e-04 1.526174e-04 0.000000e+00 0.000000e+00 0.000000e+00 0.000000e+00 3.951708e-04 -1.536345e-04 0.000000e+00 -1.536345e-04 2.871632e-04 0.000000e+00 0.000000e+00 0.000000e+00 0.000000e+00 5.266441e-05 2.433159e-04 0.000000e+00 2.433159e-04 6.125910e-04 0.000000e+00 0.000000e+00 0.000000e+00 0.000000e+00 3.277228e-05 1.584679e-04 0.000000e+00 1.584679e-04 5.593059e-04 0.000000e+00 0.000000e+00 0.000000e+00 0.000000e+00 5.898289e-05 2.160160e-04 0.000000e+00 2.160160e-04 4.122669e-04 0.000000e+00 0.000000e+00 0.000000e+00 0.000000e+00 2.703986e-04 -1.110310e-04 0.000000e+00 -1.110310e-04 6.279422e-05 0.000000e+00 0.000000e+00 0.000000e+00 0.000000e+00 2.296549e-04 -9.277194e-05 0.000000e+00 -9.277194e-05 7.603999e-06 0.000000e+00 0.000000e+00 0.000000e+00 0.000000e+00 1.616443e-04 -1.202309e-04 0.000000e+00 -1.202309e-04 6.548783e-04 0.000000e+00 0.000000e+00 0.000000e+00 0.000000e+00 5.220399e-05 -3.749014e-05 0.000000e+00 -3.749014e-05 7.790756e-04 0.000000e+00 0.000000e+00 0.000000e+00 0.000000e+00 1.470737e-04 -6.113654e-05 0.000000e+00 -6.113654e-05 -1.306573e-04 0.000000e+00 0.000000e+00 0.000000e+00 0.000000e+00 2.995571e-04 -8.660949e-05 0.000000e+00 -8.660949e-05 1.239241e-04 0.000000e+00 0.000000e+00 0.000000e+00 0.000000e+00 1.500939e-04 1.467487e-04 0.000000e+00 1.467487e-04 1.436178e-05 0.000000e+00 0.000000e+00 0.000000e+00 0.000000e+00 1.802708e-04 1.490619e-04 0.000000e+00 1.490619e-04 9.740181e-06 0.000000e+00 0.000000e+00 0.000000e+00 0.000000e+00 8.636886e-05 9.875356e-05 0.000000e+00 9.875356e-05 -2.066534e-05 0.000000e+00 0.000000e+00 0.000000e+00 0.000000e+00 6.282421e-05 1.150860e-04 0.000000e+00 1.150860e-04 -1.008644e-05 0.000000e+00 0.000000e+00 0.000000e+00 0.000000e+00 1.658248e-04 -5.646291e-05 0.000000e+00 -5.646291e-05 -1.146264e-04 0.000000e+00 0.000000e+00 0.000000e+00 0.000000e+00 1.584352e-04 -5.221469e-05 0.000000e+00 -5.221469e-05 -1.049654e-04 0.000000e+00 0.000000e+00 0.000000e+00 0.000000e+00 3.104595e-04 4.758371e-04 0.000000e+00 4.758371e-04 8.877448e-04 0.000000e+00 0.000000e+00 0.000000e+00 0.000000e+00 1.737887e-04 2.315098e-04 0.000000e+00 2.315098e-04 1.330604e-04 0.000000e+00 0.000000e+00 0.000000e+00 0.000000e+00 1.204041e-04 1.747471e-04 0.000000e+00 1.747471e-04 9.660778e-05 0.000000e+00 0.000000e+00 0.000000e+00 0.000000e+00 1.220038e-04 7.295049e-05 0.000000e+00 7.295049e-05 -3.331343e-05 0.000000e+00 0.000000e+00 0.000000e+00 0.000000e+00 -1.325980e-05 -1.588236e-04 0.000000e+00 -1.588236e-04 -3.980199e-05 0.000000e+00 0.000000e+00 0.000000e+00 0.000000e+00 2.822825e-04 -1.558652e-04 0.000000e+00 -1.558652e-04 3.333866e-04 0.000000e+00 0.000000e+00 0.000000e+00 0.000000e+00 3.579214e-04 -1.995037e-04 0.000000e+00 -1.995037e-04 3.571485e-04 0.000000e+00 0.000000e+00 0.000000e+00 0.000000e+00 -7.397084e-05 1.065536e-04 0.000000e+00 1.065536e-04 3.603496e-05 0.000000e+00 0.000000e+00 0.000000e+00 0.000000e+00 1.355303e-04 8.498018e-05 0.000000e+00 8.498018e-05 -3.305916e-05 0.000000e+00 0.000000e+00 0.000000e+00 0.000000e+00 3.581370e-06 1.017863e-05 0.000000e+00 1.017863e-05 -8.674573e-06 0.000000e+00 0.000000e+00 0.000000e+00 0.000000e+00 -4.918307e-05 1.041823e-04 0.000000e+00 1.041823e-04 4.767836e-05 0.000000e+00 0.000000e+00 0.000000e+00 0.000000e+00 1.229296e-04 -3.202373e-05 0.000000e+00 -3.202373e-05 -3.186941e-04 0.000000e+00 0.000000e+00 0.000000e+00 0.000000e+00 -4.532196e-05 1.176643e-04 0.000000e+00 1.176643e-04 3.190920e-05 0.000000e+00 0.000000e+00 0.000000e+00 0.000000e+00 3.280523e-04 -1.765603e-04 0.000000e+00 -1.765603e-04 2.459079e-04 0.000000e+00 0.000000e+00 0.000000e+00 0.000000e+00 2.699481e-04 -1.542833e-04 0.000000e+00 -1.542833e-04 2.780643e-04 0.000000e+00 0.000000e+00 0.000000e+00 0.000000e+00 1.880816e-05 -1.575986e-04 0.000000e+00 -1.575986e-04 -8.352891e-05 0.000000e+00 0.000000e+00 0.000000e+00 0.000000e+00 1.110978e-04 -3.177855e-05 0.000000e+00 -3.177855e-05 -3.186425e-04 0.000000e+00 0.000000e+00 0.000000e+00 0.000000e+00 1.172049e-04 -2.006564e-05 0.000000e+00 -2.006564e-05 -2.730939e-04 0.000000e+00 0.000000e+00 0.000000e+00 0.000000e+00 1.934299e-04 -7.455422e-05 0.000000e+00 -7.455422e-05 -4.496161e-05 0.000000e+00 0.000000e+00 0.000000e+00 0.000000e+00 8.409736e-05 9.046433e-05 0.000000e+00 9.046433e-05 -1.953221e-05 0.000000e+00 0.000000e+00 0.000000e+00 0.000000e+00 2.581729e-04 -9.943870e-05 0.000000e+00 -9.943870e-05 4.134590e-05 0.000000e+00 0.000000e+00 0.000000e+00 0.000000e+00 2.351985e-04 -9.301237e-05 0.000000e+00 -9.301237e-05 5.380053e-05 0.000000e+00 0.000000e+00 0.000000e+00 0.000000e+00 1.185652e-04 -2.195366e-05 0.000000e+00 -2.195366e-05 -3.353314e-04 0.000000e+00 0.000000e+00 0.000000e+00 0.000000e+00 1.481507e-04 -5.765066e-05 0.000000e+00 -5.765066e-05 -1.489129e-04 0.000000e+00 0.000000e+00 0.000000e+00 0.000000e+00 1.389726e-04 -5.076247e-05 0.000000e+00 -5.076247e-05 -1.381675e-04 0.000000e+00 0.000000e+00 0.000000e+00 0.000000e+00 1.096689e-04 -3.238692e-05 0.000000e+00 -3.238692e-05 -3.125032e-04 0.000000e+00 0.000000e+00 0.000000e+00 0.000000e+00 1.087784e-04 -4.259720e-05 0.000000e+00 -4.259720e-05 -2.503535e-04 0.000000e+00 0.000000e+00 0.000000e+00 0.000000e+00 1.834447e-04 -7.300357e-05 0.000000e+00 -7.300357e-05 -7.369079e-05 0.000000e+00 0.000000e+00 0.000000e+00 0.000000e+00 1.636361e-04 -3.597281e-05 0.000000e+00 -3.597281e-05 -1.244483e-04 0.000000e+00 0.000000e+00 0.000000e+00 0.000000e+00 7.052351e-05 -1.688433e-04 0.000000e+00 -1.688433e-04 9.036016e-05 0.000000e+00 0.000000e+00 0.000000e+00 0.000000e+00 1.067436e-04 7.883189e-05 0.000000e+00 7.883189e-05 -3.366203e-05 0.000000e+00 0.000000e+00 0.000000e+00 0.000000e+00 1.239058e-04 -7.825594e-05 0.000000e+00 -7.825594e-05 -2.968265e-04 0.000000e+00 0.000000e+00 0.000000e+00 0.000000e+00 1.357651e-04 -5.309597e-05 0.000000e+00 -5.309597e-05 -1.986480e-04 0.000000e+00 0.000000e+00 0.000000e+00 0.000000e+00 2.080331e-06 8.563359e-06 0.000000e+00 8.563359e-06 -1.386037e-05 0.000000e+00 0.000000e+00 0.000000e+00 0.000000e+00 1.115199e-04 -3.654015e-05 0.000000e+00 -3.654015e-05 -2.343583e-04 0.000000e+00 0.000000e+00 0.000000e+00 0.000000e+00 1.246103e-04 -3.647441e-05 0.000000e+00 -3.647441e-05 -2.487705e-04 0.000000e+00 0.000000e+00 0.000000e+00 0.000000e+00 1.289740e-04 -3.700423e-05 0.000000e+00 -3.700423e-05 -2.344019e-04 0.000000e+00 0.000000e+00 0.000000e+00 0.000000e+00 1.202229e-04 8.839142e-05 0.000000e+00 8.839142e-05 -3.089041e-05 0.000000e+00 0.000000e+00 0.000000e+00 0.000000e+00 -1.217003e-04 -3.564166e-05 0.000000e+00 -3.564166e-05 1.533802e-04 0.000000e+00 0.000000e+00 0.000000e+00 0.000000e+00 1.859191e-04 -7.510123e-05 0.000000e+00 -7.510123e-05 -5.853978e-05 0.000000e+00 0.000000e+00 0.000000e+00 0.000000e+00 1.777788e-04 -6.505894e-05 0.000000e+00 -6.505894e-05 -6.613363e-05 0.000000e+00 0.000000e+00 0.000000e+00 0.000000e+00 1.963838e-04 -6.731051e-05 0.000000e+00 -6.731051e-05 -5.500557e-05 0.000000e+00 0.000000e+00 0.000000e+00 0.000000e+00 1.261746e-04 -3.236136e-05 0.000000e+00 -3.236136e-05 -3.773341e-04 0.000000e+00 0.000000e+00 0.000000e+00 0.000000e+00 1.110125e-04 6.260385e-05 0.000000e+00 6.260385e-05 -2.675379e-05 0.000000e+00 0.000000e+00 0.000000e+00 0.000000e+00 2.191411e-05 1.145067e-04 0.000000e+00 1.145067e-04 1.880345e-06 0.000000e+00 0.000000e+00 0.000000e+00 0.000000e+00 1.280089e-04 -1.730610e-05 0.000000e+00 -1.730610e-05 -3.840302e-04 0.000000e+00 0.000000e+00 0.000000e+00 0.000000e+00 9.525984e-05 -5.195736e-05 0.000000e+00 -5.195736e-05 -2.849533e-04 0.000000e+00 0.000000e+00 0.000000e+00 0.000000e+00 1.397061e-04 1.206354e-04 0.000000e+00 1.206354e-04 -1.001546e-05 0.000000e+00 0.000000e+00 0.000000e+00 0.000000e+00 1.210756e-04 -4.542542e-05 0.000000e+00 -4.542542e-05 -3.324335e-04 0.000000e+00 0.000000e+00 0.000000e+00 0.000000e+00 2.739076e-04 -1.267640e-04 0.000000e+00 -1.267640e-04 1.828965e-04 0.000000e+00 0.000000e+00 0.000000e+00 0.000000e+00 3.266420e-04 -1.560654e-04 0.000000e+00 -1.560654e-04 1.981222e-04 0.000000e+00 0.000000e+00 0.000000e+00 0.000000e+00 -1.162433e-04 2.432443e-05 0.000000e+00 2.432443e-05 1.318638e-04 0.000000e+00 0.000000e+00 0.000000e+00 0.000000e+00 1.069341e-04 -2.664922e-05 0.000000e+00 -2.664922e-05 -2.976529e-04 0.000000e+00 0.000000e+00 0.000000e+00 0.000000e+00 1.145795e-04 -5.073626e-05 0.000000e+00 -5.073626e-05 -2.960333e-04 0.000000e+00 0.000000e+00 0.000000e+00 0.000000e+00 1.192584e-04 -4.191782e-05 0.000000e+00 -4.191782e-05 -2.910037e-04 0.000000e+00 0.000000e+00 0.000000e+00 0.000000e+00 1.976732e-04 -6.558682e-05 0.000000e+00 -6.558682e-05 -4.060130e-05 0.000000e+00 0.000000e+00 0.000000e+00 0.000000e+00 2.001934e-04 -7.321282e-05 0.000000e+00 -7.321282e-05 -3.152636e-05 0.000000e+00 0.000000e+00 0.000000e+00 0.000000e+00 -4.074296e-07 2.408963e-05 0.000000e+00 2.408963e-05 -1.744056e-05 0.000000e+00 0.000000e+00 0.000000e+00 0.000000e+00 -1.015089e-04 -5.804900e-05 0.000000e+00 -5.804900e-05 1.019363e-04 0.000000e+00 0.000000e+00 0.000000e+00 0.000000e+00 3.288585e-05 1.239214e-04 0.000000e+00 1.239214e-04 5.121986e-06 0.000000e+00 0.000000e+00 0.000000e+00 0.000000e+00 9.135013e-05 -1.979733e-04 0.000000e+00 -1.979733e-04 7.711070e-05 0.000000e+00 0.000000e+00 0.000000e+00 0.000000e+00 1.173848e-04 -9.816688e-05 0.000000e+00 -9.816688e-05 -2.729267e-04 0.000000e+00 0.000000e+00 0.000000e+00 0.000000e+00 7.720139e-05 -9.593256e-05 0.000000e+00 -9.593256e-05 -2.268714e-04 0.000000e+00 0.000000e+00 0.000000e+00 0.000000e+00 1.768687e-04 2.407161e-05 0.000000e+00 2.407161e-05 -5.083557e-04 0.000000e+00 0.000000e+00 0.000000e+00 0.000000e+00 -1.085351e-04 -1.015818e-04 0.000000e+00 -1.015818e-04 1.380506e-04 0.000000e+00 0.000000e+00 0.000000e+00 0.000000e+00 1.583032e-04 -5.957526e-05 0.000000e+00 -5.957526e-05 -9.058917e-05 0.000000e+00 0.000000e+00 0.000000e+00 0.000000e+00 1.782399e-04 -6.726921e-05 0.000000e+00 -6.726921e-05 -8.848149e-05 0.000000e+00 0.000000e+00 0.000000e+00 0.000000e+00 -1.015854e-04 -6.127563e-05 0.000000e+00 -6.127563e-05 1.869125e-04 0.000000e+00 0.000000e+00 0.000000e+00 0.000000e+00 9.791309e-05 7.168242e-05 0.000000e+00 7.168242e-05 -3.226203e-05 0.000000e+00 0.000000e+00 0.000000e+00 0.000000e+00 1.326335e-04 -4.651453e-05 0.000000e+00 -4.651453e-05 -2.167617e-04 0.000000e+00 0.000000e+00 0.000000e+00 0.000000e+00 1.136363e-04 -3.861027e-05 0.000000e+00 -3.861027e-05 -2.181720e-04 0.000000e+00 0.000000e+00 0.000000e+00 0.000000e+00 1.129507e-04 -4.609821e-05 0.000000e+00 -4.609821e-05 -2.000783e-04 0.000000e+00 0.000000e+00 0.000000e+00 0.000000e+00 -4.284399e-05 -1.698619e-04 0.000000e+00 -1.698619e-04 2.175827e-05 0.000000e+00 0.000000e+00 0.000000e+00 0.000000e+00 2.125216e-04 -8.088773e-05 0.000000e+00 -8.088773e-05 8.790171e-07 0.000000e+00 0.000000e+00 0.000000e+00 0.000000e+00 2.275606e-04 -8.665285e-05 0.000000e+00 -8.665285e-05 -1.082625e-05 0.000000e+00 0.000000e+00 0.000000e+00 0.000000e+00 3.171080e-04 -1.111107e-04 0.000000e+00 -1.111107e-04 1.125734e-04 0.000000e+00 0.000000e+00 0.000000e+00 0.000000e+00 2.670163e-04 -1.223120e-04 0.000000e+00 -1.223120e-04 1.485986e-04 0.000000e+00 0.000000e+00 0.000000e+00 0.000000e+00 8.067606e-05 8.593473e-05 0.000000e+00 8.593473e-05 -2.435344e-05 0.000000e+00 0.000000e+00 0.000000e+00 0.000000e+00 4.489703e-05 -1.474154e-04 0.000000e+00 -1.474154e-04 -1.257950e-04 0.000000e+00 0.000000e+00 0.000000e+00 0.000000e+00 8.904491e-05 -7.458188e-05 0.000000e+00 -7.458188e-05 -2.602855e-04 0.000000e+00 0.000000e+00 0.000000e+00 0.000000e+00 -9.688915e-05 9.570949e-06 0.000000e+00 9.570949e-06 1.000611e-04 0.000000e+00 0.000000e+00 0.000000e+00 0.000000e+00 1.179565e-04 -5.289696e-05 0.000000e+00 -5.289696e-05 -1.823530e-04 0.000000e+00 0.000000e+00 0.000000e+00 0.000000e+00 3.378269e-05 -1.870492e-04 0.000000e+00 -1.870492e-04 -6.406951e-05 0.000000e+00 0.000000e+00 0.000000e+00 0.000000e+00 1.139955e-04 -4.579079e-05 0.000000e+00 -4.579079e-05 -2.689581e-04 0.000000e+00 0.000000e+00 0.000000e+00 0.000000e+00 1.097950e-04 -3.299607e-05 0.000000e+00 -3.299607e-05 -2.766555e-04 0.000000e+00 0.000000e+00 0.000000e+00 0.000000e+00 1.238723e-04 -3.713503e-05 0.000000e+00 -3.713503e-05 -2.649473e-04 0.000000e+00 0.000000e+00 0.000000e+00 0.000000e+00 1.283913e-04 1.307376e-04 0.000000e+00 1.307376e-04 1.429669e-06 0.000000e+00 0.000000e+00 0.000000e+00 0.000000e+00 1.222588e-04 1.739097e-04 0.000000e+00 1.739097e-04 8.312251e-05 0.000000e+00 0.000000e+00 0.000000e+00 0.000000e+00 8.979966e-05 -1.448672e-04 0.000000e+00 -1.448672e-04 -1.779452e-04 0.000000e+00 0.000000e+00 0.000000e+00 0.000000e+00 1.649867e-04 -6.247779e-05 0.000000e+00 -6.247779e-05 -7.858443e-05 0.000000e+00 0.000000e+00 0.000000e+00 0.000000e+00 1.463006e-04 -5.539216e-05 0.000000e+00 -5.539216e-05 -1.146120e-04 0.000000e+00 0.000000e+00 0.000000e+00 0.000000e+00 2.388513e-04 -9.433432e-05 0.000000e+00 -9.433432e-05 2.444735e-05 0.000000e+00 0.000000e+00 0.000000e+00 0.000000e+00 2.278743e-04 -8.255011e-05 0.000000e+00 -8.255011e-05 1.580917e-05 0.000000e+00 0.000000e+00 0.000000e+00 0.000000e+00 2.431623e-04 -8.507292e-05 0.000000e+00 -8.507292e-05 2.995682e-05 0.000000e+00 0.000000e+00 0.000000e+00 0.000000e+00 -8.847901e-05 -1.120204e-04 0.000000e+00 -1.120204e-04 9.174819e-05 0.000000e+00 0.000000e+00 0.000000e+00 0.000000e+00 1.127591e-04 9.579039e-05 0.000000e+00 9.579039e-05 -2.600610e-05 0.000000e+00 0.000000e+00 0.000000e+00 0.000000e+00 1.243477e-04 1.536860e-04 0.000000e+00 1.536860e-04 3.968646e-05 0.000000e+00 0.000000e+00 0.000000e+00 0.000000e+00 9.578666e-05 1.419102e-04 0.000000e+00 1.419102e-04 4.450043e-05 0.000000e+00 0.000000e+00 0.000000e+00 0.000000e+00 8.532348e-05 1.230961e-04 0.000000e+00 1.230961e-04 1.581243e-05 0.000000e+00 0.000000e+00 0.000000e+00 0.000000e+00 1.248620e-04 -7.415934e-05 0.000000e+00 -7.415934e-05 -2.763406e-04 0.000000e+00 0.000000e+00 0.000000e+00 0.000000e+00 -2.178847e-05 1.258140e-04 0.000000e+00 1.258140e-04 2.223595e-05 0.000000e+00 0.000000e+00 0.000000e+00 0.000000e+00 1.061445e-04 8.410375e-05 0.000000e+00 8.410375e-05 -2.524981e-05 0.000000e+00 0.000000e+00 0.000000e+00 0.000000e+00 2.127001e-04 -1.151786e-04 0.000000e+00 -1.151786e-04 7.207746e-06 0.000000e+00 0.000000e+00 0.000000e+00 0.000000e+00 1.960500e-04 -7.526039e-05 0.000000e+00 -7.526039e-05 -1.442847e-05 0.000000e+00 0.000000e+00 0.000000e+00 0.000000e+00 1.177886e-04 -1.020766e-04 0.000000e+00 -1.020766e-04 -2.450620e-04 0.000000e+00 0.000000e+00 0.000000e+00 0.000000e+00 6.255425e-05 -1.260732e-04 0.000000e+00 -1.260732e-04 -1.648286e-04 0.000000e+00 0.000000e+00 0.000000e+00 0.000000e+00 -1.257177e-05 1.152421e-04 0.000000e+00 1.152421e-04 1.330706e-05 0.000000e+00 0.000000e+00 0.000000e+00 0.000000e+00 8.345306e-05 9.490115e-05 0.000000e+00 9.490115e-05 -2.506538e-05 0.000000e+00 0.000000e+00 0.000000e+00 0.000000e+00 1.479788e-04 -4.617138e-05 0.000000e+00 -4.617138e-05 -1.676951e-04 0.000000e+00 0.000000e+00 0.000000e+00 0.000000e+00 6.246639e-05 -1.942869e-04 0.000000e+00 -1.942869e-04 2.065359e-04 0.000000e+00 0.000000e+00 0.000000e+00 0.000000e+00 1.308132e-04 -4.905858e-05 0.000000e+00 -4.905858e-05 -1.517400e-04 0.000000e+00 0.000000e+00 0.000000e+00 0.000000e+00 3.331724e-05 1.156323e-04 0.000000e+00 1.156323e-04 4.696675e-06 0.000000e+00 0.000000e+00 0.000000e+00 0.000000e+00 2.712977e-04 -1.190493e-04 0.000000e+00 -1.190493e-04 8.821263e-05 0.000000e+00 0.000000e+00 0.000000e+00 0.000000e+00 -7.403835e-05 7.518031e-05 0.000000e+00 7.518031e-05 1.331895e-04 0.000000e+00 0.000000e+00 0.000000e+00 0.000000e+00 1.381226e-04 -2.050951e-05 0.000000e+00 -2.050951e-05 -4.149779e-04 0.000000e+00 0.000000e+00 0.000000e+00 0.000000e+00 2.743155e-04 -1.096880e-04 0.000000e+00 -1.096880e-04 1.125350e-04 0.000000e+00 0.000000e+00 0.000000e+00 0.000000e+00 4.490096e-06 1.269396e-04 0.000000e+00 1.269396e-04 1.513557e-05 0.000000e+00 0.000000e+00 0.000000e+00 0.000000e+00 -4.928224e-05 1.020046e-04 0.000000e+00 1.020046e-04 7.100183e-05 0.000000e+00 0.000000e+00 0.000000e+00 0.000000e+00 -1.755262e-05 1.136046e-04 0.000000e+00 1.136046e-04 6.746747e-05 0.000000e+00 0.000000e+00 0.000000e+00 0.000000e+00 2.864213e-04 -1.085062e-04 0.000000e+00 -1.085062e-04 9.051731e-05 0.000000e+00 0.000000e+00 0.000000e+00 0.000000e+00 1.356656e-04 -3.096842e-05 0.000000e+00 -3.096842e-05 -4.207120e-04 0.000000e+00 0.000000e+00 0.000000e+00 0.000000e+00 -1.658600e-07 1.139446e-04 0.000000e+00 1.139446e-04 1.532948e-05 0.000000e+00 0.000000e+00 0.000000e+00 0.000000e+00 2.826623e-04 -1.508398e-04 0.000000e+00 -1.508398e-04 1.401854e-04 0.000000e+00 0.000000e+00 0.000000e+00 0.000000e+00 2.423059e-04 -1.001146e-04 0.000000e+00 -1.001146e-04 7.588484e-05 0.000000e+00 0.000000e+00 0.000000e+00 0.000000e+00 9.345689e-05 -1.769859e-04 0.000000e+00 -1.769859e-04 1.245842e-04 0.000000e+00 0.000000e+00 0.000000e+00 0.000000e+00 1.227433e-05 -1.486658e-04 0.000000e+00 -1.486658e-04 3.033736e-04 0.000000e+00 0.000000e+00 0.000000e+00 0.000000e+00 -9.730183e-05 1.628223e-05 0.000000e+00 1.628223e-05 1.822116e-04 0.000000e+00 0.000000e+00 0.000000e+00 0.000000e+00 -5.775995e-05 6.310100e-05 0.000000e+00 6.310100e-05 1.104539e-04 0.000000e+00 0.000000e+00 0.000000e+00 0.000000e+00 -8.637668e-05 -9.716941e-06 0.000000e+00 -9.716941e-06 1.375365e-04 0.000000e+00 0.000000e+00 0.000000e+00 0.000000e+00 1.093008e-04 -1.271547e-04 0.000000e+00 -1.271547e-04 -2.114393e-04 0.000000e+00 0.000000e+00 0.000000e+00 0.000000e+00 1.233504e-04 -5.261611e-05 0.000000e+00 -5.261611e-05 -4.947520e-04 0.000000e+00 0.000000e+00 0.000000e+00 0.000000e+00 -8.519441e-05 -8.189061e-05 0.000000e+00 -8.189061e-05 1.353092e-04 0.000000e+00 0.000000e+00 0.000000e+00 0.000000e+00 2.025727e-04 -1.038311e-04 0.000000e+00 -1.038311e-04 1.736076e-05 0.000000e+00 0.000000e+00 0.000000e+00 0.000000e+00 2.155320e-04 -1.181917e-04 0.000000e+00 -1.181917e-04 3.093184e-05 0.000000e+00 0.000000e+00 0.000000e+00 0.000000e+00 1.320553e-04 -5.977002e-05 0.000000e+00 -5.977002e-05 -2.144538e-04 0.000000e+00 0.000000e+00 0.000000e+00 0.000000e+00 7.535900e-05 2.269053e-04 0.000000e+00 2.269053e-04 2.660083e-04 0.000000e+00 0.000000e+00 0.000000e+00 0.000000e+00 5.858779e-05 1.718263e-04 0.000000e+00 1.718263e-04 2.073147e-04 0.000000e+00 0.000000e+00 0.000000e+00 0.000000e+00 1.464701e-05 1.299506e-04 0.000000e+00 1.299506e-04 2.804459e-05 0.000000e+00 0.000000e+00 0.000000e+00 0.000000e+00 4.293408e-05 1.198267e-05 0.000000e+00 1.198267e-05 5.911590e-04 0.000000e+00 0.000000e+00 0.000000e+00 0.000000e+00 8.372802e-05 -9.275482e-05 0.000000e+00 -9.275482e-05 -2.117149e-04 0.000000e+00 0.000000e+00 0.000000e+00 0.000000e+00 2.547229e-04 -1.376119e-04 0.000000e+00 -1.376119e-04 8.015185e-05 0.000000e+00 0.000000e+00 0.000000e+00 0.000000e+00 1.596567e-04 -5.408734e-05 0.000000e+00 -5.408734e-05 -1.275863e-04 0.000000e+00 0.000000e+00 0.000000e+00 0.000000e+00 2.650649e-04 -1.907183e-04 0.000000e+00 -1.907183e-04 5.454885e-04 0.000000e+00 0.000000e+00 0.000000e+00 0.000000e+00 1.294185e-04 -1.477936e-04 0.000000e+00 -1.477936e-04 6.707542e-04 0.000000e+00 0.000000e+00 0.000000e+00 0.000000e+00 1.745921e-04 -9.023449e-05 0.000000e+00 -9.023449e-05 -8.002100e-05 0.000000e+00 0.000000e+00 0.000000e+00 0.000000e+00 3.179083e-04 -2.106162e-04 0.000000e+00 -2.106162e-04 4.504789e-04 0.000000e+00 0.000000e+00 0.000000e+00 0.000000e+00 1.864888e-04 -1.655262e-04 0.000000e+00 -1.655262e-04 5.375185e-04 0.000000e+00 0.000000e+00 0.000000e+00 0.000000e+00 7.061401e-05 1.092684e-04 0.000000e+00 1.092684e-04 -1.035025e-05 0.000000e+00 0.000000e+00 0.000000e+00 0.000000e+00 4.802125e-05 1.292591e-04 0.000000e+00 1.292591e-04 1.155969e-05 0.000000e+00 0.000000e+00 0.000000e+00 0.000000e+00 8.805435e-06 6.435079e-05 0.000000e+00 6.435079e-05 6.728089e-04 0.000000e+00 0.000000e+00 0.000000e+00 0.000000e+00 9.515546e-05 -1.519791e-04 0.000000e+00 -1.519791e-04 -1.543010e-04 0.000000e+00 0.000000e+00 0.000000e+00 0.000000e+00 1.433781e-05 1.412534e-04 0.000000e+00 1.412534e-04 5.548616e-04 0.000000e+00 0.000000e+00 0.000000e+00 0.000000e+00 -4.559983e-06 -1.855237e-04 0.000000e+00 -1.855237e-04 -1.273699e-05 0.000000e+00 0.000000e+00 0.000000e+00 0.000000e+00 2.428610e-04 -1.781148e-04 0.000000e+00 -1.781148e-04 4.378018e-04 0.000000e+00 0.000000e+00 0.000000e+00 0.000000e+00 2.254935e-05 -1.703103e-04 0.000000e+00 -1.703103e-04 -5.372279e-05 0.000000e+00 0.000000e+00 0.000000e+00 0.000000e+00 1.352246e-04 -6.304115e-05 0.000000e+00 -6.304115e-05 -1.782084e-04 0.000000e+00 0.000000e+00 0.000000e+00 0.000000e+00 2.571937e-04 -2.024527e-04 0.000000e+00 -2.024527e-04 3.022239e-04 0.000000e+00 0.000000e+00 0.000000e+00 0.000000e+00 -8.069591e-06 -1.736001e-04 0.000000e+00 -1.736001e-04 -1.319992e-05 0.000000e+00 0.000000e+00 0.000000e+00 0.000000e+00 6.718963e-05 -1.763799e-04 0.000000e+00 -1.763799e-04 -1.090575e-04 0.000000e+00 0.000000e+00 0.000000e+00 0.000000e+00 1.751886e-04 -9.415851e-05 0.000000e+00 -9.415851e-05 -3.939879e-05 0.000000e+00 0.000000e+00 0.000000e+00 0.000000e+00 1.210754e-04 1.741685e-04 0.000000e+00 1.741685e-04 8.315248e-05 0.000000e+00 0.000000e+00 0.000000e+00 0.000000e+00 1.255158e-04 1.101339e-04 0.000000e+00 1.101339e-04 -1.822129e-05 0.000000e+00 0.000000e+00 0.000000e+00 0.000000e+00 -3.808549e-06 1.227958e-04 0.000000e+00 1.227958e-04 3.147229e-05 0.000000e+00 0.000000e+00 0.000000e+00 0.000000e+00 9.203670e-05 1.136699e-04 0.000000e+00 1.136699e-04 -6.537247e-06 0.000000e+00 0.000000e+00 0.000000e+00 0.000000e+00 1.445311e-04 -7.952387e-05 0.000000e+00 -7.952387e-05 -1.382843e-04 0.000000e+00 0.000000e+00 0.000000e+00 0.000000e+00 2.094497e-04 -1.064269e-04 0.000000e+00 -1.064269e-04 -1.525380e-05 0.000000e+00 0.000000e+00 0.000000e+00 0.000000e+00 1.905424e-04 -1.006322e-04 0.000000e+00 -1.006322e-04 -1.744720e-06 0.000000e+00 0.000000e+00 0.000000e+00 0.000000e+00 -8.637728e-05 -1.252066e-04 0.000000e+00 -1.252066e-04 1.631165e-04 0.000000e+00 0.000000e+00 0.000000e+00 0.000000e+00 2.641674e-04 -1.747912e-04 0.000000e+00 -1.747912e-04 2.082065e-04 0.000000e+00 0.000000e+00 0.000000e+00 0.000000e+00 9.215488e-05 -6.805258e-05 0.000000e+00 -6.805258e-05 -2.461945e-04 0.000000e+00 0.000000e+00 0.000000e+00 0.000000e+00 2.705582e-04 -1.478037e-04 0.000000e+00 -1.478037e-04 2.327878e-04 0.000000e+00 0.000000e+00 0.000000e+00 0.000000e+00 -8.044624e-05 -1.424699e-04 0.000000e+00 -1.424699e-04 6.206057e-05 0.000000e+00 0.000000e+00 0.000000e+00 0.000000e+00 -4.239197e-05 -1.644763e-04 0.000000e+00 -1.644763e-04 2.503498e-05 0.000000e+00 0.000000e+00 0.000000e+00 0.000000e+00 1.757584e-04 -9.786486e-05 0.000000e+00 -9.786486e-05 -5.917706e-05 0.000000e+00 0.000000e+00 0.000000e+00 0.000000e+00 1.798454e-04 -8.867827e-05 0.000000e+00 -8.867827e-05 -5.312363e-05 0.000000e+00 0.000000e+00 0.000000e+00 0.000000e+00 2.347452e-04 -1.400258e-04 0.000000e+00 -1.400258e-04 1.377471e-04 0.000000e+00 0.000000e+00 0.000000e+00 0.000000e+00 1.069374e-04 -4.679256e-05 0.000000e+00 -4.679256e-05 -2.325747e-04 0.000000e+00 0.000000e+00 0.000000e+00 0.000000e+00 1.274359e-04 -4.785782e-05 0.000000e+00 -4.785782e-05 -2.326739e-04 0.000000e+00 0.000000e+00 0.000000e+00 0.000000e+00 -3.622794e-05 -1.834563e-04 0.000000e+00 -1.834563e-04 5.248015e-05 0.000000e+00 0.000000e+00 0.000000e+00 0.000000e+00 2.211256e-04 -1.460912e-04 0.000000e+00 -1.460912e-04 1.890734e-04 0.000000e+00 0.000000e+00 0.000000e+00 0.000000e+00 1.106864e-04 -6.553164e-05 0.000000e+00 -6.553164e-05 -1.929066e-04 0.000000e+00 0.000000e+00 0.000000e+00 0.000000e+00 1.315260e-04 -7.422019e-05 0.000000e+00 -7.422019e-05 -1.914202e-04 0.000000e+00 0.000000e+00 0.000000e+00 0.000000e+00 5.388285e-05 -1.493749e-04 0.000000e+00 -1.493749e-04 -1.071809e-04 0.000000e+00 0.000000e+00 0.000000e+00 0.000000e+00 1.225480e-04 -5.688471e-05 0.000000e+00 -5.688471e-05 -2.442811e-04 0.000000e+00 0.000000e+00 0.000000e+00 0.000000e+00 1.405558e-04 -7.974272e-05 0.000000e+00 -7.974272e-05 -1.148686e-04 0.000000e+00 0.000000e+00 0.000000e+00 0.000000e+00 1.584065e-04 -8.584911e-05 0.000000e+00 -8.584911e-05 -6.615585e-05 0.000000e+00 0.000000e+00 0.000000e+00 0.000000e+00 1.410890e-05 1.319618e-04 0.000000e+00 1.319618e-04 3.964465e-04 0.000000e+00 0.000000e+00 0.000000e+00 0.000000e+00 2.190524e-05 1.729598e-04 0.000000e+00 1.729598e-04 4.249733e-04 0.000000e+00 0.000000e+00 0.000000e+00 0.000000e+00 1.905402e-04 -1.604844e-04 0.000000e+00 -1.604844e-04 3.427653e-04 0.000000e+00 0.000000e+00 0.000000e+00 0.000000e+00 2.404023e-04 -2.083525e-04 0.000000e+00 -2.083525e-04 3.887178e-04 0.000000e+00 0.000000e+00 0.000000e+00 0.000000e+00 6.742384e-05 -1.705912e-04 0.000000e+00 -1.705912e-04 4.851416e-05 0.000000e+00 0.000000e+00 0.000000e+00 0.000000e+00 1.996569e-04 -9.709688e-05 0.000000e+00 -9.709688e-05 -3.923591e-05 0.000000e+00 0.000000e+00 0.000000e+00 0.000000e+00 1.441171e-04 -6.997480e-05 0.000000e+00 -6.997480e-05 -1.286794e-04 0.000000e+00 0.000000e+00 0.000000e+00 0.000000e+00 -7.620133e-05 -1.572785e-04 0.000000e+00 -1.572785e-04 9.503572e-05 0.000000e+00 0.000000e+00 0.000000e+00 0.000000e+00 9.956071e-05 -5.180333e-05 0.000000e+00 -5.180333e-05 -2.452384e-04 0.000000e+00 0.000000e+00 0.000000e+00 0.000000e+00 1.721232e-04 -7.577535e-05 0.000000e+00 -7.577535e-05 -9.944386e-05 0.000000e+00 0.000000e+00 0.000000e+00 0.000000e+00 1.518288e-04 -7.761460e-05 0.000000e+00 -7.761460e-05 -9.960500e-05 0.000000e+00 0.000000e+00 0.000000e+00 0.000000e+00 1.481855e-04 -8.165175e-05 0.000000e+00 -8.165175e-05 -8.200942e-05 0.000000e+00 0.000000e+00 0.000000e+00 0.000000e+00 1.593506e-04 -7.315973e-05 0.000000e+00 -7.315973e-05 -1.127776e-04 0.000000e+00 0.000000e+00 0.000000e+00 0.000000e+00 -6.072214e-05 -1.395890e-04 0.000000e+00 -1.395890e-04 1.072132e-04 0.000000e+00 0.000000e+00 0.000000e+00 0.000000e+00 1.050808e-04 -1.235969e-04 0.000000e+00 -1.235969e-04 -1.850981e-04 0.000000e+00 0.000000e+00 0.000000e+00 0.000000e+00 7.132445e-06 8.846534e-05 0.000000e+00 8.846534e-05 4.987421e-04 0.000000e+00 0.000000e+00 0.000000e+00 0.000000e+00 1.645435e-04 -1.158705e-04 0.000000e+00 -1.158705e-04 -6.513471e-05 0.000000e+00 0.000000e+00 0.000000e+00 0.000000e+00 4.240543e-05 -1.927702e-04 0.000000e+00 -1.927702e-04 -3.934602e-05 0.000000e+00 0.000000e+00 0.000000e+00 0.000000e+00 1.792900e-06 1.132221e-04 0.000000e+00 1.132221e-04 2.855712e-05 0.000000e+00 0.000000e+00 0.000000e+00 0.000000e+00 7.827250e-05 -1.472620e-04 0.000000e+00 -1.472620e-04 -1.267263e-04 0.000000e+00 0.000000e+00 0.000000e+00 0.000000e+00 1.004527e-04 -1.128022e-04 0.000000e+00 -1.128022e-04 -1.762861e-04 0.000000e+00 0.000000e+00 0.000000e+00 0.000000e+00 2.455034e-04 -1.445323e-04 0.000000e+00 -1.445323e-04 1.161822e-04 0.000000e+00 0.000000e+00 0.000000e+00 0.000000e+00 1.246475e-04 -5.677716e-05 0.000000e+00 -5.677716e-05 -1.646328e-04 0.000000e+00 0.000000e+00 0.000000e+00 0.000000e+00 -1.818565e-05 -7.681744e-05 0.000000e+00 -7.681744e-05 3.207047e-04 0.000000e+00 0.000000e+00 0.000000e+00 0.000000e+00 7.434658e-07 -1.951827e-04 0.000000e+00 -1.951827e-04 8.268158e-06 0.000000e+00 0.000000e+00 0.000000e+00 0.000000e+00 -3.516618e-05 -1.714588e-04 0.000000e+00 -1.714588e-04 5.120544e-05 0.000000e+00 0.000000e+00 0.000000e+00 0.000000e+00 -3.640779e-06 -1.827888e-04 0.000000e+00 -1.827888e-04 1.763408e-05 0.000000e+00 0.000000e+00 0.000000e+00 0.000000e+00 9.756224e-05 -5.325220e-05 0.000000e+00 -5.325220e-05 -2.623027e-04 0.000000e+00 0.000000e+00 0.000000e+00 0.000000e+00 2.527276e-04 -1.155215e-04 0.000000e+00 -1.155215e-04 4.883397e-05 0.000000e+00 0.000000e+00 0.000000e+00 0.000000e+00 2.221856e-04 -1.152337e-04 0.000000e+00 -1.152337e-04 4.883589e-05 0.000000e+00 0.000000e+00 0.000000e+00 0.000000e+00 2.115463e-04 -1.255779e-04 0.000000e+00 -1.255779e-04 7.716212e-05 0.000000e+00 0.000000e+00 0.000000e+00 0.000000e+00 5.307061e-05 1.647604e-04 0.000000e+00 1.647604e-04 1.718410e-04 0.000000e+00 0.000000e+00 0.000000e+00 0.000000e+00 9.181585e-05 9.840820e-05 0.000000e+00 9.840820e-05 -2.136495e-05 0.000000e+00 0.000000e+00 0.000000e+00 0.000000e+00 -2.265373e-05 1.267503e-04 0.000000e+00 1.267503e-04 3.631234e-05 0.000000e+00 0.000000e+00 0.000000e+00 0.000000e+00 2.800601e-04 -1.640355e-04 0.000000e+00 -1.640355e-04 2.108324e-04 0.000000e+00 0.000000e+00 0.000000e+00 0.000000e+00 1.173082e-04 -9.372581e-05 0.000000e+00 -9.372581e-05 -2.276046e-04 0.000000e+00 0.000000e+00 0.000000e+00 0.000000e+00 2.042721e-04 -1.395954e-04 0.000000e+00 -1.395954e-04 1.157985e-04 0.000000e+00 0.000000e+00 0.000000e+00 0.000000e+00 2.621526e-06 -1.110339e-05 0.000000e+00 -1.110339e-05 5.774006e-04 0.000000e+00 0.000000e+00 0.000000e+00 0.000000e+00 1.914044e-04 -1.725307e-04 0.000000e+00 -1.725307e-04 1.719175e-04 0.000000e+00 0.000000e+00 0.000000e+00 0.000000e+00 8.635746e-05 1.195632e-04 0.000000e+00 1.195632e-04 -7.918930e-06 0.000000e+00 0.000000e+00 0.000000e+00 0.000000e+00 2.174581e-04 -1.638849e-04 0.000000e+00 -1.638849e-04 1.080799e-04 0.000000e+00 0.000000e+00 0.000000e+00 0.000000e+00 -8.560070e-05 -8.643788e-05 0.000000e+00 -8.643788e-05 2.234663e-04 0.000000e+00 0.000000e+00 0.000000e+00 0.000000e+00 1.101287e-04 -5.791971e-05 0.000000e+00 -5.791971e-05 -2.139155e-04 0.000000e+00 0.000000e+00 0.000000e+00 0.000000e+00 2.021040e-04 -1.707514e-04 0.000000e+00 -1.707514e-04 2.847640e-04 0.000000e+00 0.000000e+00 0.000000e+00 0.000000e+00 2.240104e-04 -7.327094e-05 0.000000e+00 -7.327094e-05 -3.158268e-05 0.000000e+00 0.000000e+00 0.000000e+00 0.000000e+00 1.252137e-04 -6.636587e-05 0.000000e+00 -6.636587e-05 -2.589009e-04 0.000000e+00 0.000000e+00 0.000000e+00 0.000000e+00 2.280872e-04 -1.705821e-04 0.000000e+00 -1.705821e-04 1.714076e-04 0.000000e+00 0.000000e+00 0.000000e+00 0.000000e+00 -1.710203e-05 1.104943e-04 0.000000e+00 1.104943e-04 8.645702e-05 0.000000e+00 0.000000e+00 0.000000e+00 0.000000e+00 6.189233e-05 -9.801523e-05 0.000000e+00 -9.801523e-05 6.311512e-04 0.000000e+00 0.000000e+00 0.000000e+00 0.000000e+00 4.407816e-05 -4.597499e-05 0.000000e+00 -4.597499e-05 4.836313e-04 0.000000e+00 0.000000e+00 0.000000e+00 0.000000e+00 2.056768e-04 -1.927828e-04 0.000000e+00 -1.927828e-04 2.594659e-04 0.000000e+00 0.000000e+00 0.000000e+00 0.000000e+00 7.034206e-05 -1.768412e-04 0.000000e+00 -1.768412e-04 -7.618038e-05 0.000000e+00 0.000000e+00 0.000000e+00 0.000000e+00 1.257260e-04 -1.054893e-04 0.000000e+00 -1.054893e-04 -1.132315e-04 0.000000e+00 0.000000e+00 0.000000e+00 0.000000e+00 1.136590e-04 -5.034441e-05 0.000000e+00 -5.034441e-05 -2.306984e-04 0.000000e+00 0.000000e+00 0.000000e+00 0.000000e+00 1.119371e-04 -7.767362e-05 0.000000e+00 -7.767362e-05 -2.157591e-04 0.000000e+00 0.000000e+00 0.000000e+00 0.000000e+00 1.951030e-04 -1.436243e-04 0.000000e+00 -1.436243e-04 3.592298e-05 0.000000e+00 0.000000e+00 0.000000e+00 0.000000e+00 8.798549e-05 -1.414803e-04 0.000000e+00 -1.414803e-04 -1.254587e-04 0.000000e+00 0.000000e+00 0.000000e+00 0.000000e+00 1.240716e-04 -6.915840e-05 0.000000e+00 -6.915840e-05 -1.416692e-04 0.000000e+00 0.000000e+00 0.000000e+00 0.000000e+00 -3.256396e-06 1.822223e-05 0.000000e+00 1.822223e-05 4.319446e-04 0.000000e+00 0.000000e+00 0.000000e+00 0.000000e+00 1.764668e-04 -1.522953e-04 0.000000e+00 -1.522953e-04 1.448453e-04 0.000000e+00 0.000000e+00 0.000000e+00 0.000000e+00 -6.322879e-05 -1.513028e-04 0.000000e+00 -1.513028e-04 6.755945e-05 0.000000e+00 0.000000e+00 0.000000e+00 0.000000e+00 1.535357e-04 -1.725458e-04 0.000000e+00 -1.725458e-04 2.520468e-04 0.000000e+00 0.000000e+00 0.000000e+00 0.000000e+00 1.550287e-04 -1.866728e-04 0.000000e+00 -1.866728e-04 2.228781e-04 0.000000e+00 0.000000e+00 0.000000e+00 0.000000e+00 1.463378e-04 -1.091307e-04 0.000000e+00 -1.091307e-04 -4.809176e-05 0.000000e+00 0.000000e+00 0.000000e+00 0.000000e+00 1.654632e-04 -1.245590e-04 0.000000e+00 -1.245590e-04 -3.831389e-05 0.000000e+00 0.000000e+00 0.000000e+00 0.000000e+00 1.017063e-04 -6.076503e-05 0.000000e+00 -6.076503e-05 -2.348632e-04 0.000000e+00 0.000000e+00 0.000000e+00 0.000000e+00 1.334788e-04 -9.633492e-05 0.000000e+00 -9.633492e-05 -9.240804e-05 0.000000e+00 0.000000e+00 0.000000e+00 0.000000e+00 1.645365e-04 -9.790182e-05 0.000000e+00 -9.790182e-05 -9.242883e-05 0.000000e+00 0.000000e+00 0.000000e+00 0.000000e+00 1.417650e-05 1.347971e-04 0.000000e+00 1.347971e-04 2.878365e-04 0.000000e+00 0.000000e+00 0.000000e+00 0.000000e+00 9.112440e-05 -1.957137e-04 0.000000e+00 -1.957137e-04 1.242388e-04 0.000000e+00 0.000000e+00 0.000000e+00 0.000000e+00 -6.070281e-05 -1.488694e-04 0.000000e+00 -1.488694e-04 1.754652e-04 0.000000e+00 0.000000e+00 0.000000e+00 0.000000e+00 1.808871e-05 1.327036e-04 0.000000e+00 1.327036e-04 4.129914e-05 0.000000e+00 0.000000e+00 0.000000e+00 0.000000e+00 4.528797e-05 1.162442e-04 0.000000e+00 1.162442e-04 1.068176e-05 0.000000e+00 0.000000e+00 0.000000e+00 0.000000e+00 2.472911e-04 -1.763865e-04 0.000000e+00 -1.763865e-04 3.886217e-04 0.000000e+00 0.000000e+00 0.000000e+00 0.000000e+00 9.290104e-05 1.147658e-04 0.000000e+00 1.147658e-04 -7.059908e-06 0.000000e+00 0.000000e+00 0.000000e+00 0.000000e+00 1.361701e-04 -1.029256e-04 0.000000e+00 -1.029256e-04 -6.989899e-05 0.000000e+00 0.000000e+00 0.000000e+00 0.000000e+00 9.438060e-05 -8.274346e-05 0.000000e+00 -8.274346e-05 -2.060045e-04 0.000000e+00 0.000000e+00 0.000000e+00 0.000000e+00 -2.148154e-05 4.612923e-05 0.000000e+00 4.612923e-05 4.874675e-04 0.000000e+00 0.000000e+00 0.000000e+00 0.000000e+00 1.777690e-04 -9.168984e-05 0.000000e+00 -9.168984e-05 -2.099889e-05 0.000000e+00 0.000000e+00 0.000000e+00 0.000000e+00 -3.823537e-05 1.083918e-04 0.000000e+00 1.083918e-04 2.824150e-05 0.000000e+00 0.000000e+00 0.000000e+00 0.000000e+00 2.252207e-04 -1.385695e-04 0.000000e+00 -1.385695e-04 6.240655e-05 0.000000e+00 0.000000e+00 0.000000e+00 0.000000e+00 2.246939e-04 -1.085889e-04 0.000000e+00 -1.085889e-04 3.348846e-05 0.000000e+00 0.000000e+00 0.000000e+00 0.000000e+00 -6.068780e-05 -1.115204e-04 0.000000e+00 -1.115204e-04 1.541314e-04 0.000000e+00 0.000000e+00 0.000000e+00 0.000000e+00 1.190081e-04 -1.066398e-04 0.000000e+00 -1.066398e-04 -1.416935e-04 0.000000e+00 0.000000e+00 0.000000e+00 0.000000e+00 3.904166e-05 1.346604e-04 0.000000e+00 1.346604e-04 4.032335e-05 0.000000e+00 0.000000e+00 0.000000e+00 0.000000e+00 6.115682e-05 1.350401e-04 0.000000e+00 1.350401e-04 2.819347e-05 0.000000e+00 0.000000e+00 0.000000e+00 0.000000e+00 -5.986153e-05 -1.662788e-04 0.000000e+00 -1.662788e-04 1.183682e-04 0.000000e+00 0.000000e+00 0.000000e+00 0.000000e+00 4.246253e-05 1.218565e-04 0.000000e+00 1.218565e-04 3.187973e-05 0.000000e+00 0.000000e+00 0.000000e+00 0.000000e+00 -5.607770e-05 7.950400e-05 0.000000e+00 7.950400e-05 1.925246e-04 0.000000e+00 0.000000e+00 0.000000e+00 0.000000e+00 1.503796e-04 -9.954427e-05 0.000000e+00 -9.954427e-05 -1.119198e-04 0.000000e+00 0.000000e+00 0.000000e+00 0.000000e+00 7.430013e-05 1.500090e-04 0.000000e+00 1.500090e-04 5.649011e-05 0.000000e+00 0.000000e+00 0.000000e+00 0.000000e+00 4.204339e-05 1.379931e-04 0.000000e+00 1.379931e-04 1.099700e-04 0.000000e+00 0.000000e+00 0.000000e+00 0.000000e+00 -2.501232e-05 -1.826073e-04 0.000000e+00 -1.826073e-04 6.115433e-05 0.000000e+00 0.000000e+00 0.000000e+00 0.000000e+00 1.761979e-04 -1.518715e-04 0.000000e+00 -1.518715e-04 1.046678e-04 0.000000e+00 0.000000e+00 0.000000e+00 0.000000e+00 6.256305e-05 1.611382e-04 0.000000e+00 1.611382e-04 1.122343e-04 0.000000e+00 0.000000e+00 0.000000e+00 0.000000e+00 1.544357e-04 -3.522281e-05 0.000000e+00 -3.522281e-05 -4.166587e-04 0.000000e+00 0.000000e+00 0.000000e+00 0.000000e+00 1.248088e-04 -7.550764e-05 0.000000e+00 -7.550764e-05 -2.153962e-04 0.000000e+00 0.000000e+00 0.000000e+00 0.000000e+00 1.256265e-04 -4.752084e-05 0.000000e+00 -4.752084e-05 -2.951898e-04 0.000000e+00 0.000000e+00 0.000000e+00 0.000000e+00 -1.631050e-05 9.669326e-05 0.000000e+00 9.669326e-05 1.143490e-04 0.000000e+00 0.000000e+00 0.000000e+00 0.000000e+00 1.908791e-04 -1.364646e-04 0.000000e+00 -1.364646e-04 1.014826e-05 0.000000e+00 0.000000e+00 0.000000e+00 0.000000e+00 1.705962e-04 -1.256379e-04 0.000000e+00 -1.256379e-04 2.289947e-05 0.000000e+00 0.000000e+00 0.000000e+00 0.000000e+00 -8.645568e-05 -3.072976e-06 0.000000e+00 -3.072976e-06 2.322951e-04 0.000000e+00 0.000000e+00 0.000000e+00 0.000000e+00 -5.726236e-05 4.539286e-05 0.000000e+00 4.539286e-05 1.577232e-04 0.000000e+00 0.000000e+00 0.000000e+00 0.000000e+00 -7.714636e-05 -3.934097e-05 0.000000e+00 -3.934097e-05 1.744314e-04 0.000000e+00 0.000000e+00 0.000000e+00 0.000000e+00 1.435143e-04 -2.117638e-05 0.000000e+00 -2.117638e-05 -4.296020e-04 0.000000e+00 0.000000e+00 0.000000e+00 0.000000e+00 1.360508e-04 -9.502589e-05 0.000000e+00 -9.502589e-05 -1.353876e-04 0.000000e+00 0.000000e+00 0.000000e+00 0.000000e+00 8.617257e-05 -1.577236e-04 0.000000e+00 -1.577236e-04 -8.410541e-05 0.000000e+00 0.000000e+00 0.000000e+00 0.000000e+00 1.845417e-04 -1.866090e-04 0.000000e+00 -1.866090e-04 5.098030e-04 0.000000e+00 0.000000e+00 0.000000e+00 0.000000e+00 -3.878829e-07 -6.790487e-05 0.000000e+00 -6.790487e-05 4.908235e-04 0.000000e+00 0.000000e+00 0.000000e+00 0.000000e+00 1.708056e-04 -1.874556e-04 0.000000e+00 -1.874556e-04 1.467872e-04 0.000000e+00 0.000000e+00 0.000000e+00 0.000000e+00 1.176660e-04 -1.624890e-04 0.000000e+00 -1.624890e-04 2.072959e-04 0.000000e+00 0.000000e+00 0.000000e+00 0.000000e+00 1.580616e-04 -1.135319e-04 0.000000e+00 -1.135319e-04 -2.775882e-05 0.000000e+00 0.000000e+00 0.000000e+00 0.000000e+00 1.514145e-04 -1.430715e-04 0.000000e+00 -1.430715e-04 -4.355840e-05 0.000000e+00 0.000000e+00 0.000000e+00 0.000000e+00 1.037538e-04 -9.516934e-05 0.000000e+00 -9.516934e-05 5.648669e-04 0.000000e+00 0.000000e+00 0.000000e+00 0.000000e+00 -2.658065e-05 -1.543506e-04 0.000000e+00 -1.543506e-04 1.149106e-04 0.000000e+00 0.000000e+00 0.000000e+00 0.000000e+00 1.858542e-04 -1.579509e-04 0.000000e+00 -1.579509e-04 8.006335e-05 0.000000e+00 0.000000e+00 0.000000e+00 0.000000e+00 9.611375e-05 -1.255183e-04 0.000000e+00 -1.255183e-04 -1.350234e-04 0.000000e+00 0.000000e+00 0.000000e+00 0.000000e+00 1.392239e-04 -1.669748e-04 0.000000e+00 -1.669748e-04 5.012964e-04 0.000000e+00 0.000000e+00 0.000000e+00 0.000000e+00 1.309688e-04 -8.403085e-05 0.000000e+00 -8.403085e-05 -1.651781e-04 0.000000e+00 0.000000e+00 0.000000e+00 0.000000e+00 1.148132e-04 -7.099797e-05 0.000000e+00 -7.099797e-05 -1.729470e-04 0.000000e+00 0.000000e+00 0.000000e+00 0.000000e+00 1.413817e-04 -7.523300e-05 0.000000e+00 -7.523300e-05 -1.598147e-04 0.000000e+00 0.000000e+00 0.000000e+00 0.000000e+00 1.524708e-05 -2.003947e-04 0.000000e+00 -2.003947e-04 3.154042e-05 0.000000e+00 0.000000e+00 0.000000e+00 0.000000e+00 1.985519e-04 -1.413626e-04 0.000000e+00 -1.413626e-04 6.252807e-05 0.000000e+00 0.000000e+00 0.000000e+00 0.000000e+00 1.965491e-04 -1.300245e-04 0.000000e+00 -1.300245e-04 4.088705e-05 0.000000e+00 0.000000e+00 0.000000e+00 0.000000e+00 1.517935e-04 -1.258261e-04 0.000000e+00 -1.258261e-04 -7.953685e-05 0.000000e+00 0.000000e+00 0.000000e+00 0.000000e+00 1.177953e-04 -1.162482e-04 0.000000e+00 -1.162482e-04 -8.177363e-05 0.000000e+00 0.000000e+00 0.000000e+00 0.000000e+00 5.874055e-05 1.709284e-04 0.000000e+00 1.709284e-04 1.749195e-04 0.000000e+00 0.000000e+00 0.000000e+00 0.000000e+00 1.626744e-04 -2.010272e-04 0.000000e+00 -2.010272e-04 3.916250e-04 0.000000e+00 0.000000e+00 0.000000e+00 0.000000e+00 1.632578e-04 -1.662694e-04 0.000000e+00 -1.662694e-04 7.927773e-05 0.000000e+00 0.000000e+00 0.000000e+00 0.000000e+00 1.209460e-04 -1.579357e-04 0.000000e+00 -1.579357e-04 3.472156e-04 0.000000e+00 0.000000e+00 0.000000e+00 0.000000e+00 1.186051e-04 -1.726836e-04 0.000000e+00 -1.726836e-04 3.114204e-04 0.000000e+00 0.000000e+00 0.000000e+00 0.000000e+00 1.275657e-04 -1.314695e-04 0.000000e+00 -1.314695e-04 4.101575e-04 0.000000e+00 0.000000e+00 0.000000e+00 0.000000e+00 -6.156837e-05 -1.162859e-04 0.000000e+00 -1.162859e-04 2.491365e-04 0.000000e+00 0.000000e+00 0.000000e+00 0.000000e+00 -2.193399e-05 6.354781e-05 0.000000e+00 6.354781e-05 3.857546e-04 0.000000e+00 0.000000e+00 0.000000e+00 0.000000e+00 3.410439e-05 -1.874713e-04 0.000000e+00 -1.874713e-04 -1.166758e-05 0.000000e+00 0.000000e+00 0.000000e+00 0.000000e+00 7.028497e-05 -1.660130e-04 0.000000e+00 -1.660130e-04 -7.214563e-05 0.000000e+00 0.000000e+00 0.000000e+00 0.000000e+00 6.848676e-05 -1.807726e-04 0.000000e+00 -1.807726e-04 -2.662071e-05 0.000000e+00 0.000000e+00 0.000000e+00 0.000000e+00 9.504101e-05 -1.490244e-04 0.000000e+00 -1.490244e-04 -8.276548e-05 0.000000e+00 0.000000e+00 0.000000e+00 0.000000e+00 -5.334772e-06 1.267064e-04 0.000000e+00 1.267064e-04 1.919337e-04 0.000000e+00 0.000000e+00 0.000000e+00 0.000000e+00 -1.812268e-05 9.967646e-05 0.000000e+00 9.967646e-05 1.787276e-04 0.000000e+00 0.000000e+00 0.000000e+00 0.000000e+00 -1.165710e-05 1.234234e-04 0.000000e+00 1.234234e-04 2.611850e-04 0.000000e+00 0.000000e+00 0.000000e+00 0.000000e+00 -5.608190e-05 5.845687e-05 0.000000e+00 5.845687e-05 2.572879e-04 0.000000e+00 0.000000e+00 0.000000e+00 0.000000e+00 1.736623e-04 -1.170104e-04 0.000000e+00 -1.170104e-04 -7.265461e-06 0.000000e+00 0.000000e+00 0.000000e+00 0.000000e+00 1.333444e-04 -1.700656e-04 0.000000e+00 -1.700656e-04 1.387232e-04 0.000000e+00 0.000000e+00 0.000000e+00 0.000000e+00 5.774090e-05 -1.539865e-04 0.000000e+00 -1.539865e-04 2.088587e-04 0.000000e+00 0.000000e+00 0.000000e+00 0.000000e+00 8.042714e-05 -1.629045e-04 0.000000e+00 -1.629045e-04 3.111269e-04 0.000000e+00 0.000000e+00 0.000000e+00 0.000000e+00 1.234795e-04 -1.252953e-04 0.000000e+00 -1.252953e-04 -5.339255e-05 0.000000e+00 0.000000e+00 0.000000e+00 0.000000e+00 1.210371e-04 -1.008182e-04 0.000000e+00 -1.008182e-04 -1.779475e-04 0.000000e+00 0.000000e+00 0.000000e+00 0.000000e+00 1.835288e-04 -1.307519e-04 0.000000e+00 -1.307519e-04 -1.719267e-05 0.000000e+00 0.000000e+00 0.000000e+00 0.000000e+00 5.872409e-05 -1.343384e-04 0.000000e+00 -1.343384e-04 5.159328e-04 0.000000e+00 0.000000e+00 0.000000e+00 0.000000e+00 -5.313432e-05 -7.866495e-05 0.000000e+00 -7.866495e-05 2.062595e-04 0.000000e+00 0.000000e+00 0.000000e+00 0.000000e+00 1.144165e-04 -1.222530e-04 0.000000e+00 -1.222530e-04 -1.344671e-04 0.000000e+00 0.000000e+00 0.000000e+00 0.000000e+00 1.536051e-04 -1.554101e-04 0.000000e+00 -1.554101e-04 -9.339951e-06 0.000000e+00 0.000000e+00 0.000000e+00 0.000000e+00 1.454327e-04 -6.880673e-05 0.000000e+00 -6.880673e-05 -1.596155e-04 0.000000e+00 0.000000e+00 0.000000e+00 0.000000e+00 1.282830e-04 -1.343394e-04 0.000000e+00 -1.343394e-04 -2.544208e-05 0.000000e+00 0.000000e+00 0.000000e+00 0.000000e+00 1.831168e-04 -1.833378e-05 0.000000e+00 -1.833378e-05 -5.231674e-04 0.000000e+00 0.000000e+00 0.000000e+00 0.000000e+00 -2.531192e-05 -1.726678e-04 0.000000e+00 -1.726678e-04 7.845318e-05 0.000000e+00 0.000000e+00 0.000000e+00 0.000000e+00 1.023481e-04 -8.042890e-05 0.000000e+00 -8.042890e-05 -1.851539e-04 0.000000e+00 0.000000e+00 0.000000e+00 0.000000e+00 -1.676169e-05 -1.526548e-04 0.000000e+00 -1.526548e-04 1.615883e-04 0.000000e+00 0.000000e+00 0.000000e+00 0.000000e+00 -2.837290e-05 -1.585253e-04 0.000000e+00 -1.585253e-04 1.692624e-04 0.000000e+00 0.000000e+00 0.000000e+00 0.000000e+00 1.475221e-04 -1.466008e-04 0.000000e+00 -1.466008e-04 5.605680e-05 0.000000e+00 0.000000e+00 0.000000e+00 0.000000e+00 4.078698e-05 -1.367588e-04 0.000000e+00 -1.367588e-04 4.198648e-04 0.000000e+00 0.000000e+00 0.000000e+00 0.000000e+00 3.372834e-05 1.239085e-04 0.000000e+00 1.239085e-04 6.465578e-05 0.000000e+00 0.000000e+00 0.000000e+00 0.000000e+00 -7.748571e-05 -3.725030e-05 0.000000e+00 -3.725030e-05 2.906132e-04 0.000000e+00 0.000000e+00 0.000000e+00 0.000000e+00 1.105072e-05 -1.833182e-04 0.000000e+00 -1.833182e-04 4.133462e-05 0.000000e+00 0.000000e+00 0.000000e+00 0.000000e+00 4.879230e-05 -1.925599e-04 0.000000e+00 -1.925599e-04 -1.015460e-05 0.000000e+00 0.000000e+00 0.000000e+00 0.000000e+00 -4.196724e-06 -4.686801e-05 0.000000e+00 -4.686801e-05 3.793462e-04 0.000000e+00 0.000000e+00 0.000000e+00 0.000000e+00 -3.427079e-05 -3.127120e-05 0.000000e+00 -3.127120e-05 4.290013e-04 0.000000e+00 0.000000e+00 0.000000e+00 0.000000e+00 4.403281e-05 -1.955152e-04 0.000000e+00 -1.955152e-04 3.047652e-05 0.000000e+00 0.000000e+00 0.000000e+00 0.000000e+00 8.182199e-05 -1.780128e-04 0.000000e+00 -1.780128e-04 -2.671129e-05 0.000000e+00 0.000000e+00 0.000000e+00 0.000000e+00 1.127841e-04 -1.074074e-04 0.000000e+00 -1.074074e-04 -1.815530e-04 0.000000e+00 0.000000e+00 0.000000e+00 0.000000e+00 1.381784e-04 -1.793105e-04 0.000000e+00 -1.793105e-04 1.133378e-04 0.000000e+00 0.000000e+00 0.000000e+00 0.000000e+00 -5.315972e-05 -8.031723e-05 0.000000e+00 -8.031723e-05 3.100488e-04 0.000000e+00 0.000000e+00 0.000000e+00 0.000000e+00 1.440220e-04 -1.391269e-04 0.000000e+00 -1.391269e-04 1.015748e-06 0.000000e+00 0.000000e+00 0.000000e+00 0.000000e+00 1.260612e-04 -9.618598e-05 0.000000e+00 -9.618598e-05 -1.783931e-04 0.000000e+00 0.000000e+00 0.000000e+00 0.000000e+00 1.358594e-04 -1.326357e-04 0.000000e+00 -1.326357e-04 -1.010865e-04 0.000000e+00 0.000000e+00 0.000000e+00 0.000000e+00 1.144081e-04 -1.911549e-04 0.000000e+00 -1.911549e-04 2.006771e-04 0.000000e+00 0.000000e+00 0.000000e+00 0.000000e+00 1.286654e-04 -1.797079e-04 0.000000e+00 -1.797079e-04 2.884135e-05 0.000000e+00 0.000000e+00 0.000000e+00 0.000000e+00 1.012331e-04 -1.303786e-04 0.000000e+00 -1.303786e-04 -6.718914e-05 0.000000e+00 0.000000e+00 0.000000e+00 0.000000e+00 9.916675e-05 -1.661290e-04 0.000000e+00 -1.661290e-04 -4.861378e-05 0.000000e+00 0.000000e+00 0.000000e+00 0.000000e+00 1.339390e-04 -1.524048e-04 0.000000e+00 -1.524048e-04 -5.460999e-05 0.000000e+00 0.000000e+00 0.000000e+00 0.000000e+00 1.373667e-04 -1.847367e-04 0.000000e+00 -1.847367e-04 7.017235e-05 0.000000e+00 0.000000e+00 0.000000e+00 0.000000e+00 1.079830e-04 -1.597741e-04 0.000000e+00 -1.597741e-04 1.017250e-04 0.000000e+00 0.000000e+00 0.000000e+00 0.000000e+00 3.982009e-05 -1.271245e-04 0.000000e+00 -1.271245e-04 3.302352e-04 0.000000e+00 0.000000e+00 0.000000e+00 0.000000e+00 -9.554758e-06 -1.039592e-04 0.000000e+00 -1.039592e-04 4.060551e-04 0.000000e+00 0.000000e+00 0.000000e+00 0.000000e+00 -2.338044e-05 4.397637e-05 0.000000e+00 4.397637e-05 3.321193e-04 0.000000e+00 0.000000e+00 0.000000e+00 0.000000e+00 -5.439121e-05 2.449842e-05 0.000000e+00 2.449842e-05 2.144019e-04 0.000000e+00 0.000000e+00 0.000000e+00 0.000000e+00 8.040121e-05 -1.730684e-04 0.000000e+00 -1.730684e-04 2.750232e-04 0.000000e+00 0.000000e+00 0.000000e+00 0.000000e+00 5.578034e-05 -1.556375e-04 0.000000e+00 -1.556375e-04 2.640485e-04 0.000000e+00 0.000000e+00 0.000000e+00 0.000000e+00 1.466255e-05 -1.354157e-04 0.000000e+00 -1.354157e-04 3.418502e-04 0.000000e+00 0.000000e+00 0.000000e+00 0.000000e+00 -1.503327e-05 -1.937249e-04 0.000000e+00 -1.937249e-04 1.102537e-04 0.000000e+00 0.000000e+00 0.000000e+00 0.000000e+00 1.340909e-04 -1.675135e-04 0.000000e+00 -1.675135e-04 -1.904742e-05 0.000000e+00 0.000000e+00 0.000000e+00 0.000000e+00 1.045225e-04 -1.494308e-04 0.000000e+00 -1.494308e-04 -2.857009e-05 0.000000e+00 0.000000e+00 0.000000e+00 0.000000e+00 1.022325e-04 -1.555515e-04 0.000000e+00 -1.555515e-04 7.991014e-06 0.000000e+00 0.000000e+00 0.000000e+00 0.000000e+00 -1.325097e-05 1.230668e-04 0.000000e+00 1.230668e-04 3.574750e-04 0.000000e+00 0.000000e+00 0.000000e+00 0.000000e+00 -5.010579e-05 2.249543e-05 0.000000e+00 2.249543e-05 3.761956e-04 0.000000e+00 0.000000e+00 0.000000e+00 0.000000e+00 -4.594119e-06 -1.729397e-04 0.000000e+00 -1.729397e-04 9.066779e-05 0.000000e+00 0.000000e+00 0.000000e+00 0.000000e+00 2.754896e-05 -2.038235e-04 0.000000e+00 -2.038235e-04 6.105956e-05 0.000000e+00 0.000000e+00 0.000000e+00 0.000000e+00 1.028952e-04 -1.902491e-04 0.000000e+00 -1.902491e-04 1.230534e-05 0.000000e+00 0.000000e+00 0.000000e+00 0.000000e+00 -4.409810e-05 -7.325001e-05 0.000000e+00 -7.325001e-05 2.897908e-04 0.000000e+00 0.000000e+00 0.000000e+00 0.000000e+00 -1.584537e-05 9.717838e-05 0.000000e+00 9.717838e-05 2.416049e-04 0.000000e+00 0.000000e+00 0.000000e+00 0.000000e+00 1.029388e-04 -1.276267e-04 0.000000e+00 -1.276267e-04 -1.015732e-04 0.000000e+00 0.000000e+00 0.000000e+00 0.000000e+00 7.500323e-06 1.393907e-04 0.000000e+00 1.393907e-04 1.191838e-04 0.000000e+00 0.000000e+00 0.000000e+00 0.000000e+00 9.226041e-05 -1.875301e-04 0.000000e+00 -1.875301e-04 1.712787e-04 0.000000e+00 0.000000e+00 0.000000e+00 0.000000e+00 8.620675e-05 -1.640474e-04 0.000000e+00 -1.640474e-04 1.746232e-04 0.000000e+00 0.000000e+00 0.000000e+00 0.000000e+00 1.663135e-05 -1.981839e-04 0.000000e+00 -1.981839e-04 1.178373e-04 0.000000e+00 0.000000e+00 0.000000e+00 0.000000e+00 -3.815954e-05 -1.089353e-05 0.000000e+00 -1.089353e-05 3.234111e-04 0.000000e+00 0.000000e+00 0.000000e+00 0.000000e+00 3.934083e-05 -1.779091e-04 0.000000e+00 -1.779091e-04 3.459904e-05 0.000000e+00 0.000000e+00 0.000000e+00 0.000000e+00 1.105632e-04 -1.591223e-04 0.000000e+00 -1.591223e-04 4.700910e-05 0.000000e+00 0.000000e+00 0.000000e+00 0.000000e+00 1.783541e-04 -1.592917e-04 0.000000e+00 -1.592917e-04 2.511300e-05 0.000000e+00 0.000000e+00 0.000000e+00 0.000000e+00 4.829896e-05 -9.791364e-05 0.000000e+00 -9.791364e-05 3.919831e-04 0.000000e+00 0.000000e+00 0.000000e+00 0.000000e+00 -4.452874e-05 -7.073895e-05 0.000000e+00 -7.073895e-05 3.672926e-04 0.000000e+00 0.000000e+00 0.000000e+00 0.000000e+00 4.562703e-07 -1.360715e-04 0.000000e+00 -1.360715e-04 2.081781e-04 0.000000e+00 0.000000e+00 0.000000e+00 0.000000e+00 1.152226e-04 -1.628655e-04 0.000000e+00 -1.628655e-04 -4.843569e-05 0.000000e+00 0.000000e+00 0.000000e+00 0.000000e+00 1.511978e-04 -1.530516e-04 0.000000e+00 -1.530516e-04 2.369954e-05 0.000000e+00 0.000000e+00 0.000000e+00 0.000000e+00 2.559147e-05 -1.690828e-04 0.000000e+00 -1.690828e-04 9.665261e-05 0.000000e+00 0.000000e+00 0.000000e+00 0.000000e+00 -1.788209e-05 -1.565257e-04 0.000000e+00 -1.565257e-04 2.325125e-04 0.000000e+00 0.000000e+00 0.000000e+00 0.000000e+00 5.615605e-05 -2.065234e-04 0.000000e+00 -2.065234e-04 7.810806e-05 0.000000e+00 0.000000e+00 0.000000e+00 0.000000e+00 -2.758111e-08 -1.373316e-04 0.000000e+00 -1.373316e-04 2.936046e-04 0.000000e+00 0.000000e+00 0.000000e+00 0.000000e+00 4.137835e-05 -1.984889e-04 0.000000e+00 -1.984889e-04 1.460394e-04 0.000000e+00 0.000000e+00 0.000000e+00 0.000000e+00 1.104831e-04 -9.150218e-05 0.000000e+00 -9.150218e-05 -1.526912e-04 0.000000e+00 0.000000e+00 0.000000e+00 0.000000e+00 7.437442e-05 -1.722772e-04 0.000000e+00 -1.722772e-04 2.622472e-06 0.000000e+00 0.000000e+00 0.000000e+00 0.000000e+00 -5.438643e-05 3.492429e-05 0.000000e+00 3.492429e-05 3.225950e-04 0.000000e+00 0.000000e+00 0.000000e+00 0.000000e+00   </DataArray>
  <DataArray type="Float64" Name="IST_PrincStressVector1" NumberOfComponents="3" format="ascii">9.983816e-01 -5.686924e-02 0.000000e+00 9.996477e-01 -2.654215e-02 0.000000e+00 9.997867e-01 -2.065471e-02 0.000000e+00 9.998007e-01 -1.996563e-02 0.000000e+00 9.997700e-01 -2.144411e-02 0.000000e+00 9.997174e-01 -2.377020e-02 0.000000e+00 9.997099e-01 -2.408457e-02 0.000000e+00 9.996441e-01 -2.667877e-02 0.000000e+00 9.995625e-01 -2.957646e-02 0.000000e+00 9.994552e-01 -3.300507e-02 0.000000e+00 9.993027e-01 -3.733678e-02 0.000000e+00 9.992348e-01 -3.911283e-02 0.000000e+00 9.990503e-01 -4.357133e-02 0.000000e+00 9.988706e-01 -4.751309e-02 0.000000e+00 9.987259e-01 -5.046359e-02 0.000000e+00 9.983131e-01 -5.805958e-02 0.000000e+00 9.977150e-01 -6.756353e-02 0.000000e+00 9.971408e-01 -7.556570e-02 0.000000e+00 9.968785e-01 -7.895157e-02 0.000000e+00 9.944634e-01 -1.050831e-01 0.000000e+00 9.909720e-01 -1.340693e-01 0.000000e+00 9.852330e-01 -1.712191e-01 0.000000e+00 9.654672e-01 -2.605246e-01 0.000000e+00 9.002880e-01 -4.352948e-01 0.000000e+00 6.911815e-01 -7.226812e-01 0.000000e+00 9.985825e-01 5.322665e-02 0.000000e+00 9.978205e-01 6.598702e-02 0.000000e+00 9.934847e-01 1.139659e-01 0.000000e+00 9.594375e-01 2.819215e-01 0.000000e+00 9.578633e-01 2.872243e-01 0.000000e+00 9.327660e-01 3.604824e-01 0.000000e+00 9.731838e-01 2.300290e-01 0.000000e+00 9.186342e-01 3.951090e-01 0.000000e+00 2.247741e-01 9.744109e-01 0.000000e+00 1.804105e-01 -9.835914e-01 0.000000e+00 7.177168e-01 -6.963351e-01 0.000000e+00 9.661163e-01 -2.581073e-01 0.000000e+00 9.910846e-01 1.332343e-01 0.000000e+00 6.347443e-01 7.727223e-01 0.000000e+00 9.813797e-02 9.951728e-01 0.000000e+00 2.435268e-01 -9.698942e-01 0.000000e+00 5.867605e-01 -8.097605e-01 0.000000e+00 6.345193e-01 -7.729071e-01 0.000000e+00 8.742268e-01 -4.855177e-01 0.000000e+00 9.825294e-01 -1.861074e-01 0.000000e+00 9.995927e-01 2.853931e-02 0.000000e+00 5.850730e-01 8.109807e-01 0.000000e+00 2.219338e-01 9.750617e-01 0.000000e+00 1.132571e-01 9.935657e-01 0.000000e+00 4.027245e-02 9.991887e-01 0.000000e+00 1.115358e-01 -9.937604e-01 0.000000e+00 3.247429e-01 -9.458023e-01 0.000000e+00 6.727030e-01 -7.399127e-01 0.000000e+00 4.134095e-01 -9.105452e-01 0.000000e+00 7.223933e-01 -6.914824e-01 0.000000e+00 9.304694e-01 -3.663696e-01 0.000000e+00 8.852763e-01 4.650655e-01 0.000000e+00 9.733048e-01 2.295163e-01 0.000000e+00 9.974414e-01 -7.148819e-02 0.000000e+00 9.178465e-01 -3.969356e-01 0.000000e+00 5.370639e-01 -8.435415e-01 0.000000e+00 1.843407e-01 9.828624e-01 0.000000e+00 4.585876e-01 8.886492e-01 0.000000e+00 5.959946e-01 8.029884e-01 0.000000e+00 6.657910e-01 7.461383e-01 0.000000e+00 7.438104e-01 6.683907e-01 0.000000e+00 7.804970e-01 6.251596e-01 0.000000e+00 7.991154e-01 6.011776e-01 0.000000e+00 7.994032e-01 6.007950e-01 0.000000e+00 7.775888e-01 6.287732e-01 0.000000e+00 7.370692e-01 6.758173e-01 0.000000e+00 6.913589e-01 7.225115e-01 0.000000e+00 6.823631e-01 7.310134e-01 0.000000e+00 7.064618e-01 7.077511e-01 0.000000e+00 7.506546e-01 6.606948e-01 0.000000e+00 7.993542e-01 6.008601e-01 0.000000e+00 8.463247e-01 5.326673e-01 0.000000e+00 9.023661e-01 4.309703e-01 0.000000e+00 9.542769e-01 2.989239e-01 0.000000e+00 9.912802e-01 1.317707e-01 0.000000e+00 9.861306e-01 1.659714e-01 0.000000e+00 7.856732e-01 6.186417e-01 0.000000e+00 7.447922e-01 6.672965e-01 0.000000e+00 8.026593e-01 5.964378e-01 0.000000e+00 8.336734e-01 -5.522577e-01 0.000000e+00 9.986091e-01 -5.272538e-02 0.000000e+00 9.993375e-01 -3.639375e-02 0.000000e+00 9.996913e-01 -2.484729e-02 0.000000e+00 9.999459e-01 -1.040420e-02 0.000000e+00 9.997522e-01 -2.226006e-02 0.000000e+00 9.999990e-01 -1.389600e-03 0.000000e+00 9.997924e-01 -2.037777e-02 0.000000e+00 9.997913e-01 -2.042894e-02 0.000000e+00 9.997241e-01 -2.349066e-02 0.000000e+00 1.000000e+00 1.844331e-04 0.000000e+00 9.999996e-01 -9.471603e-04 0.000000e+00 9.997182e-01 -2.373793e-02 0.000000e+00 9.996852e-01 -2.509079e-02 0.000000e+00 9.995989e-01 -2.832147e-02 0.000000e+00 9.994976e-01 -3.169377e-02 0.000000e+00 9.999662e-01 -8.220426e-03 0.000000e+00 9.999449e-01 -1.050124e-02 0.000000e+00 9.993793e-01 -3.522820e-02 0.000000e+00 9.992742e-01 -3.809421e-02 0.000000e+00 9.991584e-01 -4.101706e-02 0.000000e+00 9.998616e-01 -1.663707e-02 0.000000e+00 9.998374e-01 -1.803467e-02 0.000000e+00 9.989741e-01 -4.528592e-02 0.000000e+00 9.988199e-01 -4.856806e-02 0.000000e+00 9.985383e-01 -5.404928e-02 0.000000e+00 9.996878e-01 -2.498656e-02 0.000000e+00 9.996939e-01 -2.474263e-02 0.000000e+00 9.980310e-01 -6.272228e-02 0.000000e+00 9.995129e-01 -3.120874e-02 0.000000e+00 9.974253e-01 -7.171297e-02 0.000000e+00 9.969546e-01 -7.798429e-02 0.000000e+00 9.963720e-01 -8.510438e-02 0.000000e+00 9.991135e-01 -4.209695e-02 0.000000e+00 9.988307e-01 -4.834509e-02 0.000000e+00 9.929514e-01 -1.185222e-01 0.000000e+00 9.884712e-01 -1.514089e-01 0.000000e+00 9.792672e-01 -2.025728e-01 0.000000e+00 9.401396e-01 -3.407895e-01 0.000000e+00 9.675048e-01 -2.528526e-01 0.000000e+00 9.016522e-01 -4.324618e-01 0.000000e+00 8.300297e-01 -5.577192e-01 0.000000e+00 9.997198e-01 2.367257e-02 0.000000e+00 9.999767e-01 6.832655e-03 0.000000e+00 9.987870e-01 4.923978e-02 0.000000e+00 9.962111e-01 8.696857e-02 0.000000e+00 9.866974e-01 1.625677e-01 0.000000e+00 9.333632e-01 3.589335e-01 0.000000e+00 9.561004e-01 2.930393e-01 0.000000e+00 9.193778e-01 3.933758e-01 0.000000e+00 9.700392e-01 2.429485e-01 0.000000e+00 6.012711e-01 7.990451e-01 0.000000e+00 6.695043e-01 7.428082e-01 0.000000e+00 2.078853e-01 -9.781532e-01 0.000000e+00 4.197792e-03 9.999912e-01 0.000000e+00 3.904318e-01 -9.206319e-01 0.000000e+00 9.538703e-01 -3.002192e-01 0.000000e+00 9.988038e-01 -4.889779e-02 0.000000e+00 9.997917e-01 -2.041147e-02 0.000000e+00 9.377503e-01 3.473101e-01 0.000000e+00 2.687795e-01 9.632017e-01 0.000000e+00 3.951621e-02 -9.992189e-01 0.000000e+00 2.292888e-01 9.733584e-01 0.000000e+00 1.556670e-01 9.878096e-01 0.000000e+00 8.253947e-01 -5.645562e-01 0.000000e+00 5.843280e-01 8.115176e-01 0.000000e+00 9.346237e-01 3.556382e-01 0.000000e+00 4.114935e-01 9.114127e-01 0.000000e+00 3.394335e-01 9.406300e-01 0.000000e+00 1.714776e-01 9.851880e-01 0.000000e+00 7.574545e-02 9.971272e-01 0.000000e+00 1.631000e-01 -9.866095e-01 0.000000e+00 2.026266e-02 -9.997947e-01 0.000000e+00 2.414686e-01 -9.704086e-01 0.000000e+00 9.602629e-01 2.790972e-01 0.000000e+00 8.605792e-01 5.093167e-01 0.000000e+00 9.985058e-01 -5.464526e-02 0.000000e+00 9.137548e-01 -4.062661e-01 0.000000e+00 6.973594e-01 -7.167216e-01 0.000000e+00 2.181234e-01 -9.759212e-01 0.000000e+00 2.658528e-01 9.640136e-01 0.000000e+00 4.940288e-01 8.694455e-01 0.000000e+00 6.378663e-01 7.701471e-01 0.000000e+00 7.174271e-01 6.966336e-01 0.000000e+00 7.694500e-01 6.387071e-01 0.000000e+00 7.916180e-01 6.110163e-01 0.000000e+00 7.932359e-01 6.089145e-01 0.000000e+00 7.775146e-01 6.288649e-01 0.000000e+00 7.489954e-01 6.625752e-01 0.000000e+00 7.130907e-01 7.010718e-01 0.000000e+00 6.933233e-01 7.206267e-01 0.000000e+00 7.006547e-01 7.135005e-01 0.000000e+00 7.277959e-01 6.857938e-01 0.000000e+00 7.674546e-01 6.411033e-01 0.000000e+00 8.145375e-01 5.801110e-01 0.000000e+00 8.762406e-01 4.818739e-01 0.000000e+00 9.390950e-01 3.436577e-01 0.000000e+00 9.850953e-01 1.720095e-01 0.000000e+00 9.996196e-01 -2.757894e-02 0.000000e+00 9.996777e-01 2.538661e-02 0.000000e+00 7.721709e-01 6.354149e-01 0.000000e+00 7.675274e-01 6.410161e-01 0.000000e+00 7.319437e-02 9.973177e-01 0.000000e+00 9.999889e-01 -4.703463e-03 0.000000e+00 9.999997e-01 7.391900e-04 0.000000e+00 9.999995e-01 9.653784e-04 0.000000e+00 9.999939e-01 -3.484457e-03 0.000000e+00 9.999985e-01 -1.712272e-03 0.000000e+00 9.999908e-01 -4.287576e-03 0.000000e+00 9.999834e-01 -5.757344e-03 0.000000e+00 9.999330e-01 -1.157443e-02 0.000000e+00 9.999474e-01 -1.025686e-02 0.000000e+00 9.998941e-01 -1.454979e-02 0.000000e+00 9.998091e-01 -1.954002e-02 0.000000e+00 9.998153e-01 -1.921697e-02 0.000000e+00 9.997842e-01 -2.077520e-02 0.000000e+00 9.996458e-01 -2.661244e-02 0.000000e+00 9.993445e-01 -3.620206e-02 0.000000e+00 9.994149e-01 -3.420222e-02 0.000000e+00 9.977524e-01 -6.700917e-02 0.000000e+00 9.983162e-01 -5.800734e-02 0.000000e+00 9.969865e-01 -7.757493e-02 0.000000e+00 9.940193e-01 -1.092049e-01 0.000000e+00 3.706885e-01 -9.287573e-01 0.000000e+00 6.946444e-01 -7.193533e-01 0.000000e+00 9.985768e-01 5.333320e-02 0.000000e+00 9.969750e-01 7.772314e-02 0.000000e+00 9.918985e-01 1.270329e-01 0.000000e+00 9.711333e-01 2.385373e-01 0.000000e+00 9.352709e-01 3.539326e-01 0.000000e+00 5.099855e-02 -9.986987e-01 0.000000e+00 3.837965e-01 -9.234177e-01 0.000000e+00 9.643534e-01 2.646178e-01 0.000000e+00 7.071698e-01 7.070438e-01 0.000000e+00 3.378038e-03 -9.999943e-01 0.000000e+00 3.405956e-01 9.402099e-01 0.000000e+00 1.226689e-01 9.924477e-01 0.000000e+00 2.705977e-03 -9.999963e-01 0.000000e+00 9.657561e-01 -2.594517e-01 0.000000e+00 9.999741e-01 -7.195881e-03 0.000000e+00 9.865750e-01 -1.633091e-01 0.000000e+00 9.952241e-01 9.761640e-02 0.000000e+00 9.860286e-01 1.665763e-01 0.000000e+00 3.683043e-01 -9.297053e-01 0.000000e+00 1.000000e+00 2.461371e-04 0.000000e+00 9.999990e-01 1.448996e-03 0.000000e+00 9.999935e-01 -3.598225e-03 0.000000e+00 9.998723e-01 -1.598291e-02 0.000000e+00 9.997097e-01 -2.409587e-02 0.000000e+00 9.993999e-01 -3.463881e-02 0.000000e+00 9.993030e-01 -3.733034e-02 0.000000e+00 9.966249e-01 -8.208991e-02 0.000000e+00 9.978519e-01 6.550951e-02 0.000000e+00 9.648257e-01 2.628905e-01 0.000000e+00 3.356816e-01 9.419755e-01 0.000000e+00 8.563318e-01 5.164261e-01 0.000000e+00 2.815112e-01 9.595579e-01 0.000000e+00 7.066020e-02 9.975004e-01 0.000000e+00 9.992193e-01 -3.950759e-02 0.000000e+00 9.991766e-01 -4.057158e-02 0.000000e+00 9.983114e-01 -5.808933e-02 0.000000e+00 9.986401e-01 -5.213480e-02 0.000000e+00 9.991962e-01 -4.008610e-02 0.000000e+00 9.998732e-01 -1.592629e-02 0.000000e+00 9.985216e-01 -5.435644e-02 0.000000e+00 9.994905e-01 -3.191706e-02 0.000000e+00 9.994012e-01 -3.460259e-02 0.000000e+00 9.986636e-01 -5.168272e-02 0.000000e+00 9.995652e-01 -2.948745e-02 0.000000e+00 9.956447e-01 -9.322923e-02 0.000000e+00 9.961358e-01 -8.782631e-02 0.000000e+00 8.954135e-01 -4.452355e-01 0.000000e+00 9.958541e-01 -9.096512e-02 0.000000e+00 9.980090e-01 -6.307213e-02 0.000000e+00 9.976094e-01 -6.910525e-02 0.000000e+00 9.966270e-01 -8.206490e-02 0.000000e+00 9.981754e-01 -6.038023e-02 0.000000e+00 9.930549e-01 -1.176518e-01 0.000000e+00 9.925726e-01 -1.216537e-01 0.000000e+00 9.927902e-01 -1.198653e-01 0.000000e+00 9.956982e-01 -9.265620e-02 0.000000e+00 9.957632e-01 -9.195505e-02 0.000000e+00 9.937417e-01 -1.117026e-01 0.000000e+00 9.961827e-01 -8.729294e-02 0.000000e+00 9.884782e-01 -1.513630e-01 0.000000e+00 9.799308e-01 -1.993381e-01 0.000000e+00 9.846467e-01 -1.745590e-01 0.000000e+00 9.804071e-01 -1.969822e-01 0.000000e+00 9.880800e-01 -1.539415e-01 0.000000e+00 9.301272e-01 -3.672374e-01 0.000000e+00 9.527048e-01 -3.038973e-01 0.000000e+00 9.822104e-01 -1.877838e-01 0.000000e+00 9.887501e-01 -1.495768e-01 0.000000e+00 9.878845e-01 -1.551912e-01 0.000000e+00 9.408687e-01 -3.387715e-01 0.000000e+00 9.555913e-01 -2.946951e-01 0.000000e+00 9.471390e-01 -3.208236e-01 0.000000e+00 9.639265e-01 -2.661685e-01 0.000000e+00 9.650330e-01 -2.621284e-01 0.000000e+00 9.189724e-01 -3.943219e-01 0.000000e+00 9.428128e-01 -3.333228e-01 0.000000e+00 8.780573e-01 -4.785556e-01 0.000000e+00 9.814116e-01 1.919148e-01 0.000000e+00 4.443670e-01 -8.958448e-01 0.000000e+00 9.764037e-01 2.159534e-01 0.000000e+00 9.767447e-01 2.144058e-01 0.000000e+00 9.836234e-01 1.802360e-01 0.000000e+00 9.598707e-01 2.804431e-01 0.000000e+00 9.787594e-01 2.050122e-01 0.000000e+00 6.561771e-01 -7.546069e-01 0.000000e+00 2.532836e-01 -9.673921e-01 0.000000e+00 9.799569e-01 1.992098e-01 0.000000e+00 9.798261e-01 1.998519e-01 0.000000e+00 9.985943e-01 -5.300447e-02 0.000000e+00 8.606159e-01 5.092546e-01 0.000000e+00 9.606311e-01 2.778269e-01 0.000000e+00 8.910678e-01 4.538703e-01 0.000000e+00 8.902648e-01 4.554432e-01 0.000000e+00 3.830499e-01 -9.237276e-01 0.000000e+00 9.654766e-01 2.604896e-01 0.000000e+00 7.841473e-01 6.205748e-01 0.000000e+00 4.605095e-01 8.876548e-01 0.000000e+00 9.537748e-01 3.005223e-01 0.000000e+00 2.268474e-01 -9.739303e-01 0.000000e+00 5.386568e-01 -8.425253e-01 0.000000e+00 6.449103e-01 -7.642583e-01 0.000000e+00 9.989622e-01 -4.554768e-02 0.000000e+00 9.337092e-01 -3.580324e-01 0.000000e+00 9.997931e-01 -2.034159e-02 0.000000e+00 9.443171e-01 -3.290369e-01 0.000000e+00 9.732772e-01 2.296335e-01 0.000000e+00 4.808266e-01 8.768157e-01 0.000000e+00 5.707967e-03 -9.999837e-01 0.000000e+00 7.410002e-01 6.715048e-01 0.000000e+00 9.930105e-01 1.180261e-01 0.000000e+00 8.168260e-01 5.768841e-01 0.000000e+00 5.740502e-01 8.188201e-01 0.000000e+00 3.976196e-01 9.175504e-01 0.000000e+00 5.887020e-01 -8.083501e-01 0.000000e+00 9.605439e-01 -2.781284e-01 0.000000e+00 9.907108e-01 -1.359854e-01 0.000000e+00 2.301631e-01 9.731521e-01 0.000000e+00 1.944689e-01 -9.809087e-01 0.000000e+00 7.011648e-01 7.129992e-01 0.000000e+00 5.962622e-01 8.027897e-01 0.000000e+00 3.189979e-01 9.477554e-01 0.000000e+00 4.412392e-01 8.973895e-01 0.000000e+00 3.685637e-01 9.296025e-01 0.000000e+00 3.996328e-01 -9.166753e-01 0.000000e+00 8.805954e-01 -4.738690e-01 0.000000e+00 6.046851e-01 -7.964647e-01 0.000000e+00 9.036676e-01 -4.282347e-01 0.000000e+00 9.991801e-01 -4.048562e-02 0.000000e+00 9.997577e-01 -2.201066e-02 0.000000e+00 9.998751e-01 -1.580275e-02 0.000000e+00 9.866471e-01 -1.628724e-01 0.000000e+00 9.922132e-01 -1.245510e-01 0.000000e+00 9.904957e-01 -1.375440e-01 0.000000e+00 1.036770e-01 9.946110e-01 0.000000e+00 8.832140e-01 4.689702e-01 0.000000e+00 7.021189e-01 7.120597e-01 0.000000e+00 6.460383e-01 7.633050e-01 0.000000e+00 9.915380e-01 -1.298164e-01 0.000000e+00 9.220296e-01 3.871193e-01 0.000000e+00 9.978908e-01 -6.491502e-02 0.000000e+00 9.594873e-01 -2.817520e-01 0.000000e+00 7.999355e-01 -6.000860e-01 0.000000e+00 1.219725e-01 -9.925335e-01 0.000000e+00 4.590250e-01 8.884234e-01 0.000000e+00 7.000897e-01 7.140549e-01 0.000000e+00 7.483188e-01 6.633393e-01 0.000000e+00 7.835539e-01 6.213238e-01 0.000000e+00 8.141763e-01 5.806177e-01 0.000000e+00 7.548974e-01 6.558430e-01 0.000000e+00 6.653164e-01 7.465615e-01 0.000000e+00 6.658788e-01 7.460599e-01 0.000000e+00 6.951827e-01 7.188331e-01 0.000000e+00 7.349221e-01 6.781515e-01 0.000000e+00 8.375504e-01 5.463600e-01 0.000000e+00 8.977775e-01 4.404493e-01 0.000000e+00 9.498706e-01 3.126434e-01 0.000000e+00 8.517490e-01 5.239501e-01 0.000000e+00 7.255138e-01 6.882076e-01 0.000000e+00 9.599501e-01 2.801711e-01 0.000000e+00 9.151231e-01 4.031745e-01 0.000000e+00 9.572466e-01 2.892732e-01 0.000000e+00 7.853383e-01 -6.190668e-01 0.000000e+00 9.454123e-01 -3.258766e-01 0.000000e+00 7.737290e-01 6.335168e-01 0.000000e+00 9.966821e-01 -8.139304e-02 0.000000e+00 8.539170e-01 5.204093e-01 0.000000e+00 9.998740e-01 -1.587136e-02 0.000000e+00 9.989149e-01 -4.657234e-02 0.000000e+00 9.973505e-01 -7.274644e-02 0.000000e+00 9.950756e-01 -9.911874e-02 0.000000e+00 9.980580e-01 -6.229194e-02 0.000000e+00 7.949264e-01 -6.067059e-01 0.000000e+00 9.949552e-01 -1.003201e-01 0.000000e+00 9.916062e-01 -1.292948e-01 0.000000e+00 9.993727e-01 -3.541350e-02 0.000000e+00 9.875473e-01 -1.573224e-01 0.000000e+00 9.795747e-01 -2.010807e-01 0.000000e+00 3.086087e-01 9.511891e-01 0.000000e+00 9.829253e-01 1.840049e-01 0.000000e+00 1.352321e-02 9.999086e-01 0.000000e+00 9.753350e-01 2.207299e-01 0.000000e+00 9.700581e-01 2.428728e-01 0.000000e+00 8.996371e-01 4.366384e-01 0.000000e+00 7.975994e-01 -6.031875e-01 0.000000e+00 8.427137e-01 -5.383620e-01 0.000000e+00 9.705392e-01 2.409432e-01 0.000000e+00 9.224270e-01 3.861716e-01 0.000000e+00 2.817729e-01 9.594811e-01 0.000000e+00 1.219026e-01 9.925421e-01 0.000000e+00 9.587746e-01 2.841676e-01 0.000000e+00 9.430353e-01 3.326927e-01 0.000000e+00 7.730077e-01 6.343966e-01 0.000000e+00 5.483541e-01 8.362463e-01 0.000000e+00 1.759945e-01 9.843912e-01 0.000000e+00 2.877713e-02 -9.995859e-01 0.000000e+00 6.696092e-01 -7.427136e-01 0.000000e+00 9.736242e-01 -2.281576e-01 0.000000e+00 9.230409e-01 -3.847018e-01 0.000000e+00 5.107036e-01 8.597568e-01 0.000000e+00 9.990930e-01 -4.258202e-02 0.000000e+00 2.654420e-01 -9.641268e-01 0.000000e+00 7.616532e-01 6.479849e-01 0.000000e+00 9.998289e-01 -1.849804e-02 0.000000e+00 8.695124e-01 -4.939111e-01 0.000000e+00 9.997833e-01 -2.081734e-02 0.000000e+00 5.396894e-01 -8.418642e-01 0.000000e+00 7.411273e-01 -6.713645e-01 0.000000e+00 9.879273e-01 -1.549180e-01 0.000000e+00 8.316329e-01 5.553258e-01 0.000000e+00 9.990624e-01 -4.329440e-02 0.000000e+00 9.975799e-01 -6.952966e-02 0.000000e+00 6.952920e-01 7.187274e-01 0.000000e+00 7.533797e-01 6.575857e-01 0.000000e+00 7.293150e-01 6.841781e-01 0.000000e+00 9.913719e-01 1.310792e-01 0.000000e+00 9.733455e-01 2.293435e-01 0.000000e+00 9.436261e-01 3.310132e-01 0.000000e+00 8.776241e-01 4.793496e-01 0.000000e+00 7.446206e-01 6.674879e-01 0.000000e+00 7.800956e-01 6.256603e-01 0.000000e+00 7.035749e-01 7.106212e-01 0.000000e+00 6.691420e-01 7.431345e-01 0.000000e+00 6.807834e-01 7.324848e-01 0.000000e+00 6.724694e-01 7.401250e-01 0.000000e+00 7.215635e-01 6.923483e-01 0.000000e+00 7.012826e-01 7.128834e-01 0.000000e+00 7.925714e-01 6.097792e-01 0.000000e+00 7.953704e-01 6.061237e-01 0.000000e+00 8.097664e-01 5.867524e-01 0.000000e+00 8.084661e-01 5.885428e-01 0.000000e+00 7.848428e-01 6.196949e-01 0.000000e+00 7.230827e-01 6.907615e-01 0.000000e+00 4.481162e-01 8.939753e-01 0.000000e+00 6.290452e-01 7.773687e-01 0.000000e+00 5.987886e-01 8.009072e-01 0.000000e+00 2.277766e-02 -9.997406e-01 0.000000e+00 8.018325e-01 -5.975488e-01 0.000000e+00 6.922512e-01 -7.216567e-01 0.000000e+00 9.923261e-01 1.236483e-01 0.000000e+00 9.990535e-01 -4.349817e-02 0.000000e+00 6.373658e-01 7.705614e-01 0.000000e+00 8.103377e-01 5.859631e-01 0.000000e+00 7.615146e-01 6.481477e-01 0.000000e+00 6.872546e-01 7.264166e-01 0.000000e+00 8.033228e-01 5.955438e-01 0.000000e+00 9.990674e-01 -4.317795e-02 0.000000e+00 9.968204e-01 7.968063e-02 0.000000e+00 9.984183e-01 -5.622161e-02 0.000000e+00 9.991360e-01 -4.156032e-02 0.000000e+00 9.995854e-01 -2.879277e-02 0.000000e+00 9.987395e-01 -5.019351e-02 0.000000e+00 9.997242e-01 -2.348352e-02 0.000000e+00 9.996489e-01 -2.649562e-02 0.000000e+00 9.971515e-01 -7.542428e-02 0.000000e+00 9.986707e-01 -5.154406e-02 0.000000e+00 9.983825e-01 -5.685483e-02 0.000000e+00 9.943651e-01 -1.060093e-01 0.000000e+00 9.967749e-01 -8.024802e-02 0.000000e+00 9.964281e-01 -8.444544e-02 0.000000e+00 9.903323e-01 -1.387154e-01 0.000000e+00 9.940929e-01 -1.085327e-01 0.000000e+00 9.933391e-01 -1.152274e-01 0.000000e+00 9.749278e-01 -2.225216e-01 0.000000e+00 9.805669e-01 -1.961848e-01 0.000000e+00 9.734921e-01 -2.287207e-01 0.000000e+00 7.703012e-01 -6.376802e-01 0.000000e+00 6.675697e-01 -7.445473e-01 0.000000e+00 4.786639e-01 -8.779982e-01 0.000000e+00 6.032454e-01 7.975556e-01 0.000000e+00 6.479813e-01 7.616562e-01 0.000000e+00 3.749404e-02 -9.992969e-01 0.000000e+00 9.817262e-01 -1.902990e-01 0.000000e+00 9.997586e-01 -2.197224e-02 0.000000e+00 9.716236e-01 -2.365323e-01 0.000000e+00 3.122305e-01 9.500064e-01 0.000000e+00 1.618321e-01 9.868183e-01 0.000000e+00 7.806553e-01 6.249618e-01 0.000000e+00 8.167286e-01 -5.770220e-01 0.000000e+00 9.740240e-01 -2.264448e-01 0.000000e+00 9.492151e-01 -3.146278e-01 0.000000e+00 9.326902e-01 -3.606785e-01 0.000000e+00 9.483302e-01 -3.172850e-01 0.000000e+00 9.712859e-01 -2.379152e-01 0.000000e+00 9.854078e-01 -1.702103e-01 0.000000e+00 7.974804e-01 6.033448e-01 0.000000e+00 9.984177e-01 -5.623328e-02 0.000000e+00 9.902609e-01 -1.392238e-01 0.000000e+00 7.957797e-01 -6.055862e-01 0.000000e+00 9.083472e-01 -4.182169e-01 0.000000e+00 9.820738e-01 -1.884967e-01 0.000000e+00 1.235634e-01 9.923367e-01 0.000000e+00 9.439856e-01 -3.299866e-01 0.000000e+00 9.486676e-01 3.162749e-01 0.000000e+00 9.946689e-01 -1.031203e-01 0.000000e+00 9.383473e-01 3.456940e-01 0.000000e+00 9.456518e-01 3.251808e-01 0.000000e+00 8.894033e-01 4.571233e-01 0.000000e+00 9.538309e-01 3.003441e-01 0.000000e+00 1.451110e-01 9.894154e-01 0.000000e+00 9.548410e-01 2.971174e-01 0.000000e+00 9.504629e-01 3.108381e-01 0.000000e+00 9.500528e-01 3.120892e-01 0.000000e+00 9.150347e-01 4.033752e-01 0.000000e+00 9.331270e-01 3.595468e-01 0.000000e+00 2.958900e-01 -9.552220e-01 0.000000e+00 9.442169e-03 -9.999554e-01 0.000000e+00 9.519874e-01 3.061372e-01 0.000000e+00 9.509107e-01 3.094655e-01 0.000000e+00 7.998576e-01 6.001898e-01 0.000000e+00 5.882031e-01 8.087133e-01 0.000000e+00 2.115607e-01 -9.773649e-01 0.000000e+00 6.198236e-01 7.847412e-01 0.000000e+00 2.807414e-01 9.597834e-01 0.000000e+00 8.727994e-01 -4.880791e-01 0.000000e+00 2.807377e-01 9.597845e-01 0.000000e+00 9.976587e-01 -6.838886e-02 0.000000e+00 5.538548e-01 8.326133e-01 0.000000e+00 9.596606e-01 -2.811612e-01 0.000000e+00 9.965026e-01 -8.356235e-02 0.000000e+00 5.532434e-01 -8.330196e-01 0.000000e+00 9.971193e-01 7.584894e-02 0.000000e+00 4.102946e-01 -9.119531e-01 0.000000e+00 8.351403e-01 5.500370e-01 0.000000e+00 8.405776e-01 5.416911e-01 0.000000e+00 8.180800e-01 5.751044e-01 0.000000e+00 8.980470e-01 4.398995e-01 0.000000e+00 8.598180e-01 5.106006e-01 0.000000e+00 8.956562e-01 4.447471e-01 0.000000e+00 5.555698e-01 -8.314699e-01 0.000000e+00 7.555800e-01 6.550564e-01 0.000000e+00 6.595283e-01 7.516798e-01 0.000000e+00 7.789925e-01 6.270333e-01 0.000000e+00 6.361467e-01 -7.715682e-01 0.000000e+00 8.326486e-01 -5.538017e-01 0.000000e+00 9.256544e-01 -3.783702e-01 0.000000e+00 6.993272e-01 -7.148017e-01 0.000000e+00 6.551140e-01 -7.555301e-01 0.000000e+00 7.601667e-01 -6.497281e-01 0.000000e+00 8.339501e-01 5.518398e-01 0.000000e+00 8.186734e-01 5.742595e-01 0.000000e+00 7.169694e-01 6.971047e-01 0.000000e+00 7.338613e-01 6.792994e-01 0.000000e+00 6.876461e-01 7.260460e-01 0.000000e+00 6.290607e-01 7.773562e-01 0.000000e+00 6.375418e-01 7.704158e-01 0.000000e+00 6.376050e-01 7.703635e-01 0.000000e+00 6.365461e-01 7.712386e-01 0.000000e+00 7.057182e-01 7.084926e-01 0.000000e+00 8.249338e-01 5.652294e-01 0.000000e+00 8.883192e-01 4.592264e-01 0.000000e+00 6.068515e-01 -7.948152e-01 0.000000e+00 9.699264e-01 -2.433983e-01 0.000000e+00 7.070173e-01 7.071963e-01 0.000000e+00 9.404004e-01 -3.400692e-01 0.000000e+00 3.894892e-01 -9.210311e-01 0.000000e+00 3.881000e-01 -9.216173e-01 0.000000e+00 5.520717e-01 -8.337966e-01 0.000000e+00 9.995242e-01 -3.084473e-02 0.000000e+00 9.983111e-01 -5.809516e-02 0.000000e+00 9.709629e-01 -2.392301e-01 0.000000e+00 9.920185e-01 -1.260922e-01 0.000000e+00 9.937213e-01 -1.118836e-01 0.000000e+00 9.957577e-01 -9.201360e-02 0.000000e+00 9.971819e-01 -7.502148e-02 0.000000e+00 9.883382e-01 -1.522749e-01 0.000000e+00 9.506176e-01 -3.103645e-01 0.000000e+00 9.593903e-01 -2.820821e-01 0.000000e+00 9.334545e-01 -3.586957e-01 0.000000e+00 9.070228e-01 -4.210816e-01 0.000000e+00 3.576352e-01 9.338614e-01 0.000000e+00 5.328025e-01 -8.462396e-01 0.000000e+00 2.272197e-01 -9.738435e-01 0.000000e+00 9.281168e-01 3.722891e-01 0.000000e+00 8.482283e-01 -5.296307e-01 0.000000e+00 9.804858e-01 -1.965899e-01 0.000000e+00 9.583689e-01 -2.855328e-01 0.000000e+00 9.604504e-01 -2.784513e-01 0.000000e+00 8.788971e-01 4.770115e-01 0.000000e+00 9.893776e-01 -1.453681e-01 0.000000e+00 9.918907e-01 -1.270938e-01 0.000000e+00 8.579730e-01 -5.136947e-01 0.000000e+00 9.500359e-01 3.121407e-01 0.000000e+00 1.069773e-02 9.999428e-01 0.000000e+00 6.683662e-01 7.438324e-01 0.000000e+00 9.994363e-01 -3.357197e-02 0.000000e+00 9.981318e-01 -6.109735e-02 0.000000e+00 7.064647e-01 7.077483e-01 0.000000e+00 8.810388e-01 -4.730440e-01 0.000000e+00 8.783012e-01 -4.781078e-01 0.000000e+00 4.748360e-01 8.800743e-01 0.000000e+00 8.479943e-01 -5.300053e-01 0.000000e+00 5.885009e-01 8.084966e-01 0.000000e+00 9.988698e-01 -4.753060e-02 0.000000e+00 9.969732e-01 -7.774555e-02 0.000000e+00 9.643024e-01 -2.648033e-01 0.000000e+00 9.681250e-01 -2.504674e-01 0.000000e+00 9.814261e-01 1.918407e-01 0.000000e+00 8.210382e-01 5.708732e-01 0.000000e+00 9.483709e-01 -3.171634e-01 0.000000e+00 9.580808e-01 -2.864982e-01 0.000000e+00 9.594972e-01 -2.817183e-01 0.000000e+00 8.682827e-01 -4.960697e-01 0.000000e+00 8.483849e-01 5.293799e-01 0.000000e+00 8.558538e-01 5.172178e-01 0.000000e+00 8.342726e-01 5.513522e-01 0.000000e+00 6.949166e-01 7.190904e-01 0.000000e+00 3.934316e-01 9.193539e-01 0.000000e+00 9.842045e-01 -1.770352e-01 0.000000e+00 9.870072e-01 -1.606762e-01 0.000000e+00 9.680337e-01 -2.508201e-01 0.000000e+00 9.756626e-01 -2.192772e-01 0.000000e+00 9.739054e-01 -2.269541e-01 0.000000e+00 6.547872e-01 7.558133e-01 0.000000e+00 6.041202e-01 7.968932e-01 0.000000e+00 9.981960e-01 -6.003967e-02 0.000000e+00 9.965624e-01 -8.284554e-02 0.000000e+00 9.986551e-01 -5.184528e-02 0.000000e+00 9.942130e-01 -1.074272e-01 0.000000e+00 9.965000e-01 -8.359249e-02 0.000000e+00 9.981912e-01 -6.011927e-02 0.000000e+00 9.983345e-01 -5.769139e-02 0.000000e+00 7.210780e-01 6.928539e-01 0.000000e+00 6.638579e-01 7.478587e-01 0.000000e+00 7.808672e-01 6.246970e-01 0.000000e+00 9.296668e-01 3.684014e-01 0.000000e+00 7.822645e-01 6.229464e-01 0.000000e+00 7.225918e-02 -9.973859e-01 0.000000e+00 1.347979e-01 9.908731e-01 0.000000e+00 1.564625e-01 -9.876839e-01 0.000000e+00 9.991930e-01 -4.016662e-02 0.000000e+00 9.860553e-01 -1.664181e-01 0.000000e+00 9.797457e-01 -2.002456e-01 0.000000e+00 6.875451e-01 -7.261416e-01 0.000000e+00 7.671609e-01 -6.414547e-01 0.000000e+00 7.524278e-01 6.586747e-01 0.000000e+00 7.636967e-01 6.455753e-01 0.000000e+00 9.996471e-01 -2.656514e-02 0.000000e+00 9.993650e-01 -3.563078e-02 0.000000e+00 9.976505e-01 -6.850942e-02 0.000000e+00 6.991807e-01 7.149450e-01 0.000000e+00 6.972265e-01 7.168509e-01 0.000000e+00 9.945608e-01 -1.041579e-01 0.000000e+00 5.945770e-01 8.040387e-01 0.000000e+00 7.644531e-01 -6.446793e-01 0.000000e+00 9.985965e-01 -5.296276e-02 0.000000e+00 9.995978e-01 -2.836057e-02 0.000000e+00 8.837979e-01 4.678689e-01 0.000000e+00 9.616416e-01 2.743090e-01 0.000000e+00 9.809644e-01 -1.941876e-01 0.000000e+00 9.981601e-01 -6.063282e-02 0.000000e+00 9.993131e-01 -3.705715e-02 0.000000e+00 9.993480e-01 -3.610560e-02 0.000000e+00 9.966195e-01 -8.215556e-02 0.000000e+00 9.864879e-01 -1.638341e-01 0.000000e+00 9.804230e-01 -1.969027e-01 0.000000e+00 9.933524e-01 -1.151133e-01 0.000000e+00 9.891792e-01 -1.467121e-01 0.000000e+00 9.966563e-01 -8.170831e-02 0.000000e+00 6.658091e-01 7.461222e-01 0.000000e+00 5.727153e-01 8.197543e-01 0.000000e+00 5.768141e-01 8.168754e-01 0.000000e+00 4.844833e-01 8.748005e-01 0.000000e+00 9.899624e-01 -1.413312e-01 0.000000e+00 2.947126e-01 9.555859e-01 0.000000e+00 9.281045e-01 -3.723198e-01 0.000000e+00 9.560571e-01 -2.931807e-01 0.000000e+00 9.936689e-01 -1.123482e-01 0.000000e+00 9.078840e-01 4.192215e-01 0.000000e+00 9.882954e-01 -1.525522e-01 0.000000e+00 9.965305e-01 -8.322820e-02 0.000000e+00 9.911593e-01 -1.326772e-01 0.000000e+00 9.981913e-01 6.011792e-02 0.000000e+00 9.982587e-01 -5.898712e-02 0.000000e+00 9.967326e-01 -8.077160e-02 0.000000e+00 9.977574e-01 -6.693390e-02 0.000000e+00 9.939544e-01 -1.097935e-01 0.000000e+00 9.988906e-01 -4.709200e-02 0.000000e+00 9.999591e-01 -9.041463e-03 0.000000e+00 9.982129e-01 -5.975761e-02 0.000000e+00 9.998779e-01 1.562564e-02 0.000000e+00 9.864231e-01 -1.642237e-01 0.000000e+00 9.822342e-01 -1.876590e-01 0.000000e+00 9.905777e-01 -1.369517e-01 0.000000e+00 9.996884e-01 -2.496111e-02 0.000000e+00 9.991893e-01 -4.025775e-02 0.000000e+00 9.933944e-01 -1.147496e-01 0.000000e+00 9.962486e-01 -8.653784e-02 0.000000e+00 9.944022e-01 -1.056607e-01 0.000000e+00 9.864161e-01 -1.642661e-01 0.000000e+00 9.899293e-01 -1.415624e-01 0.000000e+00 9.882924e-01 -1.525714e-01 0.000000e+00 8.543918e-01 -5.196293e-01 0.000000e+00 3.073933e-01 9.515826e-01 0.000000e+00 9.902078e-01 -1.396013e-01 0.000000e+00 8.902945e-01 -4.553852e-01 0.000000e+00 9.759533e-01 -2.179796e-01 0.000000e+00 9.796601e-01 -2.006641e-01 0.000000e+00 9.771497e-01 -2.125523e-01 0.000000e+00 8.396694e-01 -5.430979e-01 0.000000e+00 6.738557e-01 -7.388629e-01 0.000000e+00 5.602420e-01 -8.283290e-01 0.000000e+00 4.109139e-01 -9.116742e-01 0.000000e+00 9.094358e-01 4.158444e-01 0.000000e+00 8.943073e-01 4.474532e-01 0.000000e+00 8.754940e-01 -4.832289e-01 0.000000e+00 5.679003e-01 -8.230974e-01 0.000000e+00 9.850880e-01 -1.720511e-01 0.000000e+00 9.994131e-01 -3.425641e-02 0.000000e+00 9.101416e-01 4.142973e-01 0.000000e+00 6.216406e-01 7.833026e-01 0.000000e+00 8.001154e-02 9.967939e-01 0.000000e+00 5.278948e-01 8.493098e-01 0.000000e+00 4.482243e-01 8.939211e-01 0.000000e+00 8.470798e-01 -5.314658e-01 0.000000e+00 8.066612e-01 -5.910142e-01 0.000000e+00 7.348259e-01 -6.782557e-01 0.000000e+00 3.984154e-01 9.172051e-01 0.000000e+00 8.394624e-01 5.434178e-01 0.000000e+00 9.974178e-01 -7.181765e-02 0.000000e+00 6.332832e-01 7.739202e-01 0.000000e+00 9.936332e-01 -1.126638e-01 0.000000e+00 9.999908e-01 -4.286833e-03 0.000000e+00 9.994504e-01 -3.315046e-02 0.000000e+00 8.257270e-01 5.640699e-01 0.000000e+00 4.800375e-01 8.772480e-01 0.000000e+00 8.009864e-01 5.986826e-01 0.000000e+00 9.969060e-01 -7.860270e-02 0.000000e+00 9.458046e-01 3.247363e-01 0.000000e+00 9.958338e-01 -9.118650e-02 0.000000e+00 9.915439e-01 -1.297720e-01 0.000000e+00 6.535247e-01 -7.569052e-01 0.000000e+00 7.315441e-01 -6.817942e-01 0.000000e+00 9.990527e-01 -4.351757e-02 0.000000e+00 7.165764e-01 6.975086e-01 0.000000e+00 9.974698e-01 -7.109202e-02 0.000000e+00 4.101108e-01 9.120357e-01 0.000000e+00 1.707043e-01 9.853223e-01 0.000000e+00 7.947201e-01 6.069761e-01 0.000000e+00 8.025285e-01 5.966138e-01 0.000000e+00 9.911442e-01 -1.327902e-01 0.000000e+00 8.914195e-01 4.531791e-01 0.000000e+00 8.889195e-01 4.580635e-01 0.000000e+00 9.932964e-01 -1.155951e-01 0.000000e+00 6.088572e-01 7.932799e-01 0.000000e+00 9.775679e-01 -2.106204e-01 0.000000e+00 9.993926e-01 -3.484958e-02 0.000000e+00 9.978177e-01 -6.602923e-02 0.000000e+00 5.451352e-01 8.383482e-01 0.000000e+00 5.309183e-01 8.474230e-01 0.000000e+00 9.921067e-01 -1.253965e-01 0.000000e+00 9.882211e-01 -1.530330e-01 0.000000e+00 3.675151e-01 9.300176e-01 0.000000e+00 8.709069e-01 -4.914480e-01 0.000000e+00 8.159711e-01 -5.780927e-01 0.000000e+00 3.501574e-01 9.366909e-01 0.000000e+00 2.676164e-01 9.635255e-01 0.000000e+00 4.283534e-01 9.036113e-01 0.000000e+00 9.173132e-01 -3.981664e-01 0.000000e+00 9.400448e-01 -3.410511e-01 0.000000e+00 2.248676e-01 -9.743893e-01 0.000000e+00 5.137298e-02 -9.986795e-01 0.000000e+00 9.785776e-01 -2.058783e-01 0.000000e+00 9.251981e-01 -3.794846e-01 0.000000e+00 8.425410e-01 5.386322e-01 0.000000e+00 8.650206e-01 5.017364e-01 0.000000e+00 8.592029e-01 5.116350e-01 0.000000e+00 8.068388e-01 5.907716e-01 0.000000e+00 9.817393e-01 -1.902313e-01 0.000000e+00 9.822437e-01 -1.876097e-01 0.000000e+00 4.905921e-01 8.713893e-01 0.000000e+00 7.374361e-01 6.754169e-01 0.000000e+00 7.307293e-01 6.826673e-01 0.000000e+00 9.297460e-01 3.682015e-01 0.000000e+00 7.359581e-01 -6.770271e-01 0.000000e+00 6.473880e-01 -7.621606e-01 0.000000e+00 7.077913e-01 -7.064216e-01 0.000000e+00 5.202441e-01 8.540176e-01 0.000000e+00 9.231029e-01 3.845531e-01 0.000000e+00 8.705694e-01 4.920457e-01 0.000000e+00 5.377995e-01 8.430728e-01 0.000000e+00 9.974083e-01 -7.194932e-02 0.000000e+00 5.865913e-01 8.098831e-01 0.000000e+00 7.831267e-01 -6.218622e-01 0.000000e+00 6.977486e-01 -7.163427e-01 0.000000e+00 8.089523e-01 -5.878743e-01 0.000000e+00 9.973063e-01 -7.335013e-02 0.000000e+00 9.986880e-01 -5.120854e-02 0.000000e+00 9.612015e-01 -2.758473e-01 0.000000e+00 8.651626e-01 5.014914e-01 0.000000e+00 9.319206e-01 -3.626623e-01 0.000000e+00 9.214519e-01 -3.884925e-01 0.000000e+00 9.988378e-01 -4.819839e-02 0.000000e+00 9.829144e-01 -1.840634e-01 0.000000e+00 9.846264e-01 -1.746737e-01 0.000000e+00 9.971042e-01 -7.604786e-02 0.000000e+00 9.932263e-01 -1.161958e-01 0.000000e+00 9.668482e-01 -2.553517e-01 0.000000e+00 9.925226e-01 -1.220609e-01 0.000000e+00 6.860606e-01 -7.275444e-01 0.000000e+00 9.124286e-01 4.092360e-01 0.000000e+00 9.841877e-01 -1.771288e-01 0.000000e+00 9.882055e-01 -1.531333e-01 0.000000e+00 9.168716e-01 3.991822e-01 0.000000e+00 9.945851e-01 -1.039253e-01 0.000000e+00 9.953502e-01 -9.632212e-02 0.000000e+00 9.949581e-01 -1.002917e-01 0.000000e+00 9.082297e-01 4.184720e-01 0.000000e+00 1.264401e-01 -9.919743e-01 0.000000e+00 9.622946e-01 -2.720094e-01 0.000000e+00 9.701304e-01 -2.425840e-01 0.000000e+00 9.699370e-01 -2.433560e-01 0.000000e+00 9.979577e-01 -6.387766e-02 0.000000e+00 9.327465e-01 3.605329e-01 0.000000e+00 7.372740e-01 6.755939e-01 0.000000e+00 9.994306e-01 -3.374066e-02 0.000000e+00 9.911160e-01 -1.330003e-01 0.000000e+00 8.738649e-01 4.861688e-01 0.000000e+00 9.951177e-01 -9.869482e-02 0.000000e+00 8.178839e-01 -5.753833e-01 0.000000e+00 8.308846e-01 -5.564448e-01 0.000000e+00 9.666064e-02 9.953174e-01 0.000000e+00 9.978563e-01 -6.544378e-02 0.000000e+00 9.926721e-01 -1.208393e-01 0.000000e+00 9.949254e-01 -1.006152e-01 0.000000e+00 9.685106e-01 -2.489725e-01 0.000000e+00 9.605632e-01 -2.780619e-01 0.000000e+00 8.164923e-01 5.773564e-01 0.000000e+00 2.563877e-01 -9.665740e-01 0.000000e+00 7.454280e-01 6.665862e-01 0.000000e+00 7.197012e-01 -6.942839e-01 0.000000e+00 9.729712e-01 -2.309263e-01 0.000000e+00 9.606550e-01 -2.777446e-01 0.000000e+00 9.993850e-01 3.506471e-02 0.000000e+00 3.377963e-01 -9.412193e-01 0.000000e+00 9.751851e-01 -2.213912e-01 0.000000e+00 9.728424e-01 -2.314686e-01 0.000000e+00 1.994991e-01 -9.798980e-01 0.000000e+00 9.143932e-01 4.048271e-01 0.000000e+00 9.915476e-01 -1.297433e-01 0.000000e+00 9.934717e-01 -1.140792e-01 0.000000e+00 9.897622e-01 -1.427264e-01 0.000000e+00 6.376467e-01 -7.703289e-01 0.000000e+00 9.472282e-01 -3.205601e-01 0.000000e+00 9.510109e-01 -3.091574e-01 0.000000e+00 9.157564e-01 -4.017340e-01 0.000000e+00 8.472644e-01 -5.311714e-01 0.000000e+00 8.721936e-01 4.891608e-01 0.000000e+00 8.663248e-01 -4.994810e-01 0.000000e+00 9.797111e-01 -2.004148e-01 0.000000e+00 4.842466e-02 9.988268e-01 0.000000e+00 9.856939e-01 -1.685452e-01 0.000000e+00 7.915348e-01 -6.111241e-01 0.000000e+00 9.931202e-01 -1.170991e-01 0.000000e+00 9.964264e-01 -8.446591e-02 0.000000e+00 9.955504e-01 -9.423031e-02 0.000000e+00 8.475821e-01 5.306642e-01 0.000000e+00 7.455915e-01 6.664032e-01 0.000000e+00 9.161570e-01 -4.008195e-01 0.000000e+00 9.720461e-01 -2.347900e-01 0.000000e+00 9.799139e-01 -1.994212e-01 0.000000e+00 9.356082e-01 -3.530401e-01 0.000000e+00 9.457966e-01 -3.247596e-01 0.000000e+00 9.438265e-01 -3.304416e-01 0.000000e+00 4.319711e-01 -9.018875e-01 0.000000e+00 8.906753e-01 4.546400e-01 0.000000e+00 7.954706e-01 6.059922e-01 0.000000e+00 7.674046e-01 6.411631e-01 0.000000e+00 7.974089e-01 6.034394e-01 0.000000e+00 9.843673e-01 -1.761280e-01 0.000000e+00 6.432960e-01 7.656176e-01 0.000000e+00 8.987748e-01 4.384106e-01 0.000000e+00 9.126019e-01 -4.088493e-01 0.000000e+00 9.522096e-01 -3.054455e-01 0.000000e+00 9.673480e-01 -2.534517e-01 0.000000e+00 9.137008e-01 -4.063876e-01 0.000000e+00 6.664911e-01 7.455129e-01 0.000000e+00 8.649699e-01 5.018238e-01 0.000000e+00 9.898934e-01 -1.418132e-01 0.000000e+00 5.711219e-01 -8.208653e-01 0.000000e+00 9.860692e-01 -1.663356e-01 0.000000e+00 7.492729e-01 6.622614e-01 0.000000e+00 8.970978e-01 -4.418320e-01 0.000000e+00 3.087176e-01 9.511537e-01 0.000000e+00 9.993151e-01 -3.700477e-02 0.000000e+00 8.926142e-01 -4.508213e-01 0.000000e+00 6.921364e-01 7.217667e-01 0.000000e+00 4.960372e-01 8.683013e-01 0.000000e+00 5.698856e-01 8.217240e-01 0.000000e+00 9.138065e-01 -4.061499e-01 0.000000e+00 9.984640e-01 -5.540418e-02 0.000000e+00 6.827011e-01 7.306978e-01 0.000000e+00 8.447036e-01 -5.352344e-01 0.000000e+00 9.053160e-01 -4.247386e-01 0.000000e+00 6.754261e-01 -7.374277e-01 0.000000e+00 3.875704e-01 -9.218401e-01 0.000000e+00 5.795813e-02 9.983190e-01 0.000000e+00 3.163029e-01 9.486583e-01 0.000000e+00 4.327403e-02 -9.990632e-01 0.000000e+00 9.443468e-01 -3.289516e-01 0.000000e+00 9.964474e-01 -8.421692e-02 0.000000e+00 3.140213e-01 -9.494159e-01 0.000000e+00 9.125827e-01 -4.088923e-01 0.000000e+00 8.987464e-01 -4.384688e-01 0.000000e+00 9.862372e-01 -1.653368e-01 0.000000e+00 5.534813e-01 8.328616e-01 0.000000e+00 5.490073e-01 8.358175e-01 0.000000e+00 6.886652e-01 7.250794e-01 0.000000e+00 2.184158e-02 9.997614e-01 0.000000e+00 9.609608e-01 -2.766846e-01 0.000000e+00 8.762497e-01 -4.818573e-01 0.000000e+00 9.838285e-01 -1.791130e-01 0.000000e+00 4.514812e-01 -8.922806e-01 0.000000e+00 2.473035e-01 -9.689381e-01 0.000000e+00 9.528499e-01 -3.034419e-01 0.000000e+00 5.915217e-01 -8.062891e-01 0.000000e+00 3.691171e-01 -9.293829e-01 0.000000e+00 8.207946e-01 5.712235e-01 0.000000e+00 7.548703e-01 6.558741e-01 0.000000e+00 9.558020e-02 9.954217e-01 0.000000e+00 9.039911e-01 -4.275512e-01 0.000000e+00 2.384825e-01 9.711468e-01 0.000000e+00 7.148539e-01 -6.992738e-01 0.000000e+00 5.098752e-01 -8.602484e-01 0.000000e+00 7.805479e-01 -6.250960e-01 0.000000e+00 9.817717e-01 -1.900642e-01 0.000000e+00 6.668844e-01 -7.451612e-01 0.000000e+00 7.123113e-01 -7.018637e-01 0.000000e+00 8.505716e-01 -5.258592e-01 0.000000e+00 9.358461e-01 -3.524089e-01 0.000000e+00 7.443886e-01 6.677466e-01 0.000000e+00 8.793441e-01 4.761868e-01 0.000000e+00 6.549058e-01 7.557105e-01 0.000000e+00 8.360058e-01 5.487206e-01 0.000000e+00 9.673735e-01 -2.533547e-01 0.000000e+00 9.289753e-01 -3.701418e-01 0.000000e+00 9.194556e-01 -3.931938e-01 0.000000e+00 3.835329e-01 -9.235272e-01 0.000000e+00 7.609424e-01 -6.488194e-01 0.000000e+00 9.817717e-01 -1.900642e-01 0.000000e+00 7.505804e-01 -6.607791e-01 0.000000e+00 5.256870e-01 -8.506780e-01 0.000000e+00 6.321393e-01 -7.748548e-01 0.000000e+00 9.402929e-01 -3.403664e-01 0.000000e+00 9.475411e-01 -3.196340e-01 0.000000e+00 8.146419e-01 -5.799643e-01 0.000000e+00 9.909707e-01 -1.340783e-01 0.000000e+00 9.915756e-01 -1.295296e-01 0.000000e+00 6.184665e-01 -7.858112e-01 0.000000e+00 7.446627e-01 -6.674410e-01 0.000000e+00 9.793108e-01 -2.023618e-01 0.000000e+00 9.768862e-01 -2.137602e-01 0.000000e+00 8.586481e-01 -5.125656e-01 0.000000e+00 9.887160e-01 -1.498020e-01 0.000000e+00 9.613088e-01 -2.754730e-01 0.000000e+00 9.472070e-01 -3.206227e-01 0.000000e+00 2.975158e-01 9.547169e-01 0.000000e+00 3.472362e-01 9.377777e-01 0.000000e+00 5.345480e-01 -8.451381e-01 0.000000e+00 5.764901e-01 -8.171041e-01 0.000000e+00 7.264086e-01 -6.872630e-01 0.000000e+00 9.423284e-01 -3.346897e-01 0.000000e+00 9.720458e-01 -2.347914e-01 0.000000e+00 5.108222e-01 -8.596864e-01 0.000000e+00 9.893681e-01 -1.454328e-01 0.000000e+00 9.677880e-01 -2.517665e-01 0.000000e+00 9.620034e-01 -2.730375e-01 0.000000e+00 9.527876e-01 -3.036375e-01 0.000000e+00 9.697309e-01 -2.441760e-01 0.000000e+00 4.922079e-01 -8.704777e-01 0.000000e+00 9.384129e-01 -3.455159e-01 0.000000e+00 1.718762e-01 9.851186e-01 0.000000e+00 9.230218e-01 -3.847475e-01 0.000000e+00 7.769916e-01 -6.295110e-01 0.000000e+00 6.643130e-01 7.474545e-01 0.000000e+00 8.863622e-01 -4.629926e-01 0.000000e+00 9.420932e-01 -3.353511e-01 0.000000e+00 8.391584e-01 -5.438871e-01 0.000000e+00 9.825609e-01 -1.859413e-01 0.000000e+00 2.112141e-01 -9.774398e-01 0.000000e+00 7.002598e-01 -7.138881e-01 0.000000e+00 6.147176e-01 -7.887473e-01 0.000000e+00 6.862591e-01 -7.273572e-01 0.000000e+00 9.896683e-01 -1.433757e-01 0.000000e+00 9.115043e-01 -4.112906e-01 0.000000e+00 8.947366e-01 -4.465942e-01 0.000000e+00 8.578389e-01 -5.139187e-01 0.000000e+00 5.748563e-01 8.182544e-01 0.000000e+00 8.655948e-01 5.007451e-01 0.000000e+00 6.218686e-01 7.831216e-01 0.000000e+00 7.766812e-01 -6.298938e-01 0.000000e+00 9.691815e-01 -2.463478e-01 0.000000e+00 8.068729e-01 -5.907251e-01 0.000000e+00 1.930687e-02 -9.998136e-01 0.000000e+00 7.267682e-01 -6.868829e-01 0.000000e+00 8.266733e-01 5.626822e-01 0.000000e+00 8.113398e-01 -5.845749e-01 0.000000e+00 2.522412e-01 -9.676644e-01 0.000000e+00 9.853023e-01 -1.708197e-01 0.000000e+00 6.183630e-01 -7.858926e-01 0.000000e+00 9.663146e-01 -2.573638e-01 0.000000e+00 9.861951e-01 -1.655874e-01 0.000000e+00 7.628530e-01 -6.465720e-01 0.000000e+00 5.365001e-01 8.439003e-01 0.000000e+00 1.650623e-01 -9.862832e-01 0.000000e+00 1.029254e-01 -9.946891e-01 0.000000e+00 6.564415e-01 -7.543769e-01 0.000000e+00 8.314846e-01 -5.555478e-01 0.000000e+00 9.353153e-01 -3.538152e-01 0.000000e+00 9.899019e-01 -1.417541e-01 0.000000e+00 9.756041e-01 -2.195372e-01 0.000000e+00 8.615991e-01 -5.075894e-01 0.000000e+00 8.950440e-01 -4.459778e-01 0.000000e+00 9.713488e-01 -2.376584e-01 0.000000e+00 4.176122e-02 9.991276e-01 0.000000e+00 7.427185e-01 -6.696038e-01 0.000000e+00 5.492100e-01 -8.356844e-01 0.000000e+00 6.022880e-01 -7.982788e-01 0.000000e+00 6.407789e-01 -7.677255e-01 0.000000e+00 9.124596e-01 -4.091668e-01 0.000000e+00 9.036456e-01 -4.282810e-01 0.000000e+00 9.850284e-01 -1.723922e-01 0.000000e+00 9.383047e-01 -3.458097e-01 0.000000e+00 9.474706e-01 -3.198428e-01 0.000000e+00 3.792235e-01 9.253051e-01 0.000000e+00 6.766469e-01 -7.363076e-01 0.000000e+00 4.350611e-01 -9.004009e-01 0.000000e+00 6.756036e-01 7.372651e-01 0.000000e+00 7.573735e-01 6.529819e-01 0.000000e+00 5.604048e-01 -8.282189e-01 0.000000e+00 8.364445e-01 5.480516e-01 0.000000e+00 9.239807e-01 -3.824392e-01 0.000000e+00 9.684722e-01 -2.491215e-01 0.000000e+00 8.954253e-02 9.959830e-01 0.000000e+00 9.313927e-01 -3.640160e-01 0.000000e+00 5.944846e-01 8.041070e-01 0.000000e+00 8.679106e-01 -4.967205e-01 0.000000e+00 9.112632e-01 -4.118245e-01 0.000000e+00 3.913392e-01 -9.202465e-01 0.000000e+00 9.418038e-01 -3.361630e-01 0.000000e+00 7.054222e-01 7.087873e-01 0.000000e+00 7.487160e-01 6.628909e-01 0.000000e+00 5.136275e-01 -8.580133e-01 0.000000e+00 7.222819e-01 6.915988e-01 0.000000e+00 2.806943e-01 9.597972e-01 0.000000e+00 9.477713e-01 -3.189506e-01 0.000000e+00 7.277564e-01 6.858357e-01 0.000000e+00 6.168505e-01 7.870803e-01 0.000000e+00 6.206329e-01 -7.841013e-01 0.000000e+00 7.839723e-01 -6.207959e-01 0.000000e+00 6.510271e-01 7.590545e-01 0.000000e+00 9.981177e-01 -6.132750e-02 0.000000e+00 9.782632e-01 -2.073670e-01 0.000000e+00 9.938389e-01 -1.108338e-01 0.000000e+00 4.691287e-01 8.831298e-01 0.000000e+00 8.809407e-01 -4.732267e-01 0.000000e+00 8.679669e-01 -4.966221e-01 0.000000e+00 9.639343e-03 -9.999535e-01 0.000000e+00 1.984591e-01 9.801092e-01 0.000000e+00 1.509786e-01 -9.885370e-01 0.000000e+00 9.993199e-01 -3.687413e-02 0.000000e+00 9.537212e-01 -3.006923e-01 0.000000e+00 8.587816e-01 -5.123419e-01 0.000000e+00 4.141190e-01 -9.102228e-01 0.000000e+00 1.344619e-01 -9.909188e-01 0.000000e+00 7.293605e-01 -6.841296e-01 0.000000e+00 6.058564e-01 -7.955740e-01 0.000000e+00 9.036928e-01 -4.281814e-01 0.000000e+00 8.840506e-01 -4.673911e-01 0.000000e+00 1.944903e-01 -9.809044e-01 0.000000e+00 5.400637e-01 -8.416241e-01 0.000000e+00 8.116502e-01 -5.841438e-01 0.000000e+00 9.157914e-01 -4.016542e-01 0.000000e+00 3.639521e-01 -9.314177e-01 0.000000e+00 9.668798e-01 -2.552321e-01 0.000000e+00 9.738490e-01 -2.271964e-01 0.000000e+00 9.732893e-01 -2.295820e-01 0.000000e+00 6.925967e-01 -7.213250e-01 0.000000e+00 8.466253e-01 -5.321894e-01 0.000000e+00 8.699438e-01 -4.931509e-01 0.000000e+00 9.156298e-01 -4.020224e-01 0.000000e+00 9.086611e-01 -4.175344e-01 0.000000e+00 5.823346e-01 8.129492e-01 0.000000e+00 5.025717e-01 -8.645355e-01 0.000000e+00 7.889407e-01 -6.144694e-01 0.000000e+00 4.569790e-01 -8.894775e-01 0.000000e+00 5.062278e-01 -8.623998e-01 0.000000e+00 3.659882e-01 -9.306195e-01 0.000000e+00 3.157810e-01 -9.488321e-01 0.000000e+00 1.505250e-01 9.886062e-01 0.000000e+00 7.487248e-01 -6.628810e-01 0.000000e+00 8.349347e-01 -5.503490e-01 0.000000e+00 7.919606e-01 -6.105722e-01 0.000000e+00 8.695767e-01 -4.937979e-01 0.000000e+00 4.391643e-01 8.984068e-01 0.000000e+00 3.855994e-01 9.226663e-01 0.000000e+00 3.594790e-01 9.331532e-01 0.000000e+00 1.775985e-01 9.841030e-01 0.000000e+00 8.976763e-01 -4.406556e-01 0.000000e+00 7.014942e-01 -7.126752e-01 0.000000e+00 5.289087e-01 -8.486787e-01 0.000000e+00 4.594120e-01 -8.882233e-01 0.000000e+00 8.878766e-01 -4.600817e-01 0.000000e+00 9.563152e-01 -2.923374e-01 0.000000e+00 8.969061e-01 -4.422211e-01 0.000000e+00 2.625298e-01 -9.649239e-01 0.000000e+00 2.692394e-01 -9.630733e-01 0.000000e+00 9.255681e-01 -3.785813e-01 0.000000e+00 8.556598e-01 -5.175386e-01 0.000000e+00 9.776346e-01 -2.103106e-01 0.000000e+00 8.650469e-01 -5.016911e-01 0.000000e+00 9.996637e-01 -2.593188e-02 0.000000e+00 5.967553e-01 -8.024233e-01 0.000000e+00 9.676496e-01 -2.522981e-01 0.000000e+00 4.977931e-01 -8.672958e-01 0.000000e+00 4.852860e-01 -8.743555e-01 0.000000e+00 8.055433e-01 -5.925370e-01 0.000000e+00 3.074541e-01 -9.515629e-01 0.000000e+00 6.618766e-01 7.496128e-01 0.000000e+00 9.968185e-02 -9.950194e-01 0.000000e+00 6.773777e-01 -7.356354e-01 0.000000e+00 7.587157e-01 -6.514218e-01 0.000000e+00 1.195616e-01 -9.928268e-01 0.000000e+00 6.704475e-02 -9.977500e-01 0.000000e+00 7.192522e-01 -6.947491e-01 0.000000e+00 8.036163e-01 -5.951477e-01 0.000000e+00 9.507244e-01 -3.100372e-01 0.000000e+00 7.311298e-01 -6.822384e-01 0.000000e+00 2.067006e-01 -9.784042e-01 0.000000e+00 8.535532e-01 -5.210058e-01 0.000000e+00 9.605681e-01 -2.780447e-01 0.000000e+00 9.127339e-01 -4.085545e-01 0.000000e+00 6.244527e-01 -7.810626e-01 0.000000e+00 7.961187e-01 -6.051405e-01 0.000000e+00 8.782263e-01 -4.782452e-01 0.000000e+00 8.385677e-01 -5.447974e-01 0.000000e+00 8.735178e-01 -4.867921e-01 0.000000e+00 7.677664e-01 -6.407299e-01 0.000000e+00 7.139958e-01 -7.001500e-01 0.000000e+00 3.518506e-01 -9.360562e-01 0.000000e+00 2.298592e-01 -9.732239e-01 0.000000e+00 1.209708e-01 9.926561e-01 0.000000e+00 9.003042e-02 9.959390e-01 0.000000e+00 5.049216e-01 -8.631652e-01 0.000000e+00 4.711219e-01 -8.820681e-01 0.000000e+00 3.388729e-01 -9.408322e-01 0.000000e+00 5.883549e-01 -8.086028e-01 0.000000e+00 8.413447e-01 -5.404990e-01 0.000000e+00 8.386940e-01 -5.446029e-01 0.000000e+00 8.030930e-01 -5.958537e-01 0.000000e+00 2.888739e-01 9.573671e-01 0.000000e+00 5.255002e-02 9.986183e-01 0.000000e+00 6.059982e-01 -7.954660e-01 0.000000e+00 6.775217e-01 -7.355028e-01 0.000000e+00 7.847319e-01 -6.198353e-01 0.000000e+00 2.052679e-01 -9.787058e-01 0.000000e+00 3.177203e-01 9.481845e-01 0.000000e+00 9.014631e-01 -4.328560e-01 0.000000e+00 5.604100e-01 8.282153e-01 0.000000e+00 6.300174e-01 -7.765810e-01 0.000000e+00 6.081933e-01 -7.937890e-01 0.000000e+00 6.134345e-01 -7.897456e-01 0.000000e+00 3.008744e-02 -9.995473e-01 0.000000e+00 7.118024e-01 -7.023798e-01 0.000000e+00 7.732513e-01 -6.340997e-01 0.000000e+00 8.466017e-01 -5.322270e-01 0.000000e+00 2.560700e-01 -9.666582e-01 0.000000e+00 1.647011e-01 -9.863435e-01 0.000000e+00 4.434324e-01 -8.963078e-01 0.000000e+00 8.511618e-01 -5.249035e-01 0.000000e+00 8.320157e-01 -5.547520e-01 0.000000e+00 6.302199e-01 -7.764167e-01 0.000000e+00 4.332296e-01 -9.012836e-01 0.000000e+00 6.880873e-01 -7.256279e-01 0.000000e+00 3.672177e-01 -9.301350e-01 0.000000e+00 6.103551e-01 -7.921279e-01 0.000000e+00 9.542045e-01 -2.991550e-01 0.000000e+00 7.758453e-01 -6.309231e-01 0.000000e+00 9.147507e-02 9.958074e-01 0.000000e+00   </DataArray>
</PointData>
</Piece>
</UnstructuredGrid>
</VTKFile>
