<VTKFile type="UnstructuredGrid" version="0.1" byte_order="LittleEndian">
<UnstructuredGrid>
<Piece NumberOfPoints="1187" NumberOfCells="1187">
<Points>
 <DataArray type="Float64" NumberOfComponents="3" format="ascii"> -2.332000e-02 1.736043e-04 0.000000e+00 -2.232320e-02 1.539420e-04 0.000000e+00 -2.136317e-02 1.603477e-04 0.000000e+00 -2.040513e-02 1.642530e-04 0.000000e+00 -1.944433e-02 1.655560e-04 0.000000e+00 -1.848023e-02 1.652967e-04 0.000000e+00 -1.751903e-02 1.563843e-04 0.000000e+00 -1.656200e-02 1.559450e-04 0.000000e+00 -1.560550e-02 1.591977e-04 0.000000e+00 -1.464463e-02 1.630360e-04 0.000000e+00 -1.368757e-02 1.657183e-04 0.000000e+00 -1.272113e-02 1.614177e-04 0.000000e+00 -1.176670e-02 1.655930e-04 0.000000e+00 -1.080180e-02 1.615147e-04 0.000000e+00 -9.848193e-03 1.588433e-04 0.000000e+00 -8.875250e-03 1.613557e-04 0.000000e+00 -7.915243e-03 1.670577e-04 0.000000e+00 -6.956947e-03 1.640973e-04 0.000000e+00 -6.006427e-03 1.415340e-04 0.000000e+00 -5.035117e-03 1.576240e-04 0.000000e+00 -4.075140e-03 1.611887e-04 0.000000e+00 -3.122987e-03 1.483890e-04 0.000000e+00 -2.163810e-03 1.587610e-04 0.000000e+00 -1.195820e-03 1.744137e-04 0.000000e+00 -1.989733e-04 2.049480e-04 0.000000e+00 5.899183e-03 6.880700e-04 0.000000e+00 9.634380e-03 8.314163e-04 0.000000e+00 1.288147e-02 8.811043e-04 0.000000e+00 1.556457e-02 8.507557e-04 0.000000e+00 1.625697e-02 1.110600e-03 0.000000e+00 1.714523e-02 1.943163e-03 0.000000e+00 1.858460e-02 2.346393e-03 0.000000e+00 2.161180e-02 2.502910e-03 0.000000e+00 2.617350e-02 2.524113e-03 0.000000e+00 3.137873e-02 2.639627e-03 0.000000e+00 3.752137e-02 3.008683e-03 0.000000e+00 3.776597e-02 6.166347e-03 0.000000e+00 3.784643e-02 1.101230e-02 0.000000e+00 3.786090e-02 1.518913e-02 0.000000e+00 3.783230e-02 1.955867e-02 0.000000e+00 3.754713e-02 2.470217e-02 0.000000e+00 3.723927e-02 2.790707e-02 0.000000e+00 3.628640e-02 2.608390e-02 0.000000e+00 3.611833e-02 2.912723e-02 0.000000e+00 3.408643e-02 2.912723e-02 0.000000e+00 3.087660e-02 2.921273e-02 0.000000e+00 2.501827e-02 2.926087e-02 0.000000e+00 1.904280e-02 2.911593e-02 0.000000e+00 1.198477e-02 2.896897e-02 0.000000e+00 3.632203e-03 2.877927e-02 0.000000e+00 -6.986700e-03 2.871053e-02 0.000000e+00 -1.324537e-02 2.870067e-02 0.000000e+00 -1.980157e-02 2.827160e-02 0.000000e+00 -1.603787e-02 2.697227e-02 0.000000e+00 -2.214197e-02 2.605700e-02 0.000000e+00 -2.292793e-02 2.020170e-02 0.000000e+00 3.262367e-02 1.308173e-02 0.000000e+00 3.230910e-02 1.158190e-02 0.000000e+00 3.163363e-02 1.021931e-02 0.000000e+00 3.067930e-02 9.118857e-03 0.000000e+00 2.954320e-02 8.202103e-03 0.000000e+00 2.821697e-02 7.534673e-03 0.000000e+00 2.677307e-02 7.219233e-03 0.000000e+00 2.535023e-02 7.229130e-03 0.000000e+00 2.386283e-02 7.541663e-03 0.000000e+00 2.245127e-02 8.173457e-03 0.000000e+00 2.127943e-02 9.111423e-03 0.000000e+00 2.036480e-02 1.024937e-02 0.000000e+00 1.971930e-02 1.160353e-02 0.000000e+00 1.938457e-02 1.303760e-02 0.000000e+00 1.937697e-02 1.447027e-02 0.000000e+00 1.966720e-02 1.588373e-02 0.000000e+00 2.030720e-02 1.725297e-02 0.000000e+00 2.126137e-02 1.847507e-02 0.000000e+00 2.246777e-02 1.943387e-02 0.000000e+00 2.380200e-02 2.006090e-02 0.000000e+00 2.519913e-02 2.038260e-02 0.000000e+00 2.659083e-02 2.039017e-02 0.000000e+00 2.803923e-02 2.009040e-02 0.000000e+00 2.941547e-02 1.950650e-02 0.000000e+00 3.063903e-02 1.857997e-02 0.000000e+00 3.163043e-02 1.731373e-02 0.000000e+00 3.228907e-02 1.595550e-02 0.000000e+00 3.260633e-02 1.455787e-02 0.000000e+00 3.678733e-02 4.307610e-03 0.000000e+00 -2.364000e-02 1.736043e-04 0.000000e+00 -2.281467e-02 1.631223e-04 0.000000e+00 -2.309467e-02 3.367267e-04 0.000000e+00 -2.257787e-02 3.170643e-04 0.000000e+00 -2.184373e-02 1.550423e-04 0.000000e+00 -2.160690e-02 3.153900e-04 0.000000e+00 -2.087983e-02 1.651600e-04 0.000000e+00 -1.992243e-02 1.635233e-04 0.000000e+00 -1.896147e-02 1.715653e-04 0.000000e+00 -1.920580e-02 3.371213e-04 0.000000e+00 -1.872170e-02 3.368620e-04 0.000000e+00 -1.799830e-02 1.583367e-04 0.000000e+00 -1.704340e-02 1.550750e-04 0.000000e+00 -1.607933e-02 1.567140e-04 0.000000e+00 -1.512317e-02 1.617350e-04 0.000000e+00 -1.536867e-02 3.209327e-04 0.000000e+00 -1.488780e-02 3.247710e-04 0.000000e+00 -1.417147e-02 1.657430e-04 0.000000e+00 -1.320137e-02 1.615120e-04 0.000000e+00 -1.224380e-02 1.628883e-04 0.000000e+00 -1.248493e-02 3.243060e-04 0.000000e+00 -1.201050e-02 3.284813e-04 0.000000e+00 -1.128930e-02 1.641377e-04 0.000000e+00 -1.032373e-02 1.591453e-04 0.000000e+00 -9.361707e-03 1.591803e-04 0.000000e+00 -9.609900e-03 3.180237e-04 0.000000e+00 -9.116957e-03 3.205360e-04 0.000000e+00 -8.396620e-03 1.641813e-04 0.000000e+00 -8.151863e-03 3.312390e-04 0.000000e+00 -7.440907e-03 1.688460e-04 0.000000e+00 -6.475497e-03 1.541883e-04 0.000000e+00 -5.522450e-03 1.401560e-04 0.000000e+00 -5.768877e-03 2.816900e-04 0.000000e+00 -5.277567e-03 2.977800e-04 0.000000e+00 -4.557890e-03 1.618643e-04 0.000000e+00 -3.599783e-03 1.586310e-04 0.000000e+00 -2.639110e-03 1.465977e-04 0.000000e+00 -1.678670e-03 1.661163e-04 0.000000e+00 -1.922480e-03 3.248773e-04 0.000000e+00 -1.434490e-03 3.405300e-04 0.000000e+00 -7.058257e-04 1.853213e-04 0.000000e+00 4.950083e-03 1.130889e-03 0.000000e+00 3.849230e-03 5.918352e-04 0.000000e+00 7.838260e-03 7.557517e-04 0.000000e+00 1.133543e-02 8.656797e-04 0.000000e+00 1.427630e-02 8.817397e-04 0.000000e+00 1.640513e-02 1.806197e-03 0.000000e+00 1.733643e-02 2.723213e-03 0.000000e+00 1.805710e-02 2.874010e-03 0.000000e+00 1.993840e-02 2.425463e-03 0.000000e+00 2.375830e-02 2.577830e-03 0.000000e+00 2.505957e-02 3.101943e-03 0.000000e+00 3.005377e-02 3.205280e-03 0.000000e+00 2.871977e-02 2.565653e-03 0.000000e+00 3.409720e-02 2.803037e-03 0.000000e+00 3.707943e-02 7.335193e-03 0.000000e+00 3.781347e-02 8.701033e-03 0.000000e+00 3.715990e-02 9.769497e-03 0.000000e+00 3.788740e-02 1.314723e-02 0.000000e+00 3.774823e-02 1.729790e-02 0.000000e+00 3.770757e-02 2.198053e-02 0.000000e+00 1.732697e-02 2.813503e-02 0.000000e+00 1.557927e-02 2.901910e-02 0.000000e+00 3.269900e-02 2.833997e-02 0.000000e+00 2.935370e-02 2.845227e-02 0.000000e+00 2.781170e-02 2.923953e-02 0.000000e+00 2.639500e-02 2.850040e-02 0.000000e+00 2.223157e-02 2.922417e-02 0.000000e+00 1.381527e-02 2.798807e-02 0.000000e+00 8.031137e-03 2.889270e-02 0.000000e+00 -4.123090e-03 2.728437e-02 0.000000e+00 -1.198417e-03 2.857383e-02 0.000000e+00 -1.002719e-02 2.741120e-02 0.000000e+00 3.294570e-02 1.223310e-02 0.000000e+00 3.308240e-02 1.382250e-02 0.000000e+00 3.240927e-02 1.066846e-02 0.000000e+00 3.151247e-02 9.382083e-03 0.000000e+00 3.036437e-02 8.311407e-03 0.000000e+00 2.906530e-02 7.459887e-03 0.000000e+00 2.756433e-02 6.933003e-03 0.000000e+00 2.604700e-02 6.802027e-03 0.000000e+00 2.451277e-02 6.968320e-03 0.000000e+00 2.295897e-02 7.446843e-03 0.000000e+00 2.158077e-02 8.277360e-03 0.000000e+00 2.046297e-02 9.380470e-03 0.000000e+00 1.962013e-02 1.072123e-02 0.000000e+00 1.909593e-02 1.221973e-02 0.000000e+00 1.891300e-02 1.375080e-02 0.000000e+00 1.906483e-02 1.527593e-02 0.000000e+00 1.955993e-02 1.677317e-02 0.000000e+00 2.042313e-02 1.817600e-02 0.000000e+00 2.157573e-02 1.932917e-02 0.000000e+00 2.294480e-02 2.016120e-02 0.000000e+00 2.440160e-02 2.064950e-02 0.000000e+00 2.589963e-02 2.081680e-02 0.000000e+00 2.739473e-02 2.065897e-02 0.000000e+00 2.894647e-02 2.018490e-02 0.000000e+00 3.032357e-02 1.941143e-02 0.000000e+00 3.151980e-02 1.822977e-02 0.000000e+00 3.238047e-02 1.681127e-02 0.000000e+00 3.289473e-02 1.536320e-02 0.000000e+00 -1.138429e-03 8.096280e-03 0.000000e+00 -2.208693e-02 3.089843e-04 0.000000e+00 -2.112300e-02 3.255077e-04 0.000000e+00 -2.016757e-02 3.277763e-04 0.000000e+00 -1.775733e-02 3.147210e-04 0.000000e+00 -1.823853e-02 3.236333e-04 0.000000e+00 -1.728243e-02 3.114593e-04 0.000000e+00 -1.632133e-02 3.126590e-04 0.000000e+00 -1.393903e-02 3.314613e-04 0.000000e+00 -1.441610e-02 3.287790e-04 0.000000e+00 -1.344893e-02 3.272303e-04 0.000000e+00 -1.105110e-02 3.256523e-04 0.000000e+00 -1.153600e-02 3.297307e-04 0.000000e+00 -1.056553e-02 3.206600e-04 0.000000e+00 -8.631870e-03 3.255370e-04 0.000000e+00 -7.676150e-03 3.359037e-04 0.000000e+00 -6.712443e-03 3.182857e-04 0.000000e+00 -4.313030e-03 3.230530e-04 0.000000e+00 -4.793007e-03 3.194883e-04 0.000000e+00 -3.834923e-03 3.198197e-04 0.000000e+00 -2.882097e-03 2.949867e-04 0.000000e+00 -4.247990e-04 3.902693e-04 0.000000e+00 -9.416457e-04 3.597350e-04 0.000000e+00 6.837617e-03 1.229541e-03 0.000000e+00 1.043452e-02 1.369913e-03 0.000000e+00 1.359147e-02 1.341531e-03 0.000000e+00 1.928013e-02 2.771857e-03 0.000000e+00 2.269583e-02 3.080740e-03 0.000000e+00 2.752970e-02 3.089767e-03 0.000000e+00 3.266823e-02 3.442663e-03 0.000000e+00 3.723383e-02 1.202530e-02 0.000000e+00 3.710913e-02 1.624160e-02 0.000000e+00 3.703987e-02 2.079103e-02 0.000000e+00 2.364283e-02 2.848503e-02 0.000000e+00 1.001834e-02 2.786167e-02 0.000000e+00 1.148280e-03 2.735310e-02 0.000000e+00 -2.187153e-02 1.781887e-02 0.000000e+00 -1.584483e-02 3.159117e-04 0.000000e+00 -2.402920e-03 3.053587e-04 0.000000e+00 1.209650e-02 1.370374e-03 0.000000e+00 1.496447e-02 1.270496e-03 0.000000e+00 3.675470e-02 2.326907e-02 0.000000e+00 -1.968677e-02 3.290793e-04 0.000000e+00 -2.064497e-02 3.294130e-04 0.000000e+00 -1.680540e-02 3.110200e-04 0.000000e+00 -1.296250e-02 3.229297e-04 0.000000e+00 -1.009193e-02 3.179887e-04 0.000000e+00 -6.241923e-03 2.957223e-04 0.000000e+00 -7.197853e-03 3.329433e-04 0.000000e+00 -3.362770e-03 3.070200e-04 0.000000e+00 8.672683e-03 1.313877e-03 0.000000e+00 2.076100e-02 2.928373e-03 0.000000e+00 3.708053e-02 1.843863e-02 0.000000e+00 3.724830e-02 1.411830e-02 0.000000e+00 2.070107e-02 2.834010e-02 0.000000e+00 5.806120e-03 2.767197e-02 0.000000e+00 -2.113147e-02 6.741743e-04 0.000000e+00 -2.017700e-02 6.675697e-04 0.000000e+00 -1.681017e-02 6.413607e-04 0.000000e+00 -1.776050e-02 6.320880e-04 0.000000e+00 -2.065687e-02 6.803663e-04 0.000000e+00 -2.042647e-02 8.549997e-04 0.000000e+00 -1.728120e-02 6.240420e-04 0.000000e+00 -1.752097e-02 7.863340e-04 0.000000e+00 -1.704693e-02 7.979983e-04 0.000000e+00 -1.823567e-02 6.679367e-04 0.000000e+00 -1.799860e-02 8.200070e-04 0.000000e+00 -1.297003e-02 6.521550e-04 0.000000e+00 -1.395507e-02 6.872580e-04 0.000000e+00 -2.422197e-03 6.212563e-04 0.000000e+00 -1.345897e-02 6.659070e-04 0.000000e+00 -1.371363e-02 8.601917e-04 0.000000e+00 -1.321893e-02 8.294140e-04 0.000000e+00 -1.443523e-02 6.776690e-04 0.000000e+00 -1.420663e-02 8.704297e-04 0.000000e+00 -1.106217e-02 6.789157e-04 0.000000e+00 -1.010423e-02 6.359690e-04 0.000000e+00 -1.056813e-02 6.585800e-04 0.000000e+00 -1.081547e-02 8.526980e-04 0.000000e+00 -1.033863e-02 8.150457e-04 0.000000e+00 -1.155370e-02 6.818440e-04 0.000000e+00 -1.131807e-02 8.695143e-04 0.000000e+00 -8.626533e-03 6.718603e-04 0.000000e+00 -6.225067e-03 6.136127e-04 0.000000e+00 -7.670987e-03 6.826937e-04 0.000000e+00 -6.692707e-03 6.670623e-04 0.000000e+00 -6.438903e-03 8.208553e-04 0.000000e+00 -3.352210e-03 6.298753e-04 0.000000e+00 -4.315503e-03 6.706063e-04 0.000000e+00 -7.183523e-03 6.831767e-04 0.000000e+00 -7.421413e-03 8.658693e-04 0.000000e+00 -6.922880e-03 8.631073e-04 0.000000e+00 -3.822647e-03 6.598830e-04 0.000000e+00 -4.065337e-03 8.488053e-04 0.000000e+00 -3.576947e-03 8.215497e-04 0.000000e+00 -4.803527e-03 6.599717e-04 0.000000e+00 -4.570883e-03 8.499010e-04 0.000000e+00 -2.886033e-03 5.791333e-04 0.000000e+00 -3.116363e-03 7.553910e-04 0.000000e+00 -2.662323e-03 7.466420e-04 0.000000e+00 8.547863e-03 2.366473e-03 0.000000e+00 -3.893530e-04 7.865993e-04 0.000000e+00 1.206793e-02 2.382087e-03 0.000000e+00 6.754843e-03 2.251067e-03 0.000000e+00 7.630667e-03 2.829873e-03 0.000000e+00 4.990537e-03 2.142250e-03 0.000000e+00 5.856863e-03 2.720957e-03 0.000000e+00 -9.266963e-04 7.301950e-04 0.000000e+00 -6.554303e-04 9.521113e-04 0.000000e+00 1.034436e-02 2.423680e-03 0.000000e+00 1.121670e-02 2.931160e-03 0.000000e+00 3.125810e-03 1.048723e-03 0.000000e+00 2.066553e-02 3.906283e-03 0.000000e+00 1.505923e-02 2.117567e-03 0.000000e+00 1.917840e-02 3.580290e-03 0.000000e+00 1.974120e-02 4.211807e-03 0.000000e+00 3.511567e-02 2.311397e-02 0.000000e+00 1.580750e-02 2.393423e-03 0.000000e+00 2.260070e-02 4.251100e-03 0.000000e+00 3.586613e-02 1.862647e-02 0.000000e+00 3.603747e-02 1.191807e-02 0.000000e+00 3.005147e-02 4.419667e-03 0.000000e+00 3.250367e-02 4.738617e-03 0.000000e+00 3.524783e-02 4.101963e-03 0.000000e+00 -2.209340e-02 6.150420e-04 0.000000e+00 3.573183e-02 7.171230e-03 0.000000e+00 3.579240e-02 9.645447e-03 0.000000e+00 3.509837e-02 8.413020e-03 0.000000e+00 3.528257e-02 1.078102e-02 0.000000e+00 2.079387e-02 2.676097e-02 0.000000e+00 3.563480e-02 2.079390e-02 0.000000e+00 3.521283e-02 1.974937e-02 0.000000e+00 3.466347e-02 2.182830e-02 0.000000e+00 3.609167e-02 1.403767e-02 0.000000e+00 2.365937e-02 2.705360e-02 0.000000e+00 1.749990e-02 2.625723e-02 0.000000e+00 3.429497e-02 2.573990e-02 0.000000e+00 3.391667e-02 2.420307e-02 0.000000e+00 3.273947e-02 2.677580e-02 0.000000e+00 9.975903e-03 2.575977e-02 0.000000e+00 -4.668067e-03 2.470700e-02 0.000000e+00 2.635837e-02 2.710997e-02 0.000000e+00 2.499817e-02 2.643900e-02 0.000000e+00 1.376610e-02 2.603250e-02 0.000000e+00 1.570303e-02 2.518573e-02 0.000000e+00 1.189317e-02 2.491150e-02 0.000000e+00 -9.891197e-03 2.493080e-02 0.000000e+00 -1.994560e-02 1.818683e-02 0.000000e+00 -1.508767e-02 2.441360e-02 0.000000e+00 -2.106990e-02 2.280297e-02 0.000000e+00 -2.161170e-02 6.396367e-04 0.000000e+00 -2.185500e-02 7.853467e-04 0.000000e+00 -2.137643e-02 8.332610e-04 0.000000e+00 -8.140893e-03 6.772690e-04 0.000000e+00 -8.380313e-03 8.565347e-04 0.000000e+00 -7.899110e-03 8.598777e-04 0.000000e+00 1.605870e-04 4.904367e-04 0.000000e+00 2.933663e-02 2.694580e-02 0.000000e+00 3.090000e-02 2.614210e-02 0.000000e+00 2.775800e-02 2.634263e-02 0.000000e+00 -2.234150e-02 1.564757e-02 0.000000e+00 3.388193e-02 1.206330e-02 0.000000e+00 -1.584783e-02 6.313860e-04 0.000000e+00 3.214200e-02 8.751980e-03 0.000000e+00 3.083187e-02 7.693727e-03 0.000000e+00 2.947333e-02 6.606507e-03 0.000000e+00 2.767550e-02 6.075050e-03 0.000000e+00 2.432400e-02 6.221340e-03 0.000000e+00 2.261970e-02 6.558173e-03 0.000000e+00 2.106680e-02 7.550473e-03 0.000000e+00 1.881357e-02 1.035269e-02 0.000000e+00 1.799233e-02 1.375013e-02 0.000000e+00 1.869060e-02 1.718847e-02 0.000000e+00 1.968563e-02 1.877930e-02 0.000000e+00 2.102133e-02 2.008083e-02 0.000000e+00 2.255063e-02 2.098120e-02 0.000000e+00 2.590557e-02 2.166383e-02 0.000000e+00 2.757607e-02 2.145653e-02 0.000000e+00 2.930520e-02 2.098250e-02 0.000000e+00 3.226413e-02 1.873693e-02 0.000000e+00 3.320063e-02 1.716293e-02 0.000000e+00 2.277147e-03 8.143718e-04 0.000000e+00 3.355163e-03 2.058880e-03 0.000000e+00 4.119037e-03 2.613353e-03 0.000000e+00 3.487887e-02 5.796737e-03 0.000000e+00 -2.104710e-02 1.444430e-02 0.000000e+00 2.066997e-03 1.553265e-03 0.000000e+00 -2.309697e-02 6.830367e-04 0.000000e+00 2.142120e-02 4.651180e-03 0.000000e+00 -2.090020e-02 8.647800e-04 0.000000e+00 -1.920997e-02 6.935513e-04 0.000000e+00 -1.274020e-02 8.278563e-04 0.000000e+00 -1.249647e-02 6.615193e-04 0.000000e+00 -1.632307e-02 6.368347e-04 0.000000e+00 3.356367e-02 5.793763e-03 0.000000e+00 -9.863427e-03 8.021573e-04 0.000000e+00 -9.612833e-03 6.433573e-04 0.000000e+00 -1.656850e-02 8.104613e-04 0.000000e+00 -5.994700e-03 7.347690e-04 0.000000e+00 -5.774007e-03 5.570347e-04 0.000000e+00 2.255800e-04 9.051833e-04 0.000000e+00 9.419393e-03 2.937780e-03 0.000000e+00 -9.853433e-05 1.016025e-03 0.000000e+00 1.286917e-02 2.836703e-03 0.000000e+00 1.360773e-02 2.285417e-03 0.000000e+00 2.624673e-03 2.309320e-03 0.000000e+00 -2.194553e-03 8.079053e-04 0.000000e+00 -1.933947e-03 6.581240e-04 0.000000e+00 1.438733e-02 2.672697e-03 0.000000e+00 1.837113e-02 3.682443e-03 0.000000e+00 7.976040e-03 2.452527e-02 0.000000e+00 5.793457e-03 2.540643e-02 0.000000e+00 1.595987e-02 3.243063e-03 0.000000e+00 1.674870e-02 3.435887e-03 0.000000e+00 2.345150e-02 4.894410e-03 0.000000e+00 2.234090e-02 2.621360e-02 0.000000e+00 2.768227e-02 4.134707e-03 0.000000e+00 2.887003e-02 4.824980e-03 0.000000e+00 3.121187e-02 5.149967e-03 0.000000e+00 -2.130067e-02 1.282827e-02 0.000000e+00 -1.985610e-02 1.497737e-02 0.000000e+00 1.930853e-02 2.565900e-02 0.000000e+00 -1.969310e-02 6.670293e-04 0.000000e+00 -2.703100e-03 2.327877e-02 0.000000e+00 1.463047e-03 1.631935e-03 0.000000e+00 -1.993820e-02 8.412667e-04 0.000000e+00 -1.922457e-02 1.654860e-02 0.000000e+00 -1.945483e-02 8.599360e-04 0.000000e+00 -1.215918e-02 2.366160e-02 0.000000e+00 -1.886943e-02 2.203520e-02 0.000000e+00 -2.339790e-02 1.381913e-02 0.000000e+00 3.400910e-02 1.385767e-02 0.000000e+00 -1.561703e-02 7.924050e-04 0.000000e+00 -1.537720e-02 6.386657e-04 0.000000e+00 3.400423e-02 1.651773e-02 0.000000e+00 3.378973e-02 1.557377e-02 0.000000e+00 3.319493e-02 1.817257e-02 0.000000e+00 3.048700e-02 2.104420e-02 0.000000e+00 3.103637e-02 2.015153e-02 0.000000e+00 2.857930e-02 2.168557e-02 0.000000e+00 2.677810e-02 2.203477e-02 0.000000e+00 2.322713e-02 2.174373e-02 0.000000e+00 2.422090e-02 2.151233e-02 0.000000e+00 2.151920e-02 2.100553e-02 0.000000e+00 2.099827e-02 2.193663e-02 0.000000e+00 1.996947e-02 1.983003e-02 0.000000e+00 1.870037e-02 1.827157e-02 0.000000e+00 1.753440e-02 1.466473e-02 0.000000e+00 1.814293e-02 1.547107e-02 0.000000e+00 1.800960e-02 1.104843e-02 0.000000e+00 1.819280e-02 1.203317e-02 0.000000e+00 2.003213e-02 7.793663e-03 0.000000e+00 1.972963e-02 8.789597e-03 0.000000e+00 2.159803e-02 6.557900e-03 0.000000e+00 2.333480e-02 5.906013e-03 0.000000e+00 2.678890e-02 5.522403e-03 0.000000e+00 2.666180e-02 4.580420e-03 0.000000e+00 2.595167e-02 5.963150e-03 0.000000e+00 2.873617e-02 5.823340e-03 0.000000e+00 3.177633e-02 7.871073e-03 0.000000e+00 -1.665090e-02 2.273057e-02 0.000000e+00 3.417483e-02 1.093852e-02 0.000000e+00 -1.608407e-02 7.963640e-04 0.000000e+00 2.506613e-02 5.643273e-03 0.000000e+00 1.882490e-02 9.289963e-03 0.000000e+00 1.756077e-02 1.285037e-02 0.000000e+00 1.787597e-02 1.649417e-02 0.000000e+00 2.502437e-02 2.209247e-02 0.000000e+00 3.209617e-02 1.982723e-02 0.000000e+00 3.333877e-02 1.019487e-02 0.000000e+00 -2.258683e-02 6.357107e-04 0.000000e+00 -2.282593e-02 8.280787e-04 0.000000e+00 -2.233863e-02 7.786460e-04 0.000000e+00 -1.872067e-02 6.936587e-04 0.000000e+00 -1.896460e-02 8.847920e-04 0.000000e+00 -1.847633e-02 8.663967e-04 0.000000e+00 -1.489527e-02 6.508127e-04 0.000000e+00 -1.513917e-02 8.055097e-04 0.000000e+00 -1.467123e-02 8.379677e-04 0.000000e+00 -1.202210e-02 6.773313e-04 0.000000e+00 -1.226693e-02 8.489517e-04 0.000000e+00 -1.179600e-02 8.665563e-04 0.000000e+00 -9.124930e-03 6.613460e-04 0.000000e+00 -9.372613e-03 8.253240e-04 0.000000e+00 -8.877887e-03 8.484890e-04 0.000000e+00 -5.293817e-03 6.175843e-04 0.000000e+00 -5.543830e-03 7.353050e-04 0.000000e+00 -5.061887e-03 8.179117e-04 0.000000e+00 -1.435627e-03 6.882900e-04 0.000000e+00 -1.691273e-03 8.471230e-04 0.000000e+00 -1.182007e-03 8.926337e-04 0.000000e+00 2.539530e-02 4.113310e-03 0.000000e+00 3.586767e-02 1.610443e-02 0.000000e+00 1.321520e-03 2.492930e-02 0.000000e+00 -2.259507e-02 1.193533e-02 0.000000e+00 -2.258303e-02 1.040013e-02 0.000000e+00 -2.062893e-02 1.077192e-02 0.000000e+00 5.624867e-04 1.286269e-03 0.000000e+00 3.792780e-03 2.408993e-02 0.000000e+00 3.442803e-02 1.480360e-02 0.000000e+00 -1.880153e-02 1.980190e-02 0.000000e+00 -2.148737e-02 1.008898e-02 0.000000e+00 3.319267e-02 9.115627e-03 0.000000e+00 -2.043020e-02 1.197600e-02 0.000000e+00 -1.990343e-02 1.000308e-02 0.000000e+00 -2.029727e-02 8.987387e-03 0.000000e+00 -2.121147e-02 9.009147e-03 0.000000e+00 2.105560e-02 5.737430e-03 0.000000e+00 -2.091647e-02 1.256287e-03 0.000000e+00 -1.421800e-02 1.270137e-03 0.000000e+00 3.319577e-02 6.996180e-03 0.000000e+00 -4.605877e-03 1.223703e-03 0.000000e+00 -1.132327e-02 1.269920e-03 0.000000e+00 4.062860e-03 2.192527e-02 0.000000e+00 -6.372183e-03 1.203270e-03 0.000000e+00 9.379530e-03 4.036273e-03 0.000000e+00 -1.655530e-02 1.218693e-03 0.000000e+00 7.580757e-03 3.932737e-03 0.000000e+00 8.458090e-03 4.567830e-03 0.000000e+00 1.796320e-02 4.402587e-03 0.000000e+00 1.293797e-02 3.861143e-03 0.000000e+00 -5.262590e-05 1.424830e-03 0.000000e+00 1.452027e-02 3.629000e-03 0.000000e+00 1.380947e-02 4.266160e-03 0.000000e+00 1.534453e-02 3.923510e-03 0.000000e+00 5.835037e-03 3.779433e-03 0.000000e+00 6.683107e-03 4.412407e-03 0.000000e+00 -6.442880e-04 1.361610e-03 0.000000e+00 -3.323022e-04 1.604903e-03 0.000000e+00 1.122253e-02 4.017227e-03 0.000000e+00 1.214257e-02 4.492593e-03 0.000000e+00 1.375263e-03 3.070085e-04 0.000000e+00 1.301493e-03 2.336470e-03 0.000000e+00 -3.277010e-03 2.101097e-02 0.000000e+00 2.251423e-02 2.490727e-02 0.000000e+00 8.089197e-03 2.242460e-02 0.000000e+00 -1.876427e-02 1.390437e-02 0.000000e+00 3.698614e-04 1.614533e-03 0.000000e+00 -1.947213e-02 1.251523e-03 0.000000e+00 1.974917e-02 2.420257e-02 0.000000e+00 3.387750e-02 8.240943e-03 0.000000e+00 -1.799170e-02 1.179814e-03 0.000000e+00 -1.176068e-02 2.144077e-02 0.000000e+00 3.238230e-02 2.381337e-02 0.000000e+00 -7.395687e-03 2.365277e-02 0.000000e+00 1.993857e-02 5.931157e-03 0.000000e+00 1.937983e-02 5.150430e-03 0.000000e+00 1.944633e-02 6.994817e-03 0.000000e+00 3.448660e-02 1.294710e-02 0.000000e+00 4.141643e-03 3.723167e-03 0.000000e+00 4.991317e-03 4.310540e-03 0.000000e+00 -6.312497e-03 6.714737e-03 0.000000e+00 2.496660e-02 2.305317e-02 0.000000e+00 1.683837e-02 1.681310e-02 0.000000e+00 1.652663e-02 1.277687e-02 0.000000e+00 3.041873e-02 6.731043e-03 0.000000e+00 -1.768927e-02 1.650597e-02 0.000000e+00 -1.908480e-02 1.251903e-02 0.000000e+00 -1.555473e-02 2.079750e-02 0.000000e+00 -1.359300e-02 2.025970e-02 0.000000e+00 -1.691940e-02 1.939447e-02 0.000000e+00 1.798517e-02 8.923917e-03 0.000000e+00 1.696250e-02 1.067353e-02 0.000000e+00 1.650410e-02 1.479313e-02 0.000000e+00 1.592790e-02 1.380503e-02 0.000000e+00 1.607503e-02 1.591840e-02 0.000000e+00 1.770087e-02 1.881257e-02 0.000000e+00 1.916480e-02 2.062803e-02 0.000000e+00 1.788147e-02 2.011830e-02 0.000000e+00 1.969573e-02 2.180993e-02 0.000000e+00 2.297093e-02 2.271157e-02 0.000000e+00 2.690143e-02 2.298603e-02 0.000000e+00 2.879597e-02 2.255727e-02 0.000000e+00 -6.512660e-03 7.574000e-03 0.000000e+00 -1.995007e-02 8.117607e-03 0.000000e+00 3.504740e-02 1.688067e-02 0.000000e+00 -1.894403e-02 1.014177e-02 0.000000e+00 -7.349987e-03 2.114787e-02 0.000000e+00 -5.196277e-03 1.993430e-02 0.000000e+00 -9.446997e-03 2.020507e-02 0.000000e+00 -2.067583e-02 1.447960e-03 0.000000e+00 -2.042917e-02 1.231087e-03 0.000000e+00 -8.886500e-03 1.250753e-03 0.000000e+00 -1.469827e-02 1.216292e-03 0.000000e+00 -1.447363e-02 1.455700e-03 0.000000e+00 -1.705957e-02 1.154897e-03 0.000000e+00 -1.680960e-02 1.406491e-03 0.000000e+00 -1.276757e-02 1.177555e-03 0.000000e+00 -6.878477e-03 1.251793e-03 0.000000e+00 -6.581583e-03 1.438163e-03 0.000000e+00 -5.121853e-03 1.180634e-03 0.000000e+00 -4.898487e-03 1.396497e-03 0.000000e+00 6.176693e-03 2.114110e-02 0.000000e+00 -1.181397e-03 1.277357e-03 0.000000e+00 -9.149440e-04 1.524417e-03 0.000000e+00 1.706143e-02 4.306827e-03 0.000000e+00 -3.548013e-03 1.192055e-03 0.000000e+00 -1.033743e-02 1.176084e-03 0.000000e+00 -7.393873e-03 1.229387e-03 0.000000e+00 -7.111580e-03 1.435380e-03 0.000000e+00 1.840910e-02 5.239057e-03 0.000000e+00 -1.323273e-02 1.157485e-03 0.000000e+00 -1.301120e-02 1.329925e-03 0.000000e+00 -2.752223e-03 1.078088e-03 0.000000e+00 1.031033e-02 4.608240e-03 0.000000e+00 -3.058167e-04 2.343233e-02 0.000000e+00 2.463687e-02 4.735417e-03 0.000000e+00 -2.019217e-02 1.386713e-03 0.000000e+00 -1.995067e-02 1.184323e-03 0.000000e+00 2.366580e-03 3.065250e-03 0.000000e+00 -4.355273e-03 1.423023e-03 0.000000e+00 -4.070113e-03 1.227420e-03 0.000000e+00 1.009526e-02 2.170593e-02 0.000000e+00 -1.746697e-02 1.479723e-02 0.000000e+00 3.507447e-02 1.790477e-02 0.000000e+00 -1.923220e-02 1.499817e-03 0.000000e+00 -1.896953e-02 1.299470e-03 0.000000e+00 -7.892657e-03 1.218833e-03 0.000000e+00 -7.636993e-03 1.405167e-03 0.000000e+00 3.216070e-02 2.239113e-02 0.000000e+00 1.692673e-02 9.611747e-03 0.000000e+00 -5.908683e-03 1.051952e-03 0.000000e+00 -6.072330e-03 1.313210e-03 0.000000e+00 -5.621790e-03 1.053866e-03 0.000000e+00 3.324287e-02 2.149517e-02 0.000000e+00 1.838910e-02 7.061943e-03 0.000000e+00 1.791060e-02 6.086910e-03 0.000000e+00 1.778547e-02 7.916903e-03 0.000000e+00 1.647350e-03 3.013730e-03 0.000000e+00 1.189937e-02 2.295833e-02 0.000000e+00 -1.181543e-02 1.253783e-03 0.000000e+00 -1.157833e-02 1.469477e-03 0.000000e+00 -8.375413e-03 1.240317e-03 0.000000e+00 -8.630247e-03 1.457907e-03 0.000000e+00 -8.129540e-03 1.420007e-03 0.000000e+00 1.665350e-02 1.804840e-02 0.000000e+00 1.541827e-02 1.847280e-02 0.000000e+00 -1.776230e-02 1.294650e-03 0.000000e+00 -1.752967e-02 1.089090e-03 0.000000e+00 -2.140577e-02 1.217903e-03 0.000000e+00 -1.561423e-02 1.132254e-03 0.000000e+00 -1.846850e-02 1.276543e-03 0.000000e+00 -1.822093e-02 1.437890e-03 0.000000e+00 -2.330020e-02 1.083144e-03 0.000000e+00 2.390693e-02 2.344087e-02 0.000000e+00 2.177350e-02 2.288013e-02 0.000000e+00 1.611157e-02 1.158477e-02 0.000000e+00 3.092113e-02 2.471650e-02 0.000000e+00 3.546280e-02 1.497133e-02 0.000000e+00 3.606617e-04 2.127843e-02 0.000000e+00 2.258078e-03 2.061073e-02 0.000000e+00 -1.355598e-03 2.000827e-02 0.000000e+00 -1.972287e-02 1.401673e-03 0.000000e+00 -1.010707e-02 1.326747e-03 0.000000e+00 -9.867473e-03 1.131897e-03 0.000000e+00 -2.556247e-03 1.304888e-03 0.000000e+00 -2.238703e-03 1.160091e-03 0.000000e+00 2.643367e-03 4.001433e-03 0.000000e+00 3.394317e-03 4.362860e-03 0.000000e+00 -2.117707e-02 1.450323e-03 0.000000e+00 -2.310203e-02 1.450570e-03 0.000000e+00 -2.281310e-02 1.205986e-03 0.000000e+00 3.402560e-02 1.855147e-02 0.000000e+00 2.498137e-02 2.521023e-02 0.000000e+00 -1.607943e-02 1.115453e-03 0.000000e+00 1.881230e-02 2.295780e-02 0.000000e+00 -1.652817e-02 1.773677e-02 0.000000e+00 -2.186673e-02 1.100641e-03 0.000000e+00 -2.165277e-02 1.339573e-03 0.000000e+00 2.791607e-02 2.327950e-02 0.000000e+00 3.086020e-02 2.209207e-02 0.000000e+00 -2.045917e-02 7.224357e-03 0.000000e+00 -2.233617e-02 1.093514e-03 0.000000e+00 -2.257153e-02 1.328486e-03 0.000000e+00 -2.210267e-02 1.245204e-03 0.000000e+00 -1.630523e-02 1.364156e-03 0.000000e+00 -1.106987e-02 1.462387e-03 0.000000e+00 -1.081797e-02 1.235763e-03 0.000000e+00 -1.396703e-02 1.472770e-03 0.000000e+00 -1.371423e-02 1.245997e-03 0.000000e+00 -1.584040e-02 1.290324e-03 0.000000e+00 2.381590e-02 2.451850e-02 0.000000e+00 1.709490e-02 2.249103e-02 0.000000e+00 1.669500e-02 2.083343e-02 0.000000e+00 1.559117e-02 2.335937e-02 0.000000e+00 -2.119297e-02 7.251023e-03 0.000000e+00 3.407990e-02 1.960833e-02 0.000000e+00 -1.846783e-02 9.088497e-03 0.000000e+00 -1.908003e-02 8.080033e-03 0.000000e+00 -2.159807e-02 8.166033e-03 0.000000e+00 3.308127e-02 2.031973e-02 0.000000e+00 -2.174757e-02 6.357997e-03 0.000000e+00 -2.243517e-02 6.670187e-03 0.000000e+00 -2.149623e-02 5.561960e-03 0.000000e+00 -2.313723e-02 4.654507e-03 0.000000e+00 -2.184190e-02 4.821557e-03 0.000000e+00 -2.142183e-02 4.208163e-03 0.000000e+00 -2.172737e-02 3.609793e-03 0.000000e+00 -2.084030e-02 4.205837e-03 0.000000e+00 -2.149360e-02 3.043390e-03 0.000000e+00 -2.233293e-02 3.631170e-03 0.000000e+00 -2.246367e-02 4.419383e-03 0.000000e+00 -2.257330e-02 3.067217e-03 0.000000e+00 -2.068393e-02 5.585367e-03 0.000000e+00 -2.020147e-02 6.354737e-03 0.000000e+00 -2.044807e-02 4.842637e-03 0.000000e+00 -2.226810e-02 2.529950e-03 0.000000e+00 -2.179397e-02 2.527500e-03 0.000000e+00 -1.515540e-02 1.123848e-03 0.000000e+00 -1.539063e-02 1.296853e-03 0.000000e+00 -1.493853e-02 1.347475e-03 0.000000e+00 -1.228723e-02 1.218807e-03 0.000000e+00 -1.254413e-02 1.381073e-03 0.000000e+00 -1.206183e-02 1.434413e-03 0.000000e+00 3.214527e-02 6.989957e-03 0.000000e+00 6.389880e-03 1.902650e-02 0.000000e+00 -1.586587e-02 1.658010e-03 0.000000e+00 -1.832413e-02 1.145363e-02 0.000000e+00 -9.392020e-03 1.205290e-03 0.000000e+00 -9.636287e-03 1.353064e-03 0.000000e+00 -9.152950e-03 1.443577e-03 0.000000e+00 -3.249300e-03 1.330035e-03 0.000000e+00 -1.719170e-03 1.210353e-03 0.000000e+00 -2.005993e-03 1.373540e-03 0.000000e+00 -1.462913e-03 1.436243e-03 0.000000e+00 1.648870e-02 5.063407e-03 0.000000e+00 1.689197e-02 6.007020e-03 0.000000e+00 -1.704230e-02 1.148207e-02 0.000000e+00 3.122137e-02 6.198890e-03 0.000000e+00 -1.056943e-02 1.402683e-03 0.000000e+00 -2.252480e-02 2.045517e-03 0.000000e+00 1.030179e-02 5.799427e-03 0.000000e+00 2.140783e-02 2.399820e-02 0.000000e+00 -3.239919e-04 2.043840e-03 0.000000e+00 1.366043e-02 2.225297e-02 0.000000e+00 1.032663e-02 1.971087e-02 0.000000e+00 -3.798490e-03 1.409003e-03 0.000000e+00 -1.617587e-02 1.434620e-02 0.000000e+00 -3.204307e-03 1.748133e-03 0.000000e+00 4.320971e-04 2.018573e-03 0.000000e+00 1.613933e-02 8.912403e-03 0.000000e+00 -2.065897e-02 1.835063e-03 0.000000e+00 1.020964e-03 1.152077e-03 0.000000e+00 -2.234517e-02 7.895970e-03 0.000000e+00 -2.305423e-02 9.050233e-03 0.000000e+00 -2.304607e-02 2.604983e-03 0.000000e+00 4.973437e-03 5.352780e-03 0.000000e+00 1.262162e-03 3.638083e-03 0.000000e+00 2.749337e-02 2.511667e-02 0.000000e+00 -2.096830e-02 3.020557e-03 0.000000e+00 2.989507e-02 2.290207e-02 0.000000e+00 -2.062053e-02 3.584633e-03 0.000000e+00 -1.617197e-02 1.723140e-03 0.000000e+00 -1.328490e-02 1.839800e-02 0.000000e+00 -1.485540e-02 1.727810e-02 0.000000e+00 -2.298653e-02 1.924353e-03 0.000000e+00 2.607693e-02 2.465523e-02 0.000000e+00 -2.078753e-02 2.558330e-03 0.000000e+00 7.870787e-04 2.389910e-03 0.000000e+00 1.792010e-05 2.267807e-03 0.000000e+00 2.597113e-02 2.357580e-02 0.000000e+00 1.491887e-02 1.151110e-02 0.000000e+00 -2.007123e-02 3.467573e-03 0.000000e+00 8.393337e-03 5.827850e-03 0.000000e+00 9.306243e-03 6.487480e-03 0.000000e+00 -2.314423e-02 5.869487e-03 0.000000e+00 1.527917e-02 1.995210e-02 0.000000e+00 -1.259567e-02 1.740287e-03 0.000000e+00 -2.094380e-02 2.112367e-03 0.000000e+00 -1.730253e-02 1.283696e-03 0.000000e+00 1.403352e-03 4.364327e-03 0.000000e+00 2.065327e-03 4.676157e-03 0.000000e+00 -1.560227e-02 1.880023e-03 0.000000e+00 -1.535320e-02 1.676937e-03 0.000000e+00 4.497693e-03 1.769773e-02 0.000000e+00 -4.969913e-03 1.795367e-03 0.000000e+00 -3.042387e-03 1.085045e-03 0.000000e+00 5.235677e-04 2.906910e-03 0.000000e+00 4.540733e-05 2.757087e-03 0.000000e+00 6.527940e-04 3.477823e-03 0.000000e+00 -7.080913e-03 1.845693e-03 0.000000e+00 -8.635597e-03 1.886973e-03 0.000000e+00 -9.423800e-04 1.962860e-03 0.000000e+00 -6.634137e-04 2.238990e-03 0.000000e+00 -1.395223e-02 1.915293e-03 0.000000e+00 -5.431743e-03 1.298868e-03 0.000000e+00 5.720470e-03 6.006920e-03 0.000000e+00 6.586420e-03 5.597653e-03 0.000000e+00 1.500233e-02 9.008217e-03 0.000000e+00 1.434810e-02 1.025143e-02 0.000000e+00 -1.310030e-02 1.721963e-03 0.000000e+00 -1.290820e-02 1.928807e-03 0.000000e+00 7.230303e-04 5.660440e-04 0.000000e+00 3.466220e-03 5.564160e-03 0.000000e+00 4.195667e-03 5.966707e-03 0.000000e+00 1.399070e-02 5.334313e-03 0.000000e+00 -1.472540e-02 1.559627e-02 0.000000e+00 -2.914127e-03 1.897733e-03 0.000000e+00 -2.617640e-03 1.667727e-03 0.000000e+00 1.374833e-02 2.050330e-02 0.000000e+00 1.223713e-02 5.621407e-03 0.000000e+00 3.553440e-02 1.295937e-02 0.000000e+00 8.533750e-03 1.831493e-02 0.000000e+00 -1.982320e-02 1.812960e-03 0.000000e+00 1.221863e-02 1.921360e-02 0.000000e+00 -3.810183e-03 1.837467e-03 0.000000e+00 -3.514713e-03 2.038617e-03 0.000000e+00 -1.601317e-02 1.273710e-02 0.000000e+00 -2.012940e-02 1.796157e-03 0.000000e+00 -1.871777e-02 1.518483e-03 0.000000e+00 -1.054170e-02 1.787013e-03 0.000000e+00 1.667390e-02 7.839290e-03 0.000000e+00 -7.617220e-03 1.751590e-03 0.000000e+00 -7.343433e-03 1.986123e-03 0.000000e+00 -2.034953e-02 2.027633e-03 0.000000e+00 -1.451710e-02 1.883743e-03 0.000000e+00 -1.424667e-02 2.140703e-03 0.000000e+00 -1.999300e-02 2.835090e-03 0.000000e+00 -1.817387e-02 1.847387e-03 0.000000e+00 -1.158917e-02 1.908830e-03 0.000000e+00 -1.347337e-02 1.379783e-03 0.000000e+00 -7.987167e-03 6.701330e-03 0.000000e+00 1.321377e-02 6.058110e-03 0.000000e+00 -1.980787e-02 4.769940e-03 0.000000e+00 -1.628837e-02 2.102513e-03 0.000000e+00 2.973440e-02 2.410427e-02 0.000000e+00 -1.769260e-02 1.627513e-03 0.000000e+00 -1.787493e-02 1.922173e-03 0.000000e+00 -1.739723e-02 1.621343e-03 0.000000e+00 1.130857e-02 6.337227e-03 0.000000e+00 -1.209114e-03 1.815727e-02 0.000000e+00 -1.105033e-02 1.894543e-03 0.000000e+00 -1.131457e-02 2.141430e-03 0.000000e+00 -1.077070e-02 2.052250e-03 0.000000e+00 -2.122127e-02 1.919300e-03 0.000000e+00 1.556063e-02 4.872913e-03 0.000000e+00 1.478577e-02 1.385910e-02 0.000000e+00 -2.160133e-02 2.047027e-03 0.000000e+00 -1.965080e-02 4.016080e-03 0.000000e+00 7.419317e-03 6.378003e-03 0.000000e+00 -2.036153e-02 2.489923e-03 0.000000e+00 -4.711743e-03 1.994110e-03 0.000000e+00 -4.389713e-03 1.794560e-03 0.000000e+00 2.479725e-03 1.849780e-02 0.000000e+00 -1.961513e-02 2.090693e-03 0.000000e+00 -1.962000e-02 2.616773e-03 0.000000e+00 -1.927487e-02 1.927700e-03 0.000000e+00 -1.024073e-02 1.970717e-03 0.000000e+00 -1.003810e-02 1.737050e-03 0.000000e+00 2.840220e-02 2.433070e-02 0.000000e+00 -2.839806e-03 1.707190e-02 0.000000e+00 1.419180e-02 1.275727e-02 0.000000e+00 -8.766773e-03 6.468413e-03 0.000000e+00 -1.944673e-02 6.297737e-03 0.000000e+00 -1.883440e-02 7.129783e-03 0.000000e+00 -2.347927e-02 3.404060e-03 0.000000e+00 -4.905557e-03 1.784623e-02 0.000000e+00 -1.239120e-02 1.986960e-03 0.000000e+00 -1.211427e-02 1.843353e-03 0.000000e+00 -2.507346e-03 1.531240e-02 0.000000e+00 1.491760e-02 5.646557e-03 0.000000e+00 -1.687710e-02 1.822007e-03 0.000000e+00 -1.722177e-02 1.908060e-03 0.000000e+00 -1.665217e-02 2.165210e-03 0.000000e+00 -1.156863e-02 1.759353e-02 0.000000e+00 -8.929953e-03 2.113863e-03 0.000000e+00 -9.191053e-03 1.877620e-03 0.000000e+00 -5.565400e-03 1.658247e-03 0.000000e+00 -5.326937e-03 1.938883e-03 0.000000e+00 1.625890e-02 6.904440e-03 0.000000e+00 -1.668350e-02 1.015628e-02 0.000000e+00 -1.928900e-02 5.455670e-03 0.000000e+00 7.287923e-04 1.731450e-02 0.000000e+00 -1.602497e-02 2.461033e-03 0.000000e+00 -1.454623e-02 1.242220e-02 0.000000e+00 -1.871353e-02 2.036793e-03 0.000000e+00 -1.900797e-02 2.245663e-03 0.000000e+00 -1.841720e-02 2.204350e-03 0.000000e+00 9.272310e-03 7.908027e-03 0.000000e+00 5.406847e-03 7.079490e-03 0.000000e+00 -1.748913e-02 9.074580e-03 0.000000e+00 -1.187870e-02 2.102077e-03 0.000000e+00 -1.339997e-02 1.762370e-03 0.000000e+00 -8.119757e-03 1.819140e-03 0.000000e+00 -8.370980e-03 2.068517e-03 0.000000e+00 -7.863100e-03 1.964390e-03 0.000000e+00 -6.282423e-03 1.662493e-02 0.000000e+00 1.341867e-02 7.401017e-03 0.000000e+00 7.169850e-03 7.685097e-03 0.000000e+00 6.023330e-03 7.977317e-03 0.000000e+00 8.109937e-03 8.555490e-03 0.000000e+00 -1.907997e-02 3.900743e-03 0.000000e+00 1.442253e-02 1.745567e-02 0.000000e+00 1.521260e-02 6.734470e-03 0.000000e+00 -8.936043e-03 2.560963e-03 0.000000e+00 -9.530517e-03 2.042283e-03 0.000000e+00 -1.858753e-02 5.335500e-03 0.000000e+00 -1.721137e-02 7.948403e-03 0.000000e+00 1.489443e-02 1.613657e-02 0.000000e+00 1.449060e-02 7.765133e-03 0.000000e+00 -1.506217e-02 1.719250e-03 0.000000e+00 -5.722840e-03 6.350240e-03 0.000000e+00 -1.486537e-02 2.016110e-03 0.000000e+00 1.290363e-02 1.283903e-02 0.000000e+00 -6.481560e-03 1.889177e-03 0.000000e+00 4.597220e-03 1.556333e-02 0.000000e+00 -2.180413e-02 1.699720e-03 0.000000e+00 -5.919093e-03 1.674503e-03 0.000000e+00 1.418137e-02 1.506537e-02 0.000000e+00 8.679277e-03 1.630933e-02 0.000000e+00 6.634933e-03 1.488650e-02 0.000000e+00 -6.118923e-03 2.015577e-03 0.000000e+00 -2.209237e-02 1.623540e-03 0.000000e+00 1.290100e-02 1.513930e-02 0.000000e+00 -5.440393e-03 2.361677e-03 0.000000e+00 -6.747787e-03 2.113120e-03 0.000000e+00 -6.884593e-03 6.191627e-03 0.000000e+00 -3.612637e-03 6.436050e-03 0.000000e+00 8.712427e-04 1.544710e-02 0.000000e+00 2.721702e-03 1.449600e-02 0.000000e+00 -7.342040e-04 1.453037e-02 0.000000e+00 -1.794443e-02 7.012070e-03 0.000000e+00 -2.361790e-02 7.368343e-04 0.000000e+00 -3.923863e-03 1.428817e-02 0.000000e+00 -8.584053e-03 2.775157e-03 0.000000e+00 -8.313347e-03 2.509600e-03 0.000000e+00 -1.684213e-02 2.630087e-03 0.000000e+00 1.991533e-03 5.710110e-03 0.000000e+00 2.641477e-03 6.236687e-03 0.000000e+00 1.221723e-02 1.401480e-02 0.000000e+00 -7.292483e-04 2.734400e-03 0.000000e+00 -1.785530e-02 6.059853e-03 0.000000e+00 -6.783110e-03 2.573143e-03 0.000000e+00 -1.362603e-02 2.071107e-03 0.000000e+00 -1.496333e-03 1.819270e-03 0.000000e+00 -1.242253e-03 2.098827e-03 0.000000e+00 -1.195750e-02 2.566263e-03 0.000000e+00 -2.054667e-03 1.779927e-03 0.000000e+00 -1.801263e-03 1.999767e-03 0.000000e+00 1.296877e-02 1.042496e-02 0.000000e+00 1.225137e-02 1.176640e-02 0.000000e+00 -3.623393e-04 3.028530e-03 0.000000e+00 -1.627190e-02 7.904603e-03 0.000000e+00 1.439277e-04 3.924113e-03 0.000000e+00 -1.326063e-02 1.503653e-02 0.000000e+00 -2.348770e-03 1.929317e-03 0.000000e+00 -1.433060e-02 1.096297e-02 0.000000e+00 -1.564497e-02 2.303673e-03 0.000000e+00 -3.510617e-03 2.524937e-03 0.000000e+00 -1.324417e-02 1.347157e-02 0.000000e+00 -1.543873e-02 9.952083e-03 0.000000e+00 -1.065270e-02 2.497867e-03 0.000000e+00 4.418123e-03 7.038540e-03 0.000000e+00 1.135227e-02 7.508490e-03 0.000000e+00 1.033455e-02 1.573907e-02 0.000000e+00 1.031156e-02 8.391237e-03 0.000000e+00 -1.429883e-02 2.682617e-03 0.000000e+00 -9.614553e-03 2.512657e-03 0.000000e+00 -9.281180e-03 2.795093e-03 0.000000e+00 -5.633190e-03 1.482637e-02 0.000000e+00 -4.672330e-03 2.446987e-03 0.000000e+00 -1.853557e-02 4.534433e-03 0.000000e+00 -4.116247e-03 2.027420e-03 0.000000e+00 -9.563047e-03 1.821953e-02 0.000000e+00 -1.167436e-02 1.591390e-02 0.000000e+00 -1.130407e-02 2.620610e-03 0.000000e+00 -1.092183e-02 2.819340e-03 0.000000e+00 -5.878687e-03 2.422113e-03 0.000000e+00 -1.774403e-02 2.256007e-03 0.000000e+00 -1.738623e-02 2.248063e-03 0.000000e+00 -1.043736e-02 1.510007e-02 0.000000e+00 -5.043957e-03 2.671037e-03 0.000000e+00 -1.661263e-02 3.032210e-03 0.000000e+00 -1.615927e-02 2.925853e-03 0.000000e+00 -1.530490e-02 8.826580e-03 0.000000e+00 -1.788193e-02 2.643970e-03 0.000000e+00 -1.355037e-02 2.552597e-03 0.000000e+00 -1.165747e-02 2.852197e-03 0.000000e+00 1.848327e-04 4.713570e-03 0.000000e+00 8.348890e-04 4.993523e-03 0.000000e+00 -3.111490e-03 2.688160e-03 0.000000e+00 -2.825407e-03 2.351440e-03 0.000000e+00 -9.488293e-03 7.056850e-03 0.000000e+00 -1.028449e-02 2.440730e-03 0.000000e+00 -1.392873e-02 2.938697e-03 0.000000e+00 -8.161880e-03 1.682443e-02 0.000000e+00 -1.825617e-02 2.667100e-03 0.000000e+00 -1.253403e-02 2.373363e-03 0.000000e+00 -1.288663e-02 2.336837e-03 0.000000e+00 -1.233590e-02 2.693943e-03 0.000000e+00 -1.315607e-02 2.673423e-03 0.000000e+00 -6.811970e-03 1.365983e-02 0.000000e+00 -1.711017e-02 5.774600e-03 0.000000e+00 -3.930453e-04 3.624643e-03 0.000000e+00 -1.173653e-02 3.380237e-03 0.000000e+00 -1.300040e-02 1.071463e-02 0.000000e+00 1.061252e-02 1.415900e-02 0.000000e+00 -1.582760e-02 7.009580e-03 0.000000e+00 -1.619673e-02 6.166447e-03 0.000000e+00 -6.036470e-03 2.818337e-03 0.000000e+00 -1.535920e-02 2.569007e-03 0.000000e+00 -2.865293e-03 6.514370e-03 0.000000e+00 -1.187350e-02 1.296927e-02 0.000000e+00 -1.065296e-02 1.372040e-02 0.000000e+00 -1.184537e-02 1.167157e-02 0.000000e+00 -1.891530e-02 3.224713e-03 0.000000e+00 -7.420233e-03 2.372283e-03 0.000000e+00 -7.764477e-03 2.356900e-03 0.000000e+00 -7.193037e-03 2.691877e-03 0.000000e+00 3.727220e-03 7.854223e-03 0.000000e+00 1.248573e-02 8.135577e-03 0.000000e+00 1.194527e-02 1.640010e-02 0.000000e+00 -4.269800e-03 2.476160e-03 0.000000e+00 -1.788833e-02 4.352280e-03 0.000000e+00 -6.495797e-03 2.888003e-03 0.000000e+00 -9.475977e-04 3.883497e-03 0.000000e+00 -5.739203e-03 3.297240e-03 0.000000e+00 1.223147e-02 9.438670e-03 0.000000e+00 -6.610013e-03 3.399960e-03 0.000000e+00 -3.599217e-03 1.270117e-02 0.000000e+00 -1.723153e-02 2.626887e-03 0.000000e+00 -3.959640e-03 2.772527e-03 0.000000e+00 -9.736680e-03 1.756013e-03 0.000000e+00 -1.840017e-02 3.179683e-03 0.000000e+00 -5.184983e-03 3.210377e-03 0.000000e+00 6.821800e-03 1.312750e-02 0.000000e+00 -1.200188e-03 2.899803e-03 0.000000e+00 -1.387831e-03 3.452787e-03 0.000000e+00 -4.043500e-03 3.305787e-03 0.000000e+00 -1.438377e-02 8.331100e-03 0.000000e+00 -1.384543e-02 3.556480e-03 0.000000e+00 -1.755063e-02 2.919223e-03 0.000000e+00 -1.744230e-02 3.436230e-03 0.000000e+00 -8.493413e-03 3.288777e-03 0.000000e+00 -1.473227e-02 7.242393e-03 0.000000e+00 -1.468030e-02 2.832790e-03 0.000000e+00 -1.057470e-03 4.532543e-03 0.000000e+00 -6.125120e-03 3.665847e-03 0.000000e+00 -8.930457e-03 1.538460e-02 0.000000e+00 -4.699720e-03 3.569023e-03 0.000000e+00 -4.805580e-03 4.196547e-03 0.000000e+00 -1.134593e-02 3.706283e-03 0.000000e+00 -1.088463e-02 3.376973e-03 0.000000e+00 -1.791760e-02 3.673560e-03 0.000000e+00 -1.298827e-02 3.175387e-03 0.000000e+00 -1.252070e-02 3.159380e-03 0.000000e+00 1.148431e-03 5.901070e-03 0.000000e+00 -7.526313e-03 6.125930e-03 0.000000e+00 -6.348597e-03 1.218810e-02 0.000000e+00 9.944867e-03 1.307290e-02 0.000000e+00 1.089731e-02 1.185607e-02 0.000000e+00 -2.461100e-03 2.350120e-03 0.000000e+00 1.075313e-02 9.606397e-03 0.000000e+00 -1.222137e-02 3.559740e-03 0.000000e+00 -1.719517e-02 4.868093e-03 0.000000e+00 -4.620123e-04 5.063147e-03 0.000000e+00 -1.001478e-02 2.728000e-03 0.000000e+00 1.275373e-02 1.764527e-02 0.000000e+00 -7.362847e-03 3.119283e-03 0.000000e+00 -7.963500e-03 2.652733e-03 0.000000e+00 -4.845170e-03 1.176763e-02 0.000000e+00 -1.490040e-02 3.914223e-03 0.000000e+00 8.487523e-03 1.261080e-02 0.000000e+00 1.013637e-02 1.068235e-02 0.000000e+00 -8.229780e-03 1.401857e-02 0.000000e+00 8.653530e-03 1.097362e-02 0.000000e+00 2.589219e-03 1.276427e-02 0.000000e+00 -1.329927e-02 3.672343e-03 0.000000e+00 7.731677e-03 1.001202e-02 0.000000e+00 4.151930e-03 9.101213e-03 0.000000e+00 -9.338280e-03 1.308823e-02 0.000000e+00 -7.067137e-03 3.512507e-03 0.000000e+00 5.459317e-03 9.183357e-03 0.000000e+00 -2.366837e-02 7.629943e-03 0.000000e+00 -1.689370e-02 3.546017e-03 0.000000e+00 -1.918807e-02 2.742643e-03 0.000000e+00 3.843907e-03 1.169663e-02 0.000000e+00 -9.268630e-03 3.276373e-03 0.000000e+00 -8.832853e-03 3.555863e-03 0.000000e+00 -5.758563e-04 1.288380e-02 0.000000e+00 8.971070e-04 1.206880e-02 0.000000e+00 -2.024352e-03 1.207883e-02 0.000000e+00 -2.239873e-02 1.694233e-03 0.000000e+00 -1.432877e-02 4.114027e-03 0.000000e+00 -1.414667e-02 6.556673e-03 0.000000e+00 -1.801880e-03 2.471090e-03 0.000000e+00 -1.699353e-03 4.750107e-03 0.000000e+00 -6.133437e-03 4.232630e-03 0.000000e+00 -5.518310e-03 4.536950e-03 0.000000e+00 -1.044850e-02 3.660183e-03 0.000000e+00 -1.139543e-02 4.312073e-03 0.000000e+00 -1.434227e-03 2.540360e-03 0.000000e+00 -7.188567e-03 1.122603e-02 0.000000e+00 -7.302283e-03 4.046530e-03 0.000000e+00 -1.550540e-02 5.481517e-03 0.000000e+00 -2.167613e-03 2.672053e-03 0.000000e+00 -1.539767e-02 3.087490e-03 0.000000e+00 -1.581773e-02 3.286977e-03 0.000000e+00 -1.494727e-02 3.272157e-03 0.000000e+00 -1.067011e-02 1.124327e-02 0.000000e+00 -7.789067e-03 3.095523e-03 0.000000e+00 -8.048273e-03 3.466010e-03 0.000000e+00 -1.238680e-02 4.119857e-03 0.000000e+00 -1.299713e-02 4.216453e-03 0.000000e+00 2.680020e-03 7.454917e-03 0.000000e+00 -2.970020e-03 3.209820e-03 0.000000e+00 -7.857200e-03 4.023793e-03 0.000000e+00 -3.453007e-03 3.579857e-03 0.000000e+00 -3.493653e-03 4.179940e-03 0.000000e+00 -2.390450e-03 3.195033e-03 0.000000e+00 -4.606983e-03 1.039577e-02 0.000000e+00 -6.130560e-04 5.782130e-03 0.000000e+00 -1.266643e-02 9.575283e-03 0.000000e+00 -1.332287e-02 8.581087e-03 0.000000e+00 -1.268200e-02 7.725413e-03 0.000000e+00 -1.315730e-02 6.789707e-03 0.000000e+00 3.280390e-03 1.013619e-02 0.000000e+00 1.974900e-03 9.722170e-03 0.000000e+00 1.799240e-03 8.287883e-03 0.000000e+00 8.463053e-04 1.058714e-02 0.000000e+00 -9.626547e-03 3.592587e-03 0.000000e+00 -6.853477e-03 4.500767e-03 0.000000e+00 -5.055653e-03 6.331243e-03 0.000000e+00 -4.190007e-03 4.533393e-03 0.000000e+00 -1.195147e-02 4.546143e-03 0.000000e+00 -1.581953e-02 4.818047e-03 0.000000e+00 -1.003932e-02 3.326650e-03 0.000000e+00 -2.030290e-03 3.625170e-03 0.000000e+00 -3.204090e-03 9.853840e-03 0.000000e+00 -1.455067e-02 5.638930e-03 0.000000e+00 -1.039437e-02 4.353167e-03 0.000000e+00 -1.497640e-02 2.423243e-03 0.000000e+00 -1.088000e-02 4.675747e-03 0.000000e+00 -2.381790e-02 2.182400e-03 0.000000e+00 -9.383557e-03 1.190880e-02 0.000000e+00 -1.655773e-02 3.962253e-03 0.000000e+00 -5.784650e-03 9.531123e-03 0.000000e+00 -6.862807e-03 9.940920e-03 0.000000e+00 -8.335000e-03 4.442427e-03 0.000000e+00 -2.919210e-03 4.527097e-03 0.000000e+00 6.227577e-03 1.034767e-02 0.000000e+00 -1.867412e-03 1.060337e-02 0.000000e+00 -1.065447e-02 1.018453e-02 0.000000e+00 -1.149577e-02 9.473480e-03 0.000000e+00 -1.867620e-03 5.471200e-03 0.000000e+00 -1.376780e-03 5.972620e-03 0.000000e+00 -1.104653e-02 8.517377e-03 0.000000e+00 -1.157633e-02 7.763507e-03 0.000000e+00 -1.659587e-02 4.596470e-03 0.000000e+00 -7.007970e-03 5.068920e-03 0.000000e+00 -3.196677e-03 8.573187e-03 0.000000e+00 -9.762650e-03 4.616700e-03 0.000000e+00 -1.593513e-02 3.809570e-03 0.000000e+00 -1.327447e-02 4.932837e-03 0.000000e+00 -5.498397e-03 5.181830e-03 0.000000e+00 -9.607103e-03 5.344920e-03 0.000000e+00 -1.276360e-02 5.442600e-03 0.000000e+00 -1.263253e-02 6.207270e-03 0.000000e+00 -1.205093e-02 5.152503e-03 0.000000e+00 -8.290273e-03 5.111377e-03 0.000000e+00 -7.676610e-03 5.384690e-03 0.000000e+00 -3.055120e-03 5.228960e-03 0.000000e+00 -2.536117e-03 5.696400e-03 0.000000e+00 -2.506078e-04 6.572903e-03 0.000000e+00 -4.697180e-04 9.926680e-03 0.000000e+00 -4.262470e-03 5.236267e-03 0.000000e+00 -4.858130e-03 5.544300e-03 0.000000e+00 -3.702027e-03 5.584677e-03 0.000000e+00 -8.424880e-03 1.119940e-02 0.000000e+00 -1.090533e-02 5.383190e-03 0.000000e+00 -1.152023e-02 5.625877e-03 0.000000e+00 -1.026416e-02 5.788830e-03 0.000000e+00 6.173822e-04 6.719787e-03 0.000000e+00 -8.660552e-04 7.175573e-03 0.000000e+00 -8.764823e-03 1.001159e-02 0.000000e+00 -9.707867e-03 9.662257e-03 0.000000e+00 -1.029816e-02 6.652047e-03 0.000000e+00 -2.228497e-03 8.033143e-03 0.000000e+00 8.143252e-04 7.898173e-03 0.000000e+00 -1.405993e-02 4.946273e-03 0.000000e+00 5.483707e-03 1.182597e-02 0.000000e+00 -6.567883e-03 5.545747e-03 0.000000e+00 -5.981993e-03 5.589420e-03 0.000000e+00 -7.858340e-03 9.308147e-03 0.000000e+00 -1.526510e-03 6.728503e-03 0.000000e+00 -9.964460e-03 8.622287e-03 0.000000e+00 -8.919583e-03 5.619700e-03 0.000000e+00 -8.865513e-03 4.151730e-03 0.000000e+00 -2.231940e-03 4.273443e-03 0.000000e+00 -2.346527e-03 7.045053e-03 0.000000e+00 -4.443163e-03 7.905127e-03 0.000000e+00 -1.176603e-02 6.318157e-03 0.000000e+00 -9.404010e-03 4.189653e-03 0.000000e+00 -8.121687e-03 8.318447e-03 0.000000e+00 -5.628243e-03 8.321133e-03 0.000000e+00 -9.284763e-03 7.981923e-03 0.000000e+00 -4.370603e-03 6.874583e-03 0.000000e+00 -7.545610e-03 7.626290e-03 0.000000e+00 -1.546820e-02 4.252150e-03 0.000000e+00 -1.118513e-02 6.938687e-03 0.000000e+00 -3.260382e-04 8.671997e-03 0.000000e+00  </DataArray>
</Points>
<Cells>
 <DataArray type="Int32" Name="connectivity" format="ascii">0 1 2 3 4 5 6 7 8 9 10 11 12 13 14 15 16 17 18 19 20 21 22 23 24 25 26 27 28 29 30 31 32 33 34 35 36 37 38 39 40 41 42 43 44 45 46 47 48 49 50 51 52 53 54 55 56 57 58 59 60 61 62 63 64 65 66 67 68 69 70 71 72 73 74 75 76 77 78 79 80 81 82 83 84 85 86 87 88 89 90 91 92 93 94 95 96 97 98 99 100 101 102 103 104 105 106 107 108 109 110 111 112 113 114 115 116 117 118 119 120 121 122 123 124 125 126 127 128 129 130 131 132 133 134 135 136 137 138 139 140 141 142 143 144 145 146 147 148 149 150 151 152 153 154 155 156 157 158 159 160 161 162 163 164 165 166 167 168 169 170 171 172 173 174 175 176 177 178 179 180 181 182 183 184 185 186 187 188 189 190 191 192 193 194 195 196 197 198 199 200 201 202 203 204 205 206 207 208 209 210 211 212 213 214 215 216 217 218 219 220 221 222 223 224 225 226 227 228 229 230 231 232 233 234 235 236 237 238 239 240 241 242 243 244 245 246 247 248 249 250 251 252 253 254 255 256 257 258 259 260 261 262 263 264 265 266 267 268 269 270 271 272 273 274 275 276 277 278 279 280 281 282 283 284 285 286 287 288 289 290 291 292 293 294 295 296 297 298 299 300 301 302 303 304 305 306 307 308 309 310 311 312 313 314 315 316 317 318 319 320 321 322 323 324 325 326 327 328 329 330 331 332 333 334 335 336 337 338 339 340 341 342 343 344 345 346 347 348 349 350 351 352 353 354 355 356 357 358 359 360 361 362 363 364 365 366 367 368 369 370 371 372 373 374 375 376 377 378 379 380 381 382 383 384 385 386 387 388 389 390 391 392 393 394 395 396 397 398 399 400 401 402 403 404 405 406 407 408 409 410 411 412 413 414 415 416 417 418 419 420 421 422 423 424 425 426 427 428 429 430 431 432 433 434 435 436 437 438 439 440 441 442 443 444 445 446 447 448 449 450 451 452 453 454 455 456 457 458 459 460 461 462 463 464 465 466 467 468 469 470 471 472 473 474 475 476 477 478 479 480 481 482 483 484 485 486 487 488 489 490 491 492 493 494 495 496 497 498 499 500 501 502 503 504 505 506 507 508 509 510 511 512 513 514 515 516 517 518 519 520 521 522 523 524 525 526 527 528 529 530 531 532 533 534 535 536 537 538 539 540 541 542 543 544 545 546 547 548 549 550 551 552 553 554 555 556 557 558 559 560 561 562 563 564 565 566 567 568 569 570 571 572 573 574 575 576 577 578 579 580 581 582 583 584 585 586 587 588 589 590 591 592 593 594 595 596 597 598 599 600 601 602 603 604 605 606 607 608 609 610 611 612 613 614 615 616 617 618 619 620 621 622 623 624 625 626 627 628 629 630 631 632 633 634 635 636 637 638 639 640 641 642 643 644 645 646 647 648 649 650 651 652 653 654 655 656 657 658 659 660 661 662 663 664 665 666 667 668 669 670 671 672 673 674 675 676 677 678 679 680 681 682 683 684 685 686 687 688 689 690 691 692 693 694 695 696 697 698 699 700 701 702 703 704 705 706 707 708 709 710 711 712 713 714 715 716 717 718 719 720 721 722 723 724 725 726 727 728 729 730 731 732 733 734 735 736 737 738 739 740 741 742 743 744 745 746 747 748 749 750 751 752 753 754 755 756 757 758 759 760 761 762 763 764 765 766 767 768 769 770 771 772 773 774 775 776 777 778 779 780 781 782 783 784 785 786 787 788 789 790 791 792 793 794 795 796 797 798 799 800 801 802 803 804 805 806 807 808 809 810 811 812 813 814 815 816 817 818 819 820 821 822 823 824 825 826 827 828 829 830 831 832 833 834 835 836 837 838 839 840 841 842 843 844 845 846 847 848 849 850 851 852 853 854 855 856 857 858 859 860 861 862 863 864 865 866 867 868 869 870 871 872 873 874 875 876 877 878 879 880 881 882 883 884 885 886 887 888 889 890 891 892 893 894 895 896 897 898 899 900 901 902 903 904 905 906 907 908 909 910 911 912 913 914 915 916 917 918 919 920 921 922 923 924 925 926 927 928 929 930 931 932 933 934 935 936 937 938 939 940 941 942 943 944 945 946 947 948 949 950 951 952 953 954 955 956 957 958 959 960 961 962 963 964 965 966 967 968 969 970 971 972 973 974 975 976 977 978 979 980 981 982 983 984 985 986 987 988 989 990 991 992 993 994 995 996 997 998 999 1000 1001 1002 1003 1004 1005 1006 1007 1008 1009 1010 1011 1012 1013 1014 1015 1016 1017 1018 1019 1020 1021 1022 1023 1024 1025 1026 1027 1028 1029 1030 1031 1032 1033 1034 1035 1036 1037 1038 1039 1040 1041 1042 1043 1044 1045 1046 1047 1048 1049 1050 1051 1052 1053 1054 1055 1056 1057 1058 1059 1060 1061 1062 1063 1064 1065 1066 1067 1068 1069 1070 1071 1072 1073 1074 1075 1076 1077 1078 1079 1080 1081 1082 1083 1084 1085 1086 1087 1088 1089 1090 1091 1092 1093 1094 1095 1096 1097 1098 1099 1100 1101 1102 1103 1104 1105 1106 1107 1108 1109 1110 1111 1112 1113 1114 1115 1116 1117 1118 1119 1120 1121 1122 1123 1124 1125 1126 1127 1128 1129 1130 1131 1132 1133 1134 1135 1136 1137 1138 1139 1140 1141 1142 1143 1144 1145 1146 1147 1148 1149 1150 1151 1152 1153 1154 1155 1156 1157 1158 1159 1160 1161 1162 1163 1164 1165 1166 1167 1168 1169 1170 1171 1172 1173 1174 1175 1176 1177 1178 1179 1180 1181 1182 1183 1184 1185 1186  </DataArray>
 <DataArray type="Int32" Name="offsets" format="ascii">1 2 3 4 5 6 7 8 9 10 11 12 13 14 15 16 17 18 19 20 21 22 23 24 25 26 27 28 29 30 31 32 33 34 35 36 37 38 39 40 41 42 43 44 45 46 47 48 49 50 51 52 53 54 55 56 57 58 59 60 61 62 63 64 65 66 67 68 69 70 71 72 73 74 75 76 77 78 79 80 81 82 83 84 85 86 87 88 89 90 91 92 93 94 95 96 97 98 99 100 101 102 103 104 105 106 107 108 109 110 111 112 113 114 115 116 117 118 119 120 121 122 123 124 125 126 127 128 129 130 131 132 133 134 135 136 137 138 139 140 141 142 143 144 145 146 147 148 149 150 151 152 153 154 155 156 157 158 159 160 161 162 163 164 165 166 167 168 169 170 171 172 173 174 175 176 177 178 179 180 181 182 183 184 185 186 187 188 189 190 191 192 193 194 195 196 197 198 199 200 201 202 203 204 205 206 207 208 209 210 211 212 213 214 215 216 217 218 219 220 221 222 223 224 225 226 227 228 229 230 231 232 233 234 235 236 237 238 239 240 241 242 243 244 245 246 247 248 249 250 251 252 253 254 255 256 257 258 259 260 261 262 263 264 265 266 267 268 269 270 271 272 273 274 275 276 277 278 279 280 281 282 283 284 285 286 287 288 289 290 291 292 293 294 295 296 297 298 299 300 301 302 303 304 305 306 307 308 309 310 311 312 313 314 315 316 317 318 319 320 321 322 323 324 325 326 327 328 329 330 331 332 333 334 335 336 337 338 339 340 341 342 343 344 345 346 347 348 349 350 351 352 353 354 355 356 357 358 359 360 361 362 363 364 365 366 367 368 369 370 371 372 373 374 375 376 377 378 379 380 381 382 383 384 385 386 387 388 389 390 391 392 393 394 395 396 397 398 399 400 401 402 403 404 405 406 407 408 409 410 411 412 413 414 415 416 417 418 419 420 421 422 423 424 425 426 427 428 429 430 431 432 433 434 435 436 437 438 439 440 441 442 443 444 445 446 447 448 449 450 451 452 453 454 455 456 457 458 459 460 461 462 463 464 465 466 467 468 469 470 471 472 473 474 475 476 477 478 479 480 481 482 483 484 485 486 487 488 489 490 491 492 493 494 495 496 497 498 499 500 501 502 503 504 505 506 507 508 509 510 511 512 513 514 515 516 517 518 519 520 521 522 523 524 525 526 527 528 529 530 531 532 533 534 535 536 537 538 539 540 541 542 543 544 545 546 547 548 549 550 551 552 553 554 555 556 557 558 559 560 561 562 563 564 565 566 567 568 569 570 571 572 573 574 575 576 577 578 579 580 581 582 583 584 585 586 587 588 589 590 591 592 593 594 595 596 597 598 599 600 601 602 603 604 605 606 607 608 609 610 611 612 613 614 615 616 617 618 619 620 621 622 623 624 625 626 627 628 629 630 631 632 633 634 635 636 637 638 639 640 641 642 643 644 645 646 647 648 649 650 651 652 653 654 655 656 657 658 659 660 661 662 663 664 665 666 667 668 669 670 671 672 673 674 675 676 677 678 679 680 681 682 683 684 685 686 687 688 689 690 691 692 693 694 695 696 697 698 699 700 701 702 703 704 705 706 707 708 709 710 711 712 713 714 715 716 717 718 719 720 721 722 723 724 725 726 727 728 729 730 731 732 733 734 735 736 737 738 739 740 741 742 743 744 745 746 747 748 749 750 751 752 753 754 755 756 757 758 759 760 761 762 763 764 765 766 767 768 769 770 771 772 773 774 775 776 777 778 779 780 781 782 783 784 785 786 787 788 789 790 791 792 793 794 795 796 797 798 799 800 801 802 803 804 805 806 807 808 809 810 811 812 813 814 815 816 817 818 819 820 821 822 823 824 825 826 827 828 829 830 831 832 833 834 835 836 837 838 839 840 841 842 843 844 845 846 847 848 849 850 851 852 853 854 855 856 857 858 859 860 861 862 863 864 865 866 867 868 869 870 871 872 873 874 875 876 877 878 879 880 881 882 883 884 885 886 887 888 889 890 891 892 893 894 895 896 897 898 899 900 901 902 903 904 905 906 907 908 909 910 911 912 913 914 915 916 917 918 919 920 921 922 923 924 925 926 927 928 929 930 931 932 933 934 935 936 937 938 939 940 941 942 943 944 945 946 947 948 949 950 951 952 953 954 955 956 957 958 959 960 961 962 963 964 965 966 967 968 969 970 971 972 973 974 975 976 977 978 979 980 981 982 983 984 985 986 987 988 989 990 991 992 993 994 995 996 997 998 999 1000 1001 1002 1003 1004 1005 1006 1007 1008 1009 1010 1011 1012 1013 1014 1015 1016 1017 1018 1019 1020 1021 1022 1023 1024 1025 1026 1027 1028 1029 1030 1031 1032 1033 1034 1035 1036 1037 1038 1039 1040 1041 1042 1043 1044 1045 1046 1047 1048 1049 1050 1051 1052 1053 1054 1055 1056 1057 1058 1059 1060 1061 1062 1063 1064 1065 1066 1067 1068 1069 1070 1071 1072 1073 1074 1075 1076 1077 1078 1079 1080 1081 1082 1083 1084 1085 1086 1087 1088 1089 1090 1091 1092 1093 1094 1095 1096 1097 1098 1099 1100 1101 1102 1103 1104 1105 1106 1107 1108 1109 1110 1111 1112 1113 1114 1115 1116 1117 1118 1119 1120 1121 1122 1123 1124 1125 1126 1127 1128 1129 1130 1131 1132 1133 1134 1135 1136 1137 1138 1139 1140 1141 1142 1143 1144 1145 1146 1147 1148 1149 1150 1151 1152 1153 1154 1155 1156 1157 1158 1159 1160 1161 1162 1163 1164 1165 1166 1167 1168 1169 1170 1171 1172 1173 1174 1175 1176 1177 1178 1179 1180 1181 1182 1183 1184 1185 1186 1187  </DataArray>
 <DataArray type="UInt8" Name="types" format="ascii">1 1 1 1 1 1 1 1 1 1 1 1 1 1 1 1 1 1 1 1 1 1 1 1 1 1 1 1 1 1 1 1 1 1 1 1 1 1 1 1 1 1 1 1 1 1 1 1 1 1 1 1 1 1 1 1 1 1 1 1 1 1 1 1 1 1 1 1 1 1 1 1 1 1 1 1 1 1 1 1 1 1 1 1 1 1 1 1 1 1 1 1 1 1 1 1 1 1 1 1 1 1 1 1 1 1 1 1 1 1 1 1 1 1 1 1 1 1 1 1 1 1 1 1 1 1 1 1 1 1 1 1 1 1 1 1 1 1 1 1 1 1 1 1 1 1 1 1 1 1 1 1 1 1 1 1 1 1 1 1 1 1 1 1 1 1 1 1 1 1 1 1 1 1 1 1 1 1 1 1 1 1 1 1 1 1 1 1 1 1 1 1 1 1 1 1 1 1 1 1 1 1 1 1 1 1 1 1 1 1 1 1 1 1 1 1 1 1 1 1 1 1 1 1 1 1 1 1 1 1 1 1 1 1 1 1 1 1 1 1 1 1 1 1 1 1 1 1 1 1 1 1 1 1 1 1 1 1 1 1 1 1 1 1 1 1 1 1 1 1 1 1 1 1 1 1 1 1 1 1 1 1 1 1 1 1 1 1 1 1 1 1 1 1 1 1 1 1 1 1 1 1 1 1 1 1 1 1 1 1 1 1 1 1 1 1 1 1 1 1 1 1 1 1 1 1 1 1 1 1 1 1 1 1 1 1 1 1 1 1 1 1 1 1 1 1 1 1 1 1 1 1 1 1 1 1 1 1 1 1 1 1 1 1 1 1 1 1 1 1 1 1 1 1 1 1 1 1 1 1 1 1 1 1 1 1 1 1 1 1 1 1 1 1 1 1 1 1 1 1 1 1 1 1 1 1 1 1 1 1 1 1 1 1 1 1 1 1 1 1 1 1 1 1 1 1 1 1 1 1 1 1 1 1 1 1 1 1 1 1 1 1 1 1 1 1 1 1 1 1 1 1 1 1 1 1 1 1 1 1 1 1 1 1 1 1 1 1 1 1 1 1 1 1 1 1 1 1 1 1 1 1 1 1 1 1 1 1 1 1 1 1 1 1 1 1 1 1 1 1 1 1 1 1 1 1 1 1 1 1 1 1 1 1 1 1 1 1 1 1 1 1 1 1 1 1 1 1 1 1 1 1 1 1 1 1 1 1 1 1 1 1 1 1 1 1 1 1 1 1 1 1 1 1 1 1 1 1 1 1 1 1 1 1 1 1 1 1 1 1 1 1 1 1 1 1 1 1 1 1 1 1 1 1 1 1 1 1 1 1 1 1 1 1 1 1 1 1 1 1 1 1 1 1 1 1 1 1 1 1 1 1 1 1 1 1 1 1 1 1 1 1 1 1 1 1 1 1 1 1 1 1 1 1 1 1 1 1 1 1 1 1 1 1 1 1 1 1 1 1 1 1 1 1 1 1 1 1 1 1 1 1 1 1 1 1 1 1 1 1 1 1 1 1 1 1 1 1 1 1 1 1 1 1 1 1 1 1 1 1 1 1 1 1 1 1 1 1 1 1 1 1 1 1 1 1 1 1 1 1 1 1 1 1 1 1 1 1 1 1 1 1 1 1 1 1 1 1 1 1 1 1 1 1 1 1 1 1 1 1 1 1 1 1 1 1 1 1 1 1 1 1 1 1 1 1 1 1 1 1 1 1 1 1 1 1 1 1 1 1 1 1 1 1 1 1 1 1 1 1 1 1 1 1 1 1 1 1 1 1 1 1 1 1 1 1 1 1 1 1 1 1 1 1 1 1 1 1 1 1 1 1 1 1 1 1 1 1 1 1 1 1 1 1 1 1 1 1 1 1 1 1 1 1 1 1 1 1 1 1 1 1 1 1 1 1 1 1 1 1 1 1 1 1 1 1 1 1 1 1 1 1 1 1 1 1 1 1 1 1 1 1 1 1 1 1 1 1 1 1 1 1 1 1 1 1 1 1 1 1 1 1 1 1 1 1 1 1 1 1 1 1 1 1 1 1 1 1 1 1 1 1 1 1 1 1 1 1 1 1 1 1 1 1 1 1 1 1 1 1 1 1 1 1 1 1 1 1 1 1 1 1 1 1 1 1 1 1 1 1 1 1 1 1 1 1 1 1 1 1 1 1 1 1 1 1 1 1 1 1 1 1 1 1 1 1 1 1 1 1 1 1 1 1 1 1 1 1 1 1 1 1 1 1 1 1 1 1 1 1 1 1 1 1 1 1 1 1 1 1 1 1 1 1 1 1 1 1 1 1 1 1 1 1 1 1 1 1 1 1 1 1 1 1 1 1 1 1 1 1 1 1 1 1 1 1 1 1 1 1 1 1 1 1 1 1 1 1 1 1 1 1 1 1 1 1 1 1 1 1 1 1 1 1 1 1 1 1 1 1 1 1 1 1 1 1 1 1 1 1 1 1 1 1 1 1 1 1 1 1 1 1 1 1 1 1 1 1 1 1 1 1 1 1 1 1 1 1 1 1 1 1 1 1 1 1 1 1 1 1 1 1 1 1 1 1 1 1 1 1 1 1 1 1 1 1 1 1 1 1 1 1 1 1 1 1 1 1 1 1 1 1 1 1 1 1 1 1 1 1 1 1 1 1 1 1 1 1 1 1 1 1 1 1 1 1 1  </DataArray>
</Cells>
<PointData Scalars="" Vectors="IST_PrincipalStressTensor IST_PrincStressVector1 " Tensors="IST_StressTensor IST_StrainTensor " >
  <DataArray type="Float64" Name="IST_StressTensor" NumberOfComponents="9" format="ascii">-2.484676e+00 -9.862417e-01 0.000000e+00 -9.862417e-01 -1.974270e+01 0.000000e+00 0.000000e+00 0.000000e+00 0.000000e+00 -8.013327e-01 -4.475220e-01 0.000000e+00 -4.475220e-01 -1.764431e+01 0.000000e+00 0.000000e+00 0.000000e+00 0.000000e+00 7.725761e-02 -3.267816e-01 0.000000e+00 -3.267816e-01 -1.573379e+01 0.000000e+00 0.000000e+00 0.000000e+00 0.000000e+00 6.536963e-01 -2.912329e-01 0.000000e+00 -2.912329e-01 -1.392429e+01 0.000000e+00 0.000000e+00 0.000000e+00 0.000000e+00 1.196254e+00 -2.888695e-01 0.000000e+00 -2.888695e-01 -1.226526e+01 0.000000e+00 0.000000e+00 0.000000e+00 0.000000e+00 1.761619e+00 -2.952062e-01 0.000000e+00 -2.952062e-01 -1.064703e+01 0.000000e+00 0.000000e+00 0.000000e+00 0.000000e+00 2.392611e+00 -2.788145e-01 0.000000e+00 -2.788145e-01 -9.173793e+00 0.000000e+00 0.000000e+00 0.000000e+00 0.000000e+00 3.070446e+00 -2.895068e-01 0.000000e+00 -2.895068e-01 -7.769547e+00 0.000000e+00 0.000000e+00 0.000000e+00 0.000000e+00 3.818433e+00 -3.035229e-01 0.000000e+00 -3.035229e-01 -6.430409e+00 0.000000e+00 0.000000e+00 0.000000e+00 0.000000e+00 4.625254e+00 -3.229280e-01 0.000000e+00 -3.229280e-01 -5.142945e+00 0.000000e+00 0.000000e+00 0.000000e+00 0.000000e+00 5.482568e+00 -3.481889e-01 0.000000e+00 -3.481889e-01 -3.823548e+00 0.000000e+00 0.000000e+00 0.000000e+00 0.000000e+00 6.437801e+00 -3.537254e-01 0.000000e+00 -3.537254e-01 -2.585151e+00 0.000000e+00 0.000000e+00 0.000000e+00 0.000000e+00 7.467787e+00 -3.854057e-01 0.000000e+00 -3.854057e-01 -1.352399e+00 0.000000e+00 0.000000e+00 0.000000e+00 0.000000e+00 8.565639e+00 -4.088365e-01 0.000000e+00 -4.088365e-01 -9.909428e-03 0.000000e+00 0.000000e+00 0.000000e+00 0.000000e+00 9.790788e+00 -4.293047e-01 0.000000e+00 -4.293047e-01 1.316101e+00 0.000000e+00 0.000000e+00 0.000000e+00 0.000000e+00 1.110013e+01 -4.827317e-01 0.000000e+00 -4.827317e-01 2.827806e+00 0.000000e+00 0.000000e+00 0.000000e+00 0.000000e+00 1.255853e+01 -5.512588e-01 0.000000e+00 -5.512588e-01 4.455383e+00 0.000000e+00 0.000000e+00 0.000000e+00 0.000000e+00 1.425377e+01 -6.193747e-01 0.000000e+00 -6.193747e-01 6.127637e+00 0.000000e+00 0.000000e+00 0.000000e+00 0.000000e+00 1.616625e+01 -6.332863e-01 0.000000e+00 -6.332863e-01 8.220242e+00 0.000000e+00 0.000000e+00 0.000000e+00 0.000000e+00 1.844011e+01 -8.426163e-01 0.000000e+00 -8.426163e-01 1.055498e+01 0.000000e+00 0.000000e+00 0.000000e+00 0.000000e+00 2.130535e+01 -1.091634e+00 0.000000e+00 -1.091634e+00 1.338424e+01 0.000000e+00 0.000000e+00 0.000000e+00 0.000000e+00 2.522629e+01 -1.438293e+00 0.000000e+00 -1.438293e+00 1.719999e+01 0.000000e+00 0.000000e+00 0.000000e+00 0.000000e+00 3.121069e+01 -2.498853e+00 0.000000e+00 -2.498853e+00 2.262459e+01 0.000000e+00 0.000000e+00 0.000000e+00 0.000000e+00 4.263511e+01 -6.074566e+00 0.000000e+00 -6.074566e+00 3.300863e+01 0.000000e+00 0.000000e+00 0.000000e+00 0.000000e+00 6.476729e+01 -1.935007e+01 0.000000e+00 -1.935007e+01 6.649256e+01 0.000000e+00 0.000000e+00 0.000000e+00 0.000000e+00 7.189358e+00 3.712115e-01 0.000000e+00 3.712115e-01 2.448649e-01 0.000000e+00 0.000000e+00 0.000000e+00 0.000000e+00 6.302082e+00 4.255188e-01 0.000000e+00 4.255188e-01 -1.042466e-01 0.000000e+00 0.000000e+00 0.000000e+00 0.000000e+00 4.864442e+00 5.729769e-01 0.000000e+00 5.729769e-01 -6.469074e-02 0.000000e+00 0.000000e+00 0.000000e+00 0.000000e+00 2.509153e+00 7.668423e-01 0.000000e+00 7.668423e-01 1.247594e-01 0.000000e+00 0.000000e+00 0.000000e+00 0.000000e+00 3.068270e+00 8.960114e-01 0.000000e+00 8.960114e-01 3.488422e-01 0.000000e+00 0.000000e+00 0.000000e+00 0.000000e+00 5.367669e+00 1.997371e+00 0.000000e+00 1.997371e+00 9.712882e-01 0.000000e+00 0.000000e+00 0.000000e+00 0.000000e+00 6.286528e+00 1.395024e+00 0.000000e+00 1.395024e+00 7.143373e-01 0.000000e+00 0.000000e+00 0.000000e+00 0.000000e+00 1.536144e+00 7.432699e-01 0.000000e+00 7.432699e-01 1.277142e-01 0.000000e+00 0.000000e+00 0.000000e+00 0.000000e+00 -1.193376e+00 3.982670e-01 0.000000e+00 3.982670e-01 4.412668e-01 0.000000e+00 0.000000e+00 0.000000e+00 0.000000e+00 -1.072128e+00 -2.303510e-01 0.000000e+00 -2.303510e-01 1.414862e-01 0.000000e+00 0.000000e+00 0.000000e+00 0.000000e+00 -9.627120e-02 -9.922731e-02 0.000000e+00 -9.922731e-02 -1.022742e-01 0.000000e+00 0.000000e+00 0.000000e+00 0.000000e+00 -2.692778e-02 -1.084525e-01 0.000000e+00 -1.084525e-01 -4.039001e-01 0.000000e+00 0.000000e+00 0.000000e+00 0.000000e+00 1.056444e-01 9.761049e-02 0.000000e+00 9.761049e-02 -6.073248e-01 0.000000e+00 0.000000e+00 0.000000e+00 0.000000e+00 -7.761868e-03 1.900211e-01 0.000000e+00 1.900211e-01 6.747446e-02 0.000000e+00 0.000000e+00 0.000000e+00 0.000000e+00 -8.062647e-02 6.916696e-02 0.000000e+00 6.916696e-02 6.139436e-01 0.000000e+00 0.000000e+00 0.000000e+00 0.000000e+00 -4.183406e-02 -1.067928e-01 0.000000e+00 -1.067928e-01 3.566756e-01 0.000000e+00 0.000000e+00 0.000000e+00 0.000000e+00 3.644333e-02 -9.117714e-02 0.000000e+00 -9.117714e-02 9.620476e-02 0.000000e+00 0.000000e+00 0.000000e+00 0.000000e+00 9.088063e-03 -1.156024e-01 0.000000e+00 -1.156024e-01 5.499920e-02 0.000000e+00 0.000000e+00 0.000000e+00 0.000000e+00 9.985721e-02 -1.082804e-01 0.000000e+00 -1.082804e-01 -3.497780e-02 0.000000e+00 0.000000e+00 0.000000e+00 0.000000e+00 3.095093e-01 -6.025241e-02 0.000000e+00 -6.025241e-02 2.827484e-03 0.000000e+00 0.000000e+00 0.000000e+00 0.000000e+00 4.727697e-01 1.878098e-02 0.000000e+00 1.878098e-02 -1.845000e-01 0.000000e+00 0.000000e+00 0.000000e+00 0.000000e+00 -5.220203e-01 4.499889e-01 0.000000e+00 4.499889e-01 -2.229217e-01 0.000000e+00 0.000000e+00 0.000000e+00 0.000000e+00 -3.995721e+00 9.329191e-01 0.000000e+00 9.329191e-01 -1.093024e-01 0.000000e+00 0.000000e+00 0.000000e+00 0.000000e+00 -8.578995e+00 1.011521e+00 0.000000e+00 1.011521e+00 1.794237e-01 0.000000e+00 0.000000e+00 0.000000e+00 0.000000e+00 -1.183424e+01 5.048557e-01 0.000000e+00 5.048557e-01 6.712474e-01 0.000000e+00 0.000000e+00 0.000000e+00 0.000000e+00 -9.068982e+00 -1.134502e+00 0.000000e+00 -1.134502e+00 9.118643e-01 0.000000e+00 0.000000e+00 0.000000e+00 0.000000e+00 -4.222589e+00 -1.720343e+00 0.000000e+00 -1.720343e+00 1.971678e-01 0.000000e+00 0.000000e+00 0.000000e+00 0.000000e+00 -6.898577e-01 -6.476496e-01 0.000000e+00 -6.476496e-01 -5.663220e-01 0.000000e+00 0.000000e+00 0.000000e+00 0.000000e+00 -3.142744e+00 -1.528932e+00 0.000000e+00 -1.528932e+00 -4.694029e-01 0.000000e+00 0.000000e+00 0.000000e+00 0.000000e+00 -5.636205e-01 -6.210748e-01 0.000000e+00 -6.210748e-01 -6.179595e-01 0.000000e+00 0.000000e+00 0.000000e+00 0.000000e+00 -1.693885e-01 -1.670385e+00 0.000000e+00 -1.670385e+00 -3.753959e+00 0.000000e+00 0.000000e+00 0.000000e+00 0.000000e+00 2.947074e-01 5.029965e-01 0.000000e+00 5.029965e-01 -3.985316e-01 0.000000e+00 0.000000e+00 0.000000e+00 0.000000e+00 6.244226e-01 2.551746e-01 0.000000e+00 2.551746e-01 -3.975179e-01 0.000000e+00 0.000000e+00 0.000000e+00 0.000000e+00 7.783947e-01 -7.118835e-02 0.000000e+00 -7.118835e-02 -2.097610e-01 0.000000e+00 0.000000e+00 0.000000e+00 0.000000e+00 6.975952e-01 -2.869156e-01 0.000000e+00 -2.869156e-01 1.582319e-01 0.000000e+00 0.000000e+00 0.000000e+00 0.000000e+00 3.667928e-01 -2.569352e-01 0.000000e+00 -2.569352e-01 6.067641e-01 0.000000e+00 0.000000e+00 0.000000e+00 0.000000e+00 1.178439e-02 1.962027e-01 0.000000e+00 1.962027e-01 1.021094e+00 0.000000e+00 0.000000e+00 0.000000e+00 0.000000e+00 8.872465e-03 8.215203e-01 0.000000e+00 8.215203e-01 1.176865e+00 0.000000e+00 0.000000e+00 0.000000e+00 0.000000e+00 8.913832e-02 1.699548e+00 0.000000e+00 1.699548e+00 1.117513e+00 0.000000e+00 0.000000e+00 0.000000e+00 0.000000e+00 3.947531e-01 2.542899e+00 0.000000e+00 2.542899e+00 9.754591e-01 0.000000e+00 0.000000e+00 0.000000e+00 0.000000e+00 1.442382e+00 3.320211e+00 0.000000e+00 3.320211e+00 7.310786e-01 0.000000e+00 0.000000e+00 0.000000e+00 0.000000e+00 1.988231e+00 3.665190e+00 0.000000e+00 3.665190e+00 3.480584e-01 0.000000e+00 0.000000e+00 0.000000e+00 0.000000e+00 2.191642e+00 3.768856e+00 0.000000e+00 3.768856e+00 1.721448e-02 0.000000e+00 0.000000e+00 0.000000e+00 0.000000e+00 2.006539e+00 3.704375e+00 0.000000e+00 3.704375e+00 -1.383734e-01 0.000000e+00 0.000000e+00 0.000000e+00 0.000000e+00 1.365845e+00 3.601121e+00 0.000000e+00 3.601121e+00 -1.756394e-01 0.000000e+00 0.000000e+00 0.000000e+00 0.000000e+00 4.700783e-01 3.591501e+00 0.000000e+00 3.591501e+00 -1.538945e-01 0.000000e+00 0.000000e+00 0.000000e+00 0.000000e+00 -4.433169e-01 3.777647e+00 0.000000e+00 3.777647e+00 -1.102154e-01 0.000000e+00 0.000000e+00 0.000000e+00 0.000000e+00 -9.017049e-01 4.082844e+00 0.000000e+00 4.082844e+00 -3.388907e-01 0.000000e+00 0.000000e+00 0.000000e+00 0.000000e+00 -8.770012e-01 4.165812e+00 0.000000e+00 4.165812e+00 -8.618097e-01 0.000000e+00 0.000000e+00 0.000000e+00 0.000000e+00 -4.603048e-01 3.856048e+00 0.000000e+00 3.856048e+00 -1.447458e+00 0.000000e+00 0.000000e+00 0.000000e+00 0.000000e+00 8.185628e-03 3.214160e+00 0.000000e+00 3.214160e+00 -1.851746e+00 0.000000e+00 0.000000e+00 0.000000e+00 0.000000e+00 3.111212e-01 2.502701e+00 0.000000e+00 2.502701e+00 -2.090105e+00 0.000000e+00 0.000000e+00 0.000000e+00 0.000000e+00 4.601707e-01 1.647781e+00 0.000000e+00 1.647781e+00 -2.202974e+00 0.000000e+00 0.000000e+00 0.000000e+00 0.000000e+00 3.593047e-01 8.204933e-01 0.000000e+00 8.204933e-01 -2.003000e+00 0.000000e+00 0.000000e+00 0.000000e+00 0.000000e+00 5.243943e-02 2.254697e-01 0.000000e+00 2.254697e-01 -1.613744e+00 0.000000e+00 0.000000e+00 0.000000e+00 0.000000e+00 -3.595041e-01 1.061473e-01 0.000000e+00 1.061473e-01 -9.723202e-01 0.000000e+00 0.000000e+00 0.000000e+00 0.000000e+00 -4.584595e-01 2.683692e-01 0.000000e+00 2.683692e-01 -5.879728e-01 0.000000e+00 0.000000e+00 0.000000e+00 0.000000e+00 -3.050741e-01 4.552984e-01 0.000000e+00 4.552984e-01 -4.053235e-01 0.000000e+00 0.000000e+00 0.000000e+00 0.000000e+00 -4.438996e-02 5.536492e-01 0.000000e+00 5.536492e-01 -3.780622e-01 0.000000e+00 0.000000e+00 0.000000e+00 0.000000e+00 1.748946e-03 -1.238842e-01 0.000000e+00 -1.238842e-01 -1.031976e-01 0.000000e+00 0.000000e+00 0.000000e+00 0.000000e+00 -4.148052e+00 -8.521018e-01 0.000000e+00 -8.521018e-01 -2.024171e+01 0.000000e+00 0.000000e+00 0.000000e+00 0.000000e+00 -1.463295e+00 -6.296822e-01 0.000000e+00 -6.296822e-01 -1.873083e+01 0.000000e+00 0.000000e+00 0.000000e+00 0.000000e+00 -1.114912e+00 -4.419508e-01 0.000000e+00 -4.419508e-01 -1.888512e+01 0.000000e+00 0.000000e+00 0.000000e+00 0.000000e+00 -6.529525e-01 -1.806182e-01 0.000000e+00 -1.806182e-01 -1.801026e+01 0.000000e+00 0.000000e+00 0.000000e+00 0.000000e+00 -2.981494e-01 -3.648516e-01 0.000000e+00 -3.648516e-01 -1.667638e+01 0.000000e+00 0.000000e+00 0.000000e+00 0.000000e+00 1.406113e-03 -2.243952e-02 0.000000e+00 -2.243952e-02 -1.614673e+01 0.000000e+00 0.000000e+00 0.000000e+00 0.000000e+00 3.732832e-01 -3.091639e-01 0.000000e+00 -3.091639e-01 -1.478889e+01 0.000000e+00 0.000000e+00 0.000000e+00 0.000000e+00 9.167361e-01 -2.858488e-01 0.000000e+00 -2.858488e-01 -1.306685e+01 0.000000e+00 0.000000e+00 0.000000e+00 0.000000e+00 1.468911e+00 -3.034283e-01 0.000000e+00 -3.034283e-01 -1.143737e+01 0.000000e+00 0.000000e+00 0.000000e+00 0.000000e+00 1.295428e+00 2.423076e-03 0.000000e+00 2.423076e-03 -1.184254e+01 0.000000e+00 0.000000e+00 0.000000e+00 0.000000e+00 1.639114e+00 -1.200716e-02 0.000000e+00 -1.200716e-02 -1.103788e+01 0.000000e+00 0.000000e+00 0.000000e+00 0.000000e+00 2.063974e+00 -2.836326e-01 0.000000e+00 -2.836326e-01 -9.874422e+00 0.000000e+00 0.000000e+00 0.000000e+00 0.000000e+00 2.737680e+00 -2.823328e-01 0.000000e+00 -2.823328e-01 -8.504140e+00 0.000000e+00 0.000000e+00 0.000000e+00 0.000000e+00 3.429747e+00 -2.978348e-01 0.000000e+00 -2.978348e-01 -7.073816e+00 0.000000e+00 0.000000e+00 0.000000e+00 0.000000e+00 4.206488e+00 -3.164449e-01 0.000000e+00 -3.164449e-01 -5.762913e+00 0.000000e+00 0.000000e+00 0.000000e+00 0.000000e+00 3.975226e+00 -8.275664e-02 0.000000e+00 -8.275664e-02 -6.090950e+00 0.000000e+00 0.000000e+00 0.000000e+00 0.000000e+00 4.394432e+00 -1.033561e-01 0.000000e+00 -1.033561e-01 -5.446212e+00 0.000000e+00 0.000000e+00 0.000000e+00 0.000000e+00 5.051849e+00 -3.371830e-01 0.000000e+00 -3.371830e-01 -4.501718e+00 0.000000e+00 0.000000e+00 0.000000e+00 0.000000e+00 5.946385e+00 -3.487487e-01 0.000000e+00 -3.487487e-01 -3.188577e+00 0.000000e+00 0.000000e+00 0.000000e+00 0.000000e+00 6.943247e+00 -3.667256e-01 0.000000e+00 -3.667256e-01 -1.974980e+00 0.000000e+00 0.000000e+00 0.000000e+00 0.000000e+00 6.648605e+00 -1.486810e-01 0.000000e+00 -1.486810e-01 -2.284414e+00 0.000000e+00 0.000000e+00 0.000000e+00 0.000000e+00 7.141584e+00 -1.589089e-01 0.000000e+00 -1.589089e-01 -1.665417e+00 0.000000e+00 0.000000e+00 0.000000e+00 0.000000e+00 8.014339e+00 -3.964519e-01 0.000000e+00 -3.964519e-01 -7.131271e-01 0.000000e+00 0.000000e+00 0.000000e+00 0.000000e+00 9.155603e+00 -4.133953e-01 0.000000e+00 -4.133953e-01 6.740783e-01 0.000000e+00 0.000000e+00 0.000000e+00 0.000000e+00 1.043812e+01 -4.564424e-01 0.000000e+00 -4.564424e-01 2.030239e+00 0.000000e+00 0.000000e+00 0.000000e+00 0.000000e+00 1.003119e+01 -2.092652e-01 0.000000e+00 -2.092652e-01 1.663924e+00 0.000000e+00 0.000000e+00 0.000000e+00 0.000000e+00 1.069833e+01 -2.054038e-01 0.000000e+00 -2.054038e-01 2.404342e+00 0.000000e+00 0.000000e+00 0.000000e+00 0.000000e+00 1.180450e+01 -5.150913e-01 0.000000e+00 -5.150913e-01 3.640791e+00 0.000000e+00 0.000000e+00 0.000000e+00 0.000000e+00 1.208307e+01 -2.524357e-01 0.000000e+00 -2.524357e-01 4.006269e+00 0.000000e+00 0.000000e+00 0.000000e+00 0.000000e+00 1.338749e+01 -5.886856e-01 0.000000e+00 -5.886856e-01 5.242037e+00 0.000000e+00 0.000000e+00 0.000000e+00 0.000000e+00 1.515708e+01 -6.291021e-01 0.000000e+00 -6.291021e-01 7.163824e+00 0.000000e+00 0.000000e+00 0.000000e+00 0.000000e+00 1.728722e+01 -6.883390e-01 0.000000e+00 -6.883390e-01 9.287180e+00 0.000000e+00 0.000000e+00 0.000000e+00 0.000000e+00 1.657585e+01 -3.313176e-01 0.000000e+00 -3.313176e-01 8.726441e+00 0.000000e+00 0.000000e+00 0.000000e+00 0.000000e+00 1.746044e+01 -3.706559e-01 0.000000e+00 -3.706559e-01 9.820465e+00 0.000000e+00 0.000000e+00 0.000000e+00 0.000000e+00 1.978709e+01 -9.573311e-01 0.000000e+00 -9.573311e-01 1.188106e+01 0.000000e+00 0.000000e+00 0.000000e+00 0.000000e+00 2.310476e+01 -1.261032e+00 0.000000e+00 -1.261032e+00 1.506529e+01 0.000000e+00 0.000000e+00 0.000000e+00 0.000000e+00 2.786916e+01 -1.778178e+00 0.000000e+00 -1.778178e+00 1.964103e+01 0.000000e+00 0.000000e+00 0.000000e+00 0.000000e+00 3.581579e+01 -3.747252e+00 0.000000e+00 -3.747252e+00 2.683655e+01 0.000000e+00 0.000000e+00 0.000000e+00 0.000000e+00 2.995617e+01 -1.750189e+00 0.000000e+00 -1.750189e+00 2.371672e+01 0.000000e+00 0.000000e+00 0.000000e+00 0.000000e+00 3.229103e+01 -2.783488e+00 0.000000e+00 -2.783488e+00 2.782271e+01 0.000000e+00 0.000000e+00 0.000000e+00 0.000000e+00 5.272838e+01 -1.076891e+01 0.000000e+00 -1.076891e+01 4.393739e+01 0.000000e+00 0.000000e+00 0.000000e+00 0.000000e+00 1.128329e+01 2.684229e-01 0.000000e+00 2.684229e-01 -4.615516e-02 0.000000e+00 0.000000e+00 0.000000e+00 0.000000e+00 6.744728e+00 4.883469e-02 0.000000e+00 4.883469e-02 -4.020203e-01 0.000000e+00 0.000000e+00 0.000000e+00 0.000000e+00 6.780946e+00 3.374598e-01 0.000000e+00 3.374598e-01 -4.750093e-02 0.000000e+00 0.000000e+00 0.000000e+00 0.000000e+00 5.655160e+00 5.031676e-01 0.000000e+00 5.031676e-01 -6.461764e-02 0.000000e+00 0.000000e+00 0.000000e+00 0.000000e+00 3.870187e+00 6.710614e-01 0.000000e+00 6.710614e-01 -9.222678e-02 0.000000e+00 0.000000e+00 0.000000e+00 0.000000e+00 3.433494e+00 1.487832e+00 0.000000e+00 1.487832e+00 1.367262e-01 0.000000e+00 0.000000e+00 0.000000e+00 0.000000e+00 4.465780e+00 1.265908e+00 0.000000e+00 1.265908e+00 7.234918e-01 0.000000e+00 0.000000e+00 0.000000e+00 0.000000e+00 4.047640e+00 1.677406e+00 0.000000e+00 1.677406e+00 8.450085e-01 0.000000e+00 0.000000e+00 0.000000e+00 0.000000e+00 3.450345e+00 8.840739e-01 0.000000e+00 8.840739e-01 1.418537e-01 0.000000e+00 0.000000e+00 0.000000e+00 0.000000e+00 -1.596251e-02 6.291300e-01 0.000000e+00 6.291300e-01 3.466930e-01 0.000000e+00 0.000000e+00 0.000000e+00 0.000000e+00 -2.274085e-01 2.696232e-01 0.000000e+00 2.696232e-01 -1.712797e-01 0.000000e+00 0.000000e+00 0.000000e+00 0.000000e+00 -6.953117e-01 -1.288277e-01 0.000000e+00 -1.288277e-01 -1.165241e-01 0.000000e+00 0.000000e+00 0.000000e+00 0.000000e+00 -1.509864e+00 7.613365e-03 0.000000e+00 7.613365e-03 3.037479e-01 0.000000e+00 0.000000e+00 0.000000e+00 0.000000e+00 -4.551553e-01 -2.253510e-01 0.000000e+00 -2.253510e-01 -1.935069e-02 0.000000e+00 0.000000e+00 0.000000e+00 0.000000e+00 7.703733e-03 -1.289174e-01 0.000000e+00 -1.289174e-01 -3.613235e-01 0.000000e+00 0.000000e+00 0.000000e+00 0.000000e+00 1.014475e-01 -3.656391e-02 0.000000e+00 -3.656391e-02 -6.436300e-01 0.000000e+00 0.000000e+00 0.000000e+00 0.000000e+00 5.508954e-03 -1.000569e-02 0.000000e+00 -1.000569e-02 -4.843840e-01 0.000000e+00 0.000000e+00 0.000000e+00 0.000000e+00 6.059843e-02 1.687900e-01 0.000000e+00 1.687900e-01 -3.326271e-01 0.000000e+00 0.000000e+00 0.000000e+00 0.000000e+00 -6.479967e-02 1.383365e-01 0.000000e+00 1.383365e-01 3.923425e-01 0.000000e+00 0.000000e+00 0.000000e+00 0.000000e+00 -6.258195e-02 -2.515764e-02 0.000000e+00 -2.515764e-02 5.725669e-01 0.000000e+00 0.000000e+00 0.000000e+00 0.000000e+00 -3.960184e+00 9.878065e-01 0.000000e+00 9.878065e-01 4.798787e-04 0.000000e+00 0.000000e+00 0.000000e+00 0.000000e+00 -6.291120e+00 1.012912e+00 0.000000e+00 1.012912e+00 -2.314823e-02 0.000000e+00 0.000000e+00 0.000000e+00 0.000000e+00 1.077992e-01 -9.109621e-02 0.000000e+00 -9.109621e-02 3.692266e-02 0.000000e+00 0.000000e+00 0.000000e+00 0.000000e+00 8.527333e-03 6.707371e-02 0.000000e+00 6.707371e-02 5.338363e-02 0.000000e+00 0.000000e+00 0.000000e+00 0.000000e+00 2.445781e-01 2.155858e-01 0.000000e+00 2.155858e-01 -2.399517e-01 0.000000e+00 0.000000e+00 0.000000e+00 0.000000e+00 -4.983590e-01 3.031881e-01 0.000000e+00 3.031881e-01 3.628284e-02 0.000000e+00 0.000000e+00 0.000000e+00 0.000000e+00 -1.938951e+00 7.151929e-01 0.000000e+00 7.151929e-01 -2.151086e-01 0.000000e+00 0.000000e+00 0.000000e+00 0.000000e+00 -5.663227e+00 1.002422e+00 0.000000e+00 1.002422e+00 -7.850080e-02 0.000000e+00 0.000000e+00 0.000000e+00 0.000000e+00 -1.060046e+01 8.402439e-01 0.000000e+00 8.402439e-01 3.968440e-01 0.000000e+00 0.000000e+00 0.000000e+00 0.000000e+00 -7.423860e+00 -1.223840e+00 0.000000e+00 -1.223840e+00 -2.230337e-01 0.000000e+00 0.000000e+00 0.000000e+00 0.000000e+00 -1.148248e+01 -2.512211e-01 0.000000e+00 -2.512211e-01 9.081113e-01 0.000000e+00 0.000000e+00 0.000000e+00 0.000000e+00 -5.405485e+00 -1.336705e+00 0.000000e+00 -1.336705e+00 -3.661778e-01 0.000000e+00 0.000000e+00 0.000000e+00 0.000000e+00 5.559625e-01 2.702527e-01 0.000000e+00 2.702527e-01 -2.953218e-01 0.000000e+00 0.000000e+00 0.000000e+00 0.000000e+00 1.760463e-01 4.448864e-01 0.000000e+00 4.448864e-01 -3.123696e-01 0.000000e+00 0.000000e+00 0.000000e+00 0.000000e+00 7.922823e-01 -5.335612e-02 0.000000e+00 -5.335612e-02 -1.797477e-01 0.000000e+00 0.000000e+00 0.000000e+00 0.000000e+00 7.754351e-01 -3.593742e-01 0.000000e+00 -3.593742e-01 1.269293e-01 0.000000e+00 0.000000e+00 0.000000e+00 0.000000e+00 6.432172e-01 -5.055602e-01 0.000000e+00 -5.055602e-01 6.709117e-01 0.000000e+00 0.000000e+00 0.000000e+00 0.000000e+00 3.351155e-01 -2.366640e-01 0.000000e+00 -2.366640e-01 1.341095e+00 0.000000e+00 0.000000e+00 0.000000e+00 0.000000e+00 2.493986e-01 4.274879e-01 0.000000e+00 4.274879e-01 1.681629e+00 0.000000e+00 0.000000e+00 0.000000e+00 0.000000e+00 4.647593e-01 1.292988e+00 0.000000e+00 1.292988e+00 2.005609e+00 0.000000e+00 0.000000e+00 0.000000e+00 0.000000e+00 9.521368e-01 2.194618e+00 0.000000e+00 2.194618e+00 1.784206e+00 0.000000e+00 0.000000e+00 0.000000e+00 0.000000e+00 1.822948e+00 3.062423e+00 0.000000e+00 3.062423e+00 1.642779e+00 0.000000e+00 0.000000e+00 0.000000e+00 0.000000e+00 2.273986e+00 3.481227e+00 0.000000e+00 3.481227e+00 9.698613e-01 0.000000e+00 0.000000e+00 0.000000e+00 0.000000e+00 2.355007e+00 3.625525e+00 0.000000e+00 3.625525e+00 4.562532e-01 0.000000e+00 0.000000e+00 0.000000e+00 0.000000e+00 2.078215e+00 3.729823e+00 0.000000e+00 3.729823e+00 8.249424e-02 0.000000e+00 0.000000e+00 0.000000e+00 0.000000e+00 1.572909e+00 3.779273e+00 0.000000e+00 3.779273e+00 -4.297102e-02 0.000000e+00 0.000000e+00 0.000000e+00 0.000000e+00 8.954510e-01 3.831771e+00 0.000000e+00 3.831771e+00 -4.644526e-02 0.000000e+00 0.000000e+00 0.000000e+00 0.000000e+00 1.008463e-01 3.943260e+00 0.000000e+00 3.943260e+00 -3.321788e-02 0.000000e+00 0.000000e+00 0.000000e+00 0.000000e+00 -6.003190e-01 4.115168e+00 0.000000e+00 4.115168e+00 -2.823442e-01 0.000000e+00 0.000000e+00 0.000000e+00 0.000000e+00 -1.029643e+00 4.193837e+00 0.000000e+00 4.193837e+00 -8.772471e-01 0.000000e+00 0.000000e+00 0.000000e+00 0.000000e+00 -1.147783e+00 4.031532e+00 0.000000e+00 4.031532e+00 -1.627365e+00 0.000000e+00 0.000000e+00 0.000000e+00 0.000000e+00 -9.592040e-01 3.537909e+00 0.000000e+00 3.537909e+00 -2.238940e+00 0.000000e+00 0.000000e+00 0.000000e+00 0.000000e+00 -6.374561e-01 2.841269e+00 0.000000e+00 2.841269e+00 -2.603357e+00 0.000000e+00 0.000000e+00 0.000000e+00 0.000000e+00 -2.878083e-01 2.053094e+00 0.000000e+00 2.053094e+00 -2.892094e+00 0.000000e+00 0.000000e+00 0.000000e+00 0.000000e+00 -1.268238e-01 1.151239e+00 0.000000e+00 1.151239e+00 -2.851461e+00 0.000000e+00 0.000000e+00 0.000000e+00 0.000000e+00 -2.048212e-01 3.929428e-01 0.000000e+00 3.929428e-01 -2.386585e+00 0.000000e+00 0.000000e+00 0.000000e+00 0.000000e+00 -4.444879e-01 -3.352600e-02 0.000000e+00 -3.352600e-02 -1.658738e+00 0.000000e+00 0.000000e+00 0.000000e+00 0.000000e+00 -5.393673e-01 9.879157e-03 0.000000e+00 9.879157e-03 -9.281393e-01 0.000000e+00 0.000000e+00 0.000000e+00 0.000000e+00 -4.335877e-01 2.249224e-01 0.000000e+00 2.249224e-01 -5.218313e-01 0.000000e+00 0.000000e+00 0.000000e+00 0.000000e+00 -1.913946e-01 4.064712e-01 0.000000e+00 4.064712e-01 -3.386145e-01 0.000000e+00 0.000000e+00 0.000000e+00 0.000000e+00 1.839419e+00 8.354028e-01 0.000000e+00 8.354028e-01 1.316098e+01 0.000000e+00 0.000000e+00 0.000000e+00 0.000000e+00 -3.201121e-01 -7.879564e-02 0.000000e+00 -7.879564e-02 -1.707224e+01 0.000000e+00 0.000000e+00 0.000000e+00 0.000000e+00 2.798517e-01 1.146531e-02 0.000000e+00 1.146531e-02 -1.523078e+01 0.000000e+00 0.000000e+00 0.000000e+00 0.000000e+00 8.062550e-01 1.378396e-02 0.000000e+00 1.378396e-02 -1.347202e+01 0.000000e+00 0.000000e+00 0.000000e+00 0.000000e+00 2.241108e+00 -4.100680e-02 0.000000e+00 -4.100680e-02 -9.527169e+00 0.000000e+00 0.000000e+00 0.000000e+00 0.000000e+00 1.943569e+00 -2.089919e-02 0.000000e+00 -2.089919e-02 -1.026191e+01 0.000000e+00 0.000000e+00 0.000000e+00 0.000000e+00 2.555247e+00 -4.885377e-02 0.000000e+00 -4.885377e-02 -8.838700e+00 0.000000e+00 0.000000e+00 0.000000e+00 0.000000e+00 3.227381e+00 -6.133456e-02 0.000000e+00 -6.133456e-02 -7.425364e+00 0.000000e+00 0.000000e+00 0.000000e+00 0.000000e+00 5.231421e+00 -1.085082e-01 0.000000e+00 -1.085082e-01 -4.141515e+00 0.000000e+00 0.000000e+00 0.000000e+00 0.000000e+00 4.789885e+00 -9.845838e-02 0.000000e+00 -9.845838e-02 -4.807869e+00 0.000000e+00 0.000000e+00 0.000000e+00 0.000000e+00 5.710100e+00 -1.340073e-01 0.000000e+00 -1.340073e-01 -3.497230e+00 0.000000e+00 0.000000e+00 0.000000e+00 0.000000e+00 8.249847e+00 -1.682919e-01 0.000000e+00 -1.682919e-01 -3.578978e-01 0.000000e+00 0.000000e+00 0.000000e+00 0.000000e+00 7.696650e+00 -1.676575e-01 0.000000e+00 -1.676575e-01 -1.022967e+00 0.000000e+00 0.000000e+00 0.000000e+00 0.000000e+00 8.843875e+00 -1.769076e-01 0.000000e+00 -1.769076e-01 3.340635e-01 0.000000e+00 0.000000e+00 0.000000e+00 0.000000e+00 1.136396e+01 -2.176278e-01 0.000000e+00 -2.176278e-01 3.194981e+00 0.000000e+00 0.000000e+00 0.000000e+00 0.000000e+00 1.286128e+01 -2.920506e-01 0.000000e+00 -2.920506e-01 4.809914e+00 0.000000e+00 0.000000e+00 0.000000e+00 0.000000e+00 1.469361e+01 -2.768811e-01 0.000000e+00 -2.768811e-01 6.612412e+00 0.000000e+00 0.000000e+00 0.000000e+00 0.000000e+00 2.018400e+01 -5.183658e-01 0.000000e+00 -5.183658e-01 1.250046e+01 0.000000e+00 0.000000e+00 0.000000e+00 0.000000e+00 1.879200e+01 -4.480425e-01 0.000000e+00 -4.480425e-01 1.110714e+01 0.000000e+00 0.000000e+00 0.000000e+00 0.000000e+00 2.172833e+01 -6.004165e-01 0.000000e+00 -6.004165e-01 1.405854e+01 0.000000e+00 0.000000e+00 0.000000e+00 0.000000e+00 2.566845e+01 -8.347194e-01 0.000000e+00 -8.347194e-01 1.816226e+01 0.000000e+00 0.000000e+00 0.000000e+00 0.000000e+00 3.276691e+01 -5.837964e+00 0.000000e+00 -5.837964e+00 4.506382e+01 0.000000e+00 0.000000e+00 0.000000e+00 0.000000e+00 3.364708e+01 -4.401959e+00 0.000000e+00 -4.401959e+00 3.395486e+01 0.000000e+00 0.000000e+00 0.000000e+00 0.000000e+00 8.952274e+00 4.818274e-01 0.000000e+00 4.818274e-01 -4.341928e-02 0.000000e+00 0.000000e+00 0.000000e+00 0.000000e+00 6.499782e+00 5.077009e-01 0.000000e+00 5.077009e-01 2.695055e-02 0.000000e+00 0.000000e+00 0.000000e+00 0.000000e+00 4.812556e+00 6.249374e-01 0.000000e+00 6.249374e-01 1.295589e-02 0.000000e+00 0.000000e+00 0.000000e+00 0.000000e+00 3.679025e+00 9.860924e-01 0.000000e+00 9.860924e-01 -9.334391e-02 0.000000e+00 0.000000e+00 0.000000e+00 0.000000e+00 1.240683e+00 5.966918e-01 0.000000e+00 5.966918e-01 -1.102769e-01 0.000000e+00 0.000000e+00 0.000000e+00 0.000000e+00 -7.397937e-01 -2.815915e-02 0.000000e+00 -2.815915e-02 -1.897942e-01 0.000000e+00 0.000000e+00 0.000000e+00 0.000000e+00 -4.413643e-01 -1.945822e-01 0.000000e+00 -1.945822e-01 -5.407135e-02 0.000000e+00 0.000000e+00 0.000000e+00 0.000000e+00 -7.732048e-03 1.176473e-01 0.000000e+00 1.176473e-01 -4.041947e-01 0.000000e+00 0.000000e+00 0.000000e+00 0.000000e+00 -2.079957e-02 1.989050e-01 0.000000e+00 1.989050e-01 -2.087047e-02 0.000000e+00 0.000000e+00 0.000000e+00 0.000000e+00 -6.920492e-03 -6.680727e-04 0.000000e+00 -6.680727e-04 1.908455e-01 0.000000e+00 0.000000e+00 0.000000e+00 0.000000e+00 -1.343185e+00 5.613888e-01 0.000000e+00 5.613888e-01 3.156034e-03 0.000000e+00 0.000000e+00 0.000000e+00 0.000000e+00 -7.070549e+00 8.688466e-01 0.000000e+00 8.688466e-01 -1.485733e-01 0.000000e+00 0.000000e+00 0.000000e+00 0.000000e+00 -8.355398e+00 -2.220739e-02 0.000000e+00 -2.220739e-02 -1.486945e-01 0.000000e+00 0.000000e+00 0.000000e+00 0.000000e+00 2.040822e-01 -1.468572e+00 0.000000e+00 -1.468572e+00 -4.867842e+00 0.000000e+00 0.000000e+00 0.000000e+00 0.000000e+00 3.606596e+00 -7.450915e-02 0.000000e+00 -7.450915e-02 -6.747017e+00 0.000000e+00 0.000000e+00 0.000000e+00 0.000000e+00 2.746070e+01 -1.173258e+00 0.000000e+00 -1.173258e+00 2.056708e+01 0.000000e+00 0.000000e+00 0.000000e+00 0.000000e+00 5.593799e+00 5.515731e-01 0.000000e+00 5.515731e-01 2.447095e-02 0.000000e+00 0.000000e+00 0.000000e+00 0.000000e+00 4.021966e+00 7.054272e-01 0.000000e+00 7.054272e-01 -3.455359e-02 0.000000e+00 0.000000e+00 0.000000e+00 0.000000e+00 -1.988129e-02 -7.108585e-02 0.000000e+00 -7.108585e-02 1.313989e-01 0.000000e+00 0.000000e+00 0.000000e+00 0.000000e+00 1.052258e+00 3.372574e-03 0.000000e+00 3.372574e-03 -1.264975e+01 0.000000e+00 0.000000e+00 0.000000e+00 0.000000e+00 5.714769e-01 2.158898e-02 0.000000e+00 2.158898e-02 -1.432774e+01 0.000000e+00 0.000000e+00 0.000000e+00 0.000000e+00 2.885870e+00 -3.964122e-02 0.000000e+00 -3.964122e-02 -8.130796e+00 0.000000e+00 0.000000e+00 0.000000e+00 0.000000e+00 6.176304e+00 -1.449313e-01 0.000000e+00 -1.449313e-01 -2.888110e+00 0.000000e+00 0.000000e+00 0.000000e+00 0.000000e+00 9.413946e+00 -2.030529e-01 0.000000e+00 -2.030529e-01 9.944108e-01 0.000000e+00 0.000000e+00 0.000000e+00 0.000000e+00 1.565748e+01 -2.768460e-01 0.000000e+00 -2.768460e-01 7.679508e+00 0.000000e+00 0.000000e+00 0.000000e+00 0.000000e+00 1.373784e+01 -3.025007e-01 0.000000e+00 -3.025007e-01 5.651444e+00 0.000000e+00 0.000000e+00 0.000000e+00 0.000000e+00 2.367885e+01 -6.388948e-01 0.000000e+00 -6.388948e-01 1.597487e+01 0.000000e+00 0.000000e+00 0.000000e+00 0.000000e+00 7.625485e+00 5.002154e-01 0.000000e+00 5.002154e-01 3.895930e-02 0.000000e+00 0.000000e+00 0.000000e+00 0.000000e+00 2.603405e+00 7.752682e-01 0.000000e+00 7.752682e-01 -3.064026e-02 0.000000e+00 0.000000e+00 0.000000e+00 0.000000e+00 -2.463440e-03 7.383467e-02 0.000000e+00 7.383467e-02 1.784166e-01 0.000000e+00 0.000000e+00 0.000000e+00 0.000000e+00 -3.514670e-05 1.977087e-01 0.000000e+00 1.977087e-01 -2.086418e-01 0.000000e+00 0.000000e+00 0.000000e+00 0.000000e+00 -2.489176e+00 7.961205e-01 0.000000e+00 7.961205e-01 -9.085480e-03 0.000000e+00 0.000000e+00 0.000000e+00 0.000000e+00 -8.124776e+00 5.616343e-01 0.000000e+00 5.616343e-01 -2.360458e-01 0.000000e+00 0.000000e+00 0.000000e+00 0.000000e+00 3.035085e-01 -6.184204e-01 0.000000e+00 -6.184204e-01 -1.531302e+01 0.000000e+00 0.000000e+00 0.000000e+00 0.000000e+00 7.832991e-01 -5.819638e-01 0.000000e+00 -5.819638e-01 -1.352539e+01 0.000000e+00 0.000000e+00 0.000000e+00 0.000000e+00 2.894028e+00 -6.437475e-01 0.000000e+00 -6.437475e-01 -8.131826e+00 0.000000e+00 0.000000e+00 0.000000e+00 0.000000e+00 2.218642e+00 -6.156002e-01 0.000000e+00 -6.156002e-01 -9.541017e+00 0.000000e+00 0.000000e+00 0.000000e+00 0.000000e+00 5.298062e-01 -6.013313e-01 0.000000e+00 -6.013313e-01 -1.443500e+01 0.000000e+00 0.000000e+00 0.000000e+00 0.000000e+00 7.773183e-01 -2.344617e-01 0.000000e+00 -2.344617e-01 -1.393876e+01 0.000000e+00 0.000000e+00 0.000000e+00 0.000000e+00 2.553388e+00 -6.200574e-01 0.000000e+00 -6.200574e-01 -8.803242e+00 0.000000e+00 0.000000e+00 0.000000e+00 0.000000e+00 2.401235e+00 -3.699521e-01 0.000000e+00 -3.699521e-01 -9.172089e+00 0.000000e+00 0.000000e+00 0.000000e+00 0.000000e+00 2.601645e+00 -3.843045e-01 0.000000e+00 -3.843045e-01 -8.484632e+00 0.000000e+00 0.000000e+00 0.000000e+00 0.000000e+00 1.881770e+00 -6.290675e-01 0.000000e+00 -6.290675e-01 -1.024113e+01 0.000000e+00 0.000000e+00 0.000000e+00 0.000000e+00 2.192952e+00 -3.565875e-01 0.000000e+00 -3.565875e-01 -9.884126e+00 0.000000e+00 0.000000e+00 0.000000e+00 0.000000e+00 6.175028e+00 -8.562112e-01 0.000000e+00 -8.562112e-01 -2.888735e+00 0.000000e+00 0.000000e+00 0.000000e+00 0.000000e+00 5.222586e+00 -8.346056e-01 0.000000e+00 -8.346056e-01 -4.170019e+00 0.000000e+00 0.000000e+00 0.000000e+00 0.000000e+00 2.844627e+01 -4.529813e+00 0.000000e+00 -4.529813e+00 2.158876e+01 0.000000e+00 0.000000e+00 0.000000e+00 0.000000e+00 5.662642e+00 -8.439626e-01 0.000000e+00 -8.439626e-01 -3.499672e+00 0.000000e+00 0.000000e+00 0.000000e+00 0.000000e+00 5.487435e+00 -5.913003e-01 0.000000e+00 -5.913003e-01 -3.831515e+00 0.000000e+00 0.000000e+00 0.000000e+00 0.000000e+00 5.906696e+00 -6.331766e-01 0.000000e+00 -6.331766e-01 -3.190036e+00 0.000000e+00 0.000000e+00 0.000000e+00 0.000000e+00 4.819892e+00 -7.987896e-01 0.000000e+00 -7.987896e-01 -4.815135e+00 0.000000e+00 0.000000e+00 0.000000e+00 0.000000e+00 4.896428e+00 -5.707606e-01 0.000000e+00 -5.707606e-01 -4.504573e+00 0.000000e+00 0.000000e+00 0.000000e+00 0.000000e+00 8.220985e+00 -1.028380e+00 0.000000e+00 -1.028380e+00 -3.373535e-01 0.000000e+00 0.000000e+00 0.000000e+00 0.000000e+00 9.413039e+00 -1.046168e+00 0.000000e+00 -1.046168e+00 1.005574e+00 0.000000e+00 0.000000e+00 0.000000e+00 0.000000e+00 8.805584e+00 -1.039850e+00 0.000000e+00 -1.039850e+00 3.185260e-01 0.000000e+00 0.000000e+00 0.000000e+00 0.000000e+00 8.485407e+00 -7.979777e-01 0.000000e+00 -7.979777e-01 -1.552998e-02 0.000000e+00 0.000000e+00 0.000000e+00 0.000000e+00 9.151570e+00 -7.908588e-01 0.000000e+00 -7.908588e-01 6.605479e-01 0.000000e+00 0.000000e+00 0.000000e+00 0.000000e+00 7.673050e+00 -9.914349e-01 0.000000e+00 -9.914349e-01 -1.035624e+00 0.000000e+00 0.000000e+00 0.000000e+00 0.000000e+00 7.791460e+00 -7.507649e-01 0.000000e+00 -7.507649e-01 -7.104439e-01 0.000000e+00 0.000000e+00 0.000000e+00 0.000000e+00 1.144944e+01 -1.275240e+00 0.000000e+00 -1.275240e+00 3.316744e+00 0.000000e+00 0.000000e+00 0.000000e+00 0.000000e+00 1.540204e+01 -1.610184e+00 0.000000e+00 -1.610184e+00 7.814040e+00 0.000000e+00 0.000000e+00 0.000000e+00 0.000000e+00 1.294464e+01 -1.459517e+00 0.000000e+00 -1.459517e+00 4.970590e+00 0.000000e+00 0.000000e+00 0.000000e+00 0.000000e+00 1.453492e+01 -1.619366e+00 0.000000e+00 -1.619366e+00 6.800477e+00 0.000000e+00 0.000000e+00 0.000000e+00 0.000000e+00 1.504822e+01 -1.247804e+00 0.000000e+00 -1.247804e+00 7.233537e+00 0.000000e+00 0.000000e+00 0.000000e+00 0.000000e+00 2.337869e+01 -3.238814e+00 0.000000e+00 -3.238814e+00 1.645429e+01 0.000000e+00 0.000000e+00 0.000000e+00 0.000000e+00 2.029185e+01 -2.612430e+00 0.000000e+00 -2.612430e+00 1.293532e+01 0.000000e+00 0.000000e+00 0.000000e+00 0.000000e+00 1.370128e+01 -1.558884e+00 0.000000e+00 -1.558884e+00 5.845515e+00 0.000000e+00 0.000000e+00 0.000000e+00 0.000000e+00 1.297796e+01 -1.191805e+00 0.000000e+00 -1.191805e+00 5.280046e+00 0.000000e+00 0.000000e+00 0.000000e+00 0.000000e+00 1.381042e+01 -1.226284e+00 0.000000e+00 -1.226284e+00 6.197033e+00 0.000000e+00 0.000000e+00 0.000000e+00 0.000000e+00 2.180420e+01 -2.960217e+00 0.000000e+00 -2.960217e+00 1.464866e+01 0.000000e+00 0.000000e+00 0.000000e+00 0.000000e+00 1.986515e+01 -2.183592e+00 0.000000e+00 -2.183592e+00 1.345794e+01 0.000000e+00 0.000000e+00 0.000000e+00 0.000000e+00 2.144017e+01 -2.406565e+00 0.000000e+00 -2.406565e+00 1.515066e+01 0.000000e+00 0.000000e+00 0.000000e+00 0.000000e+00 1.900853e+01 -2.273517e+00 0.000000e+00 -2.273517e+00 1.140279e+01 0.000000e+00 0.000000e+00 0.000000e+00 0.000000e+00 1.844804e+01 -1.919321e+00 0.000000e+00 -1.919321e+00 1.190334e+01 0.000000e+00 0.000000e+00 0.000000e+00 0.000000e+00 2.580193e+01 -3.643774e+00 0.000000e+00 -3.643774e+00 1.887357e+01 0.000000e+00 0.000000e+00 0.000000e+00 0.000000e+00 2.353901e+01 -2.573857e+00 0.000000e+00 -2.573857e+00 1.716875e+01 0.000000e+00 0.000000e+00 0.000000e+00 0.000000e+00 2.390902e+01 -3.328239e+00 0.000000e+00 -3.328239e+00 1.961629e+01 0.000000e+00 0.000000e+00 0.000000e+00 0.000000e+00 7.492449e+00 1.492201e+00 0.000000e+00 1.492201e+00 1.534513e-01 0.000000e+00 0.000000e+00 0.000000e+00 0.000000e+00 3.437917e+01 -8.828583e+00 0.000000e+00 -8.828583e+00 4.779837e+01 0.000000e+00 0.000000e+00 0.000000e+00 0.000000e+00 5.630320e+00 1.322089e+00 0.000000e+00 1.322089e+00 -5.491581e-02 0.000000e+00 0.000000e+00 0.000000e+00 0.000000e+00 8.982393e+00 1.932072e+00 0.000000e+00 1.932072e+00 6.047805e-01 0.000000e+00 0.000000e+00 0.000000e+00 0.000000e+00 8.634408e+00 1.625487e+00 0.000000e+00 1.625487e+00 6.128992e-02 0.000000e+00 0.000000e+00 0.000000e+00 0.000000e+00 1.113202e+01 3.047536e+00 0.000000e+00 3.047536e+00 1.591625e+00 0.000000e+00 0.000000e+00 0.000000e+00 0.000000e+00 1.023524e+01 2.197260e+00 0.000000e+00 2.197260e+00 2.054271e-01 0.000000e+00 0.000000e+00 0.000000e+00 0.000000e+00 3.584460e+01 -9.487478e+00 0.000000e+00 -9.487478e+00 3.850530e+01 0.000000e+00 0.000000e+00 0.000000e+00 0.000000e+00 2.371047e+01 -5.166678e+00 0.000000e+00 -5.166678e+00 4.209135e+01 0.000000e+00 0.000000e+00 0.000000e+00 0.000000e+00 6.502783e+00 1.371060e+00 0.000000e+00 1.371060e+00 3.695303e-02 0.000000e+00 0.000000e+00 0.000000e+00 0.000000e+00 6.136498e+00 1.314217e+00 0.000000e+00 1.314217e+00 -3.873822e-02 0.000000e+00 0.000000e+00 0.000000e+00 0.000000e+00 1.391368e+01 -1.008636e+00 0.000000e+00 -1.008636e+00 -5.035298e+00 0.000000e+00 0.000000e+00 0.000000e+00 0.000000e+00 2.270174e+00 1.861481e+00 0.000000e+00 1.861481e+00 2.258602e-01 0.000000e+00 0.000000e+00 0.000000e+00 0.000000e+00 4.206454e+00 1.371626e+00 0.000000e+00 1.371626e+00 -1.394694e-01 0.000000e+00 0.000000e+00 0.000000e+00 0.000000e+00 3.371174e+00 1.958617e+00 0.000000e+00 1.958617e+00 5.235217e-01 0.000000e+00 0.000000e+00 0.000000e+00 0.000000e+00 3.125713e+00 1.867729e+00 0.000000e+00 1.867729e+00 4.303170e-01 0.000000e+00 0.000000e+00 0.000000e+00 0.000000e+00 -1.297886e-01 -1.070325e-01 0.000000e+00 -1.070325e-01 8.393701e-02 0.000000e+00 0.000000e+00 0.000000e+00 0.000000e+00 4.534569e+00 1.348119e+00 0.000000e+00 1.348119e+00 -9.835931e-02 0.000000e+00 0.000000e+00 0.000000e+00 0.000000e+00 1.114489e+00 1.623903e+00 0.000000e+00 1.623903e+00 3.477123e-01 0.000000e+00 0.000000e+00 0.000000e+00 0.000000e+00 -2.057135e-01 2.049730e-01 0.000000e+00 2.049730e-01 8.304345e-02 0.000000e+00 0.000000e+00 0.000000e+00 0.000000e+00 2.628057e-01 2.097707e-01 0.000000e+00 2.097707e-01 -3.368525e-01 0.000000e+00 0.000000e+00 0.000000e+00 0.000000e+00 -5.205821e-01 -2.268937e-01 0.000000e+00 -2.268937e-01 4.006993e-01 0.000000e+00 0.000000e+00 0.000000e+00 0.000000e+00 -3.047551e-01 -4.041914e-01 0.000000e+00 -4.041914e-01 6.903564e-02 0.000000e+00 0.000000e+00 0.000000e+00 0.000000e+00 -1.763285e-01 -2.329428e-01 0.000000e+00 -2.329428e-01 -9.684305e-02 0.000000e+00 0.000000e+00 0.000000e+00 0.000000e+00 -3.769243e-01 -7.733607e-01 0.000000e+00 -7.733607e-01 -1.730319e+01 0.000000e+00 0.000000e+00 0.000000e+00 0.000000e+00 1.936357e-01 -2.189362e-01 0.000000e+00 -2.189362e-01 -2.933744e-01 0.000000e+00 0.000000e+00 0.000000e+00 0.000000e+00 3.502250e-01 -1.488388e-02 0.000000e+00 -1.488388e-02 -3.810181e-01 0.000000e+00 0.000000e+00 0.000000e+00 0.000000e+00 1.073505e-01 -1.755966e-01 0.000000e+00 -1.755966e-01 -3.354171e-01 0.000000e+00 0.000000e+00 0.000000e+00 0.000000e+00 1.191845e-01 1.346439e-01 0.000000e+00 1.346439e-01 -4.197217e-01 0.000000e+00 0.000000e+00 0.000000e+00 0.000000e+00 -2.935195e+00 1.907284e+00 0.000000e+00 1.907284e+00 -5.030636e-01 0.000000e+00 0.000000e+00 0.000000e+00 0.000000e+00 -1.756930e-01 -1.822529e-03 0.000000e+00 -1.822529e-03 1.435871e-01 0.000000e+00 0.000000e+00 0.000000e+00 0.000000e+00 -7.888627e-02 9.405992e-02 0.000000e+00 9.405992e-02 -9.744221e-02 0.000000e+00 0.000000e+00 0.000000e+00 0.000000e+00 -1.027373e-01 1.251534e-02 0.000000e+00 1.251534e-02 -2.065473e-01 0.000000e+00 0.000000e+00 0.000000e+00 0.000000e+00 7.004484e-02 3.433698e-01 0.000000e+00 3.433698e-01 -1.736366e-01 0.000000e+00 0.000000e+00 0.000000e+00 0.000000e+00 -1.605610e+00 1.410401e+00 0.000000e+00 1.410401e+00 -5.826161e-01 0.000000e+00 0.000000e+00 0.000000e+00 0.000000e+00 -4.265555e+00 2.197191e+00 0.000000e+00 2.197191e+00 -1.474482e-01 0.000000e+00 0.000000e+00 0.000000e+00 0.000000e+00 -3.175583e-02 -1.182337e-01 0.000000e+00 -1.182337e-01 4.448475e-02 0.000000e+00 0.000000e+00 0.000000e+00 0.000000e+00 -6.863861e-02 -6.135995e-02 0.000000e+00 -6.135995e-02 -2.627843e-01 0.000000e+00 0.000000e+00 0.000000e+00 0.000000e+00 1.292898e-02 -4.538224e-02 0.000000e+00 -4.538224e-02 -3.114704e-01 0.000000e+00 0.000000e+00 0.000000e+00 0.000000e+00 -6.974524e+00 1.924126e+00 0.000000e+00 1.924126e+00 7.057863e-01 0.000000e+00 0.000000e+00 0.000000e+00 0.000000e+00 -6.934966e+00 -1.799658e+00 0.000000e+00 -1.799658e+00 1.785790e+00 0.000000e+00 0.000000e+00 0.000000e+00 0.000000e+00 -6.703300e-01 8.363678e-01 0.000000e+00 8.363678e-01 -6.423315e-01 0.000000e+00 0.000000e+00 0.000000e+00 0.000000e+00 -7.849791e-01 1.111067e+00 0.000000e+00 1.111067e+00 -1.143028e-01 0.000000e+00 0.000000e+00 0.000000e+00 0.000000e+00 -5.682958e+00 2.275137e+00 0.000000e+00 2.275137e+00 3.107911e-01 0.000000e+00 0.000000e+00 0.000000e+00 0.000000e+00 -3.656648e+00 2.326916e+00 0.000000e+00 2.326916e+00 -6.830710e-02 0.000000e+00 0.000000e+00 0.000000e+00 0.000000e+00 -4.633558e+00 2.196392e+00 0.000000e+00 2.196392e+00 3.543499e-02 0.000000e+00 0.000000e+00 0.000000e+00 0.000000e+00 -5.012358e+00 -3.159524e+00 0.000000e+00 -3.159524e+00 8.575158e-01 0.000000e+00 0.000000e+00 0.000000e+00 0.000000e+00 -4.443756e-01 -3.452369e+00 0.000000e+00 -3.452369e+00 -5.002146e+00 0.000000e+00 0.000000e+00 0.000000e+00 0.000000e+00 -2.152241e+00 -3.160835e+00 0.000000e+00 -3.160835e+00 -3.886694e-01 0.000000e+00 0.000000e+00 0.000000e+00 0.000000e+00 -4.742138e-01 -1.581558e+00 0.000000e+00 -1.581558e+00 -3.062165e+00 0.000000e+00 0.000000e+00 0.000000e+00 0.000000e+00 1.025354e-02 -6.619981e-01 0.000000e+00 -6.619981e-01 -1.630095e+01 0.000000e+00 0.000000e+00 0.000000e+00 0.000000e+00 1.115866e-01 -3.696721e-01 0.000000e+00 -3.696721e-01 -1.667135e+01 0.000000e+00 0.000000e+00 0.000000e+00 0.000000e+00 2.717086e-01 -2.527071e-01 0.000000e+00 -2.527071e-01 -1.571364e+01 0.000000e+00 0.000000e+00 0.000000e+00 0.000000e+00 1.218026e+01 -1.361199e+00 0.000000e+00 -1.361199e+00 4.159098e+00 0.000000e+00 0.000000e+00 0.000000e+00 0.000000e+00 1.157023e+01 -1.011005e+00 0.000000e+00 -1.011005e+00 3.643149e+00 0.000000e+00 0.000000e+00 0.000000e+00 0.000000e+00 1.226513e+01 -1.105174e+00 0.000000e+00 -1.105174e+00 4.459914e+00 0.000000e+00 0.000000e+00 0.000000e+00 0.000000e+00 2.846835e+01 4.228832e+00 0.000000e+00 4.228832e+00 6.859625e+01 0.000000e+00 0.000000e+00 0.000000e+00 0.000000e+00 -1.708775e-01 3.186428e-01 0.000000e+00 3.186428e-01 -6.017858e-01 0.000000e+00 0.000000e+00 0.000000e+00 0.000000e+00 -4.186508e-02 8.645931e-02 0.000000e+00 8.645931e-02 -3.943395e-02 0.000000e+00 0.000000e+00 0.000000e+00 0.000000e+00 -3.149998e-01 5.824796e-01 0.000000e+00 5.824796e-01 -1.197837e-01 0.000000e+00 0.000000e+00 0.000000e+00 0.000000e+00 -6.388143e-01 -1.149307e+00 0.000000e+00 -1.149307e+00 -9.266750e+00 0.000000e+00 0.000000e+00 0.000000e+00 0.000000e+00 2.456366e-01 3.334904e-01 0.000000e+00 3.334904e-01 -4.086434e-01 0.000000e+00 0.000000e+00 0.000000e+00 0.000000e+00 3.623340e+00 -6.793666e-01 0.000000e+00 -6.793666e-01 -6.775869e+00 0.000000e+00 0.000000e+00 0.000000e+00 0.000000e+00 5.827334e-01 -2.337145e-01 0.000000e+00 -2.337145e-01 -1.445355e-01 0.000000e+00 0.000000e+00 0.000000e+00 0.000000e+00 3.556403e-01 -3.122178e-01 0.000000e+00 -3.122178e-01 1.736590e-01 0.000000e+00 0.000000e+00 0.000000e+00 0.000000e+00 3.699861e-02 -4.914846e-02 0.000000e+00 -4.914846e-02 4.308971e-01 0.000000e+00 0.000000e+00 0.000000e+00 0.000000e+00 -4.873858e-02 3.552547e-01 0.000000e+00 3.552547e-01 4.552912e-01 0.000000e+00 0.000000e+00 0.000000e+00 0.000000e+00 4.272111e-01 1.829852e+00 0.000000e+00 1.829852e+00 4.994996e-01 0.000000e+00 0.000000e+00 0.000000e+00 0.000000e+00 1.067676e+00 2.531742e+00 0.000000e+00 2.531742e+00 4.558323e-01 0.000000e+00 0.000000e+00 0.000000e+00 0.000000e+00 1.805696e+00 3.191603e+00 0.000000e+00 3.191603e+00 3.115551e-01 0.000000e+00 0.000000e+00 0.000000e+00 0.000000e+00 2.489184e+00 3.629230e+00 0.000000e+00 3.629230e+00 -1.180357e-02 0.000000e+00 0.000000e+00 0.000000e+00 0.000000e+00 1.001694e+00 3.602842e+00 0.000000e+00 3.602842e+00 -1.520573e-02 0.000000e+00 0.000000e+00 0.000000e+00 0.000000e+00 -9.137511e-01 3.893123e+00 0.000000e+00 3.893123e+00 -1.467111e-02 0.000000e+00 0.000000e+00 0.000000e+00 0.000000e+00 -1.220990e+00 4.001490e+00 0.000000e+00 4.001490e+00 -3.091043e-01 0.000000e+00 0.000000e+00 0.000000e+00 0.000000e+00 -1.010118e+00 3.843702e+00 0.000000e+00 3.843702e+00 -7.528925e-01 0.000000e+00 0.000000e+00 0.000000e+00 0.000000e+00 -5.864946e-01 3.334953e+00 0.000000e+00 3.334953e+00 -1.123292e+00 0.000000e+00 0.000000e+00 0.000000e+00 0.000000e+00 1.028962e-01 1.892840e+00 0.000000e+00 1.892840e+00 -1.564002e+00 0.000000e+00 0.000000e+00 0.000000e+00 0.000000e+00 2.010653e-01 1.104364e+00 0.000000e+00 1.104364e+00 -1.508184e+00 0.000000e+00 0.000000e+00 0.000000e+00 0.000000e+00 6.051177e-02 4.802982e-01 0.000000e+00 4.802982e-01 -1.240639e+00 0.000000e+00 0.000000e+00 0.000000e+00 0.000000e+00 -3.278663e-01 2.089045e-01 0.000000e+00 2.089045e-01 -5.389609e-01 0.000000e+00 0.000000e+00 0.000000e+00 0.000000e+00 -2.941567e-01 3.581289e-01 0.000000e+00 3.581289e-01 -3.319852e-01 0.000000e+00 0.000000e+00 0.000000e+00 0.000000e+00 2.547865e+01 9.582766e+00 0.000000e+00 9.582766e+00 -4.557945e+00 0.000000e+00 0.000000e+00 0.000000e+00 0.000000e+00 1.641914e+01 6.582118e+00 0.000000e+00 6.582118e+00 4.378963e+00 0.000000e+00 0.000000e+00 0.000000e+00 0.000000e+00 1.210434e+01 3.951100e+00 0.000000e+00 3.951100e+00 2.235754e-01 0.000000e+00 0.000000e+00 0.000000e+00 0.000000e+00 -1.469480e-02 -3.189302e-01 0.000000e+00 -3.189302e-01 -1.678781e-01 0.000000e+00 0.000000e+00 0.000000e+00 0.000000e+00 6.835005e-01 -2.849671e+00 0.000000e+00 -2.849671e+00 -6.601521e+00 0.000000e+00 0.000000e+00 0.000000e+00 0.000000e+00 1.891077e+01 1.264453e+01 0.000000e+00 1.264453e+01 1.382084e+01 0.000000e+00 0.000000e+00 0.000000e+00 0.000000e+00 -1.516665e+00 -1.496137e+00 0.000000e+00 -1.496137e+00 -1.971514e+01 0.000000e+00 0.000000e+00 0.000000e+00 0.000000e+00 2.320365e+00 1.913574e+00 0.000000e+00 1.913574e+00 3.466685e-01 0.000000e+00 0.000000e+00 0.000000e+00 0.000000e+00 5.258790e-01 -2.431819e-01 0.000000e+00 -2.431819e-01 -1.479039e+01 0.000000e+00 0.000000e+00 0.000000e+00 0.000000e+00 1.359275e+00 -6.161474e-01 0.000000e+00 -6.161474e-01 -1.182754e+01 0.000000e+00 0.000000e+00 0.000000e+00 0.000000e+00 6.267076e+00 -6.490445e-01 0.000000e+00 -6.490445e-01 -2.583954e+00 0.000000e+00 0.000000e+00 0.000000e+00 0.000000e+00 6.676202e+00 -8.983597e-01 0.000000e+00 -8.983597e-01 -2.253151e+00 0.000000e+00 0.000000e+00 0.000000e+00 0.000000e+00 3.246880e+00 -6.661733e-01 0.000000e+00 -6.661733e-01 -7.385147e+00 0.000000e+00 0.000000e+00 0.000000e+00 0.000000e+00 6.070387e-02 -3.500915e-01 0.000000e+00 -3.500915e-01 -1.307999e-01 0.000000e+00 0.000000e+00 0.000000e+00 0.000000e+00 9.538401e+00 -8.369365e-01 0.000000e+00 -8.369365e-01 1.322214e+00 0.000000e+00 0.000000e+00 0.000000e+00 0.000000e+00 1.005569e+01 -1.104370e+00 0.000000e+00 -1.104370e+00 1.729895e+00 0.000000e+00 0.000000e+00 0.000000e+00 0.000000e+00 3.053292e+00 -3.842120e-01 0.000000e+00 -3.842120e-01 -7.775598e+00 0.000000e+00 0.000000e+00 0.000000e+00 0.000000e+00 1.611481e+01 -1.287672e+00 0.000000e+00 -1.287672e+00 8.236947e+00 0.000000e+00 0.000000e+00 0.000000e+00 0.000000e+00 1.658565e+01 -1.656569e+00 0.000000e+00 -1.656569e+00 8.855637e+00 0.000000e+00 0.000000e+00 0.000000e+00 0.000000e+00 1.922641e+01 9.468899e+00 0.000000e+00 9.468899e+00 4.533917e+01 0.000000e+00 0.000000e+00 0.000000e+00 0.000000e+00 7.233438e+00 1.400879e+00 0.000000e+00 1.400879e+00 1.240791e-02 0.000000e+00 0.000000e+00 0.000000e+00 0.000000e+00 2.149411e+01 4.932271e-01 0.000000e+00 4.932271e-01 5.795674e+01 0.000000e+00 0.000000e+00 0.000000e+00 0.000000e+00 5.370895e+00 1.303954e+00 0.000000e+00 1.303954e+00 -9.576114e-02 0.000000e+00 0.000000e+00 0.000000e+00 0.000000e+00 4.874512e+00 1.339657e+00 0.000000e+00 1.339657e+00 -1.408052e-01 0.000000e+00 0.000000e+00 0.000000e+00 0.000000e+00 1.620568e+01 8.845703e+00 0.000000e+00 8.845703e+00 2.273507e+00 0.000000e+00 0.000000e+00 0.000000e+00 0.000000e+00 2.492627e+01 -4.116789e+00 0.000000e+00 -4.116789e+00 2.259594e+01 0.000000e+00 0.000000e+00 0.000000e+00 0.000000e+00 3.096333e+01 -5.928564e+00 0.000000e+00 -5.928564e+00 2.547060e+01 0.000000e+00 0.000000e+00 0.000000e+00 0.000000e+00 4.804338e+00 1.317493e+00 0.000000e+00 1.317493e+00 -1.755577e-01 0.000000e+00 0.000000e+00 0.000000e+00 0.000000e+00 3.952241e+00 1.609330e+00 0.000000e+00 1.609330e+00 7.818638e-01 0.000000e+00 0.000000e+00 0.000000e+00 0.000000e+00 -5.411224e+00 1.768704e+00 0.000000e+00 1.768704e+00 9.207433e-02 0.000000e+00 0.000000e+00 0.000000e+00 0.000000e+00 -7.794709e+00 1.129252e+00 0.000000e+00 1.129252e+00 1.261066e+00 0.000000e+00 0.000000e+00 0.000000e+00 0.000000e+00 4.684991e+00 1.441805e+00 0.000000e+00 1.441805e+00 2.477069e-01 0.000000e+00 0.000000e+00 0.000000e+00 0.000000e+00 3.991388e+00 1.545285e+00 0.000000e+00 1.545285e+00 1.563565e-01 0.000000e+00 0.000000e+00 0.000000e+00 0.000000e+00 1.078503e+00 1.638726e+00 0.000000e+00 1.638726e+00 4.266067e-01 0.000000e+00 0.000000e+00 0.000000e+00 0.000000e+00 -1.478687e+00 1.645302e+00 0.000000e+00 1.645302e+00 -4.846032e-02 0.000000e+00 0.000000e+00 0.000000e+00 0.000000e+00 -5.060546e-01 2.243956e-01 0.000000e+00 2.243956e-01 7.089399e-01 0.000000e+00 0.000000e+00 0.000000e+00 0.000000e+00 -2.543493e-01 -7.875374e-03 0.000000e+00 -7.875374e-03 1.897844e-02 0.000000e+00 0.000000e+00 0.000000e+00 0.000000e+00 -8.515579e-02 -3.518572e-01 0.000000e+00 -3.518572e-01 -1.210898e-02 0.000000e+00 0.000000e+00 0.000000e+00 0.000000e+00 -1.442320e-01 -2.475636e+00 0.000000e+00 -2.475636e+00 -1.012846e+01 0.000000e+00 0.000000e+00 0.000000e+00 0.000000e+00 -4.158255e-01 -3.461073e+00 0.000000e+00 -3.461073e+00 -7.277716e+00 0.000000e+00 0.000000e+00 0.000000e+00 0.000000e+00 -2.366489e+00 2.205305e+00 0.000000e+00 2.205305e+00 3.611503e-02 0.000000e+00 0.000000e+00 0.000000e+00 0.000000e+00 1.068033e+00 -5.862861e-01 0.000000e+00 -5.862861e-01 -1.266289e+01 0.000000e+00 0.000000e+00 0.000000e+00 0.000000e+00 -5.694830e+00 -2.059783e+00 0.000000e+00 -2.059783e+00 1.219528e+00 0.000000e+00 0.000000e+00 0.000000e+00 0.000000e+00 1.804906e+01 1.160233e+01 0.000000e+00 1.160233e+01 1.428228e+01 0.000000e+00 0.000000e+00 0.000000e+00 0.000000e+00 9.604330e-01 -2.596386e-01 0.000000e+00 -2.596386e-01 -1.306837e+01 0.000000e+00 0.000000e+00 0.000000e+00 0.000000e+00 -1.893081e-01 -3.625456e+00 0.000000e+00 -3.625456e+00 -4.512416e+00 0.000000e+00 0.000000e+00 0.000000e+00 0.000000e+00 1.096262e+00 -2.780498e-01 0.000000e+00 -2.780498e-01 -1.225170e+01 0.000000e+00 0.000000e+00 0.000000e+00 0.000000e+00 -3.501656e+00 -3.310911e+00 0.000000e+00 -3.310911e+00 -4.594585e-01 0.000000e+00 0.000000e+00 0.000000e+00 0.000000e+00 -7.432282e-01 -2.800784e+00 0.000000e+00 -2.800784e+00 -1.297903e+00 0.000000e+00 0.000000e+00 0.000000e+00 0.000000e+00 6.281098e-01 -1.740508e+00 0.000000e+00 -1.740508e+00 -1.019835e+01 0.000000e+00 0.000000e+00 0.000000e+00 0.000000e+00 5.851215e-02 4.862410e-01 0.000000e+00 4.862410e-01 -3.449730e-01 0.000000e+00 0.000000e+00 0.000000e+00 0.000000e+00 3.737691e+00 -4.418153e-01 0.000000e+00 -4.418153e-01 -6.438501e+00 0.000000e+00 0.000000e+00 0.000000e+00 0.000000e+00 4.009288e+00 -7.053600e-01 0.000000e+00 -7.053600e-01 -6.061733e+00 0.000000e+00 0.000000e+00 0.000000e+00 0.000000e+00 -2.425304e-01 3.061539e-01 0.000000e+00 3.061539e-01 -2.222285e-01 0.000000e+00 0.000000e+00 0.000000e+00 0.000000e+00 -1.523611e-01 4.798690e-01 0.000000e+00 4.798690e-01 -2.832827e-01 0.000000e+00 0.000000e+00 0.000000e+00 0.000000e+00 -4.132963e-01 1.270366e-01 0.000000e+00 1.270366e-01 -4.295394e-01 0.000000e+00 0.000000e+00 0.000000e+00 0.000000e+00 -2.779458e-01 1.585881e-01 0.000000e+00 1.585881e-01 -1.456403e+00 0.000000e+00 0.000000e+00 0.000000e+00 0.000000e+00 -2.108421e-01 1.648762e-01 0.000000e+00 1.648762e-01 -8.717363e-01 0.000000e+00 0.000000e+00 0.000000e+00 0.000000e+00 -2.327282e-01 7.063887e-01 0.000000e+00 7.063887e-01 -1.998652e+00 0.000000e+00 0.000000e+00 0.000000e+00 0.000000e+00 -3.616666e-01 1.457091e+00 0.000000e+00 1.457091e+00 -2.233553e+00 0.000000e+00 0.000000e+00 0.000000e+00 0.000000e+00 -1.213994e+00 2.968958e+00 0.000000e+00 2.968958e+00 -1.864621e+00 0.000000e+00 0.000000e+00 0.000000e+00 0.000000e+00 -1.941543e-01 2.624464e+00 0.000000e+00 2.624464e+00 -1.361530e+00 0.000000e+00 0.000000e+00 0.000000e+00 0.000000e+00 -1.500015e+00 3.512143e+00 0.000000e+00 3.512143e+00 -1.430016e+00 0.000000e+00 0.000000e+00 0.000000e+00 0.000000e+00 -1.239729e+00 3.338267e+00 0.000000e+00 3.338267e+00 -5.382043e-01 0.000000e+00 0.000000e+00 0.000000e+00 0.000000e+00 -1.431151e+00 3.868744e+00 0.000000e+00 3.868744e+00 -8.642737e-01 0.000000e+00 0.000000e+00 0.000000e+00 0.000000e+00 -1.011694e+00 4.042372e+00 0.000000e+00 4.042372e+00 -2.354833e-01 0.000000e+00 0.000000e+00 0.000000e+00 0.000000e+00 5.117898e-01 3.943606e+00 0.000000e+00 3.943606e+00 1.857083e-01 0.000000e+00 0.000000e+00 0.000000e+00 0.000000e+00 -7.880476e-02 3.702393e+00 0.000000e+00 3.702393e+00 4.269018e-02 0.000000e+00 0.000000e+00 0.000000e+00 0.000000e+00 1.986805e+00 3.657595e+00 0.000000e+00 3.657595e+00 4.681780e-02 0.000000e+00 0.000000e+00 0.000000e+00 0.000000e+00 1.925929e+00 3.611899e+00 0.000000e+00 3.611899e+00 -6.119273e-02 0.000000e+00 0.000000e+00 0.000000e+00 0.000000e+00 2.662287e+00 3.207434e+00 0.000000e+00 3.207434e+00 5.598535e-01 0.000000e+00 0.000000e+00 0.000000e+00 0.000000e+00 2.383249e+00 3.506315e+00 0.000000e+00 3.506315e+00 1.192221e-01 0.000000e+00 0.000000e+00 0.000000e+00 0.000000e+00 2.266475e+00 2.857796e+00 0.000000e+00 2.857796e+00 9.035339e-01 0.000000e+00 0.000000e+00 0.000000e+00 0.000000e+00 1.357124e+00 2.278170e+00 0.000000e+00 2.278170e+00 1.148695e+00 0.000000e+00 0.000000e+00 0.000000e+00 0.000000e+00 1.526490e-01 7.438674e-01 0.000000e+00 7.438674e-01 1.263764e+00 0.000000e+00 0.000000e+00 0.000000e+00 0.000000e+00 -1.792997e-01 4.278036e-01 0.000000e+00 4.278036e-01 3.198639e-03 0.000000e+00 0.000000e+00 0.000000e+00 0.000000e+00 3.117354e-02 1.029525e+00 0.000000e+00 1.029525e+00 6.384984e-01 0.000000e+00 0.000000e+00 0.000000e+00 0.000000e+00 -8.226405e-03 -2.197831e-02 0.000000e+00 -2.197831e-02 9.559287e-01 0.000000e+00 0.000000e+00 0.000000e+00 0.000000e+00 4.552675e-01 -4.461364e-01 0.000000e+00 -4.461364e-01 1.890845e-01 0.000000e+00 0.000000e+00 0.000000e+00 0.000000e+00 -2.241730e+00 -3.251934e+00 0.000000e+00 -3.251934e+00 -1.971087e+00 0.000000e+00 0.000000e+00 0.000000e+00 0.000000e+00 5.156329e-01 1.032888e-01 0.000000e+00 1.032888e-01 -3.004297e-01 0.000000e+00 0.000000e+00 0.000000e+00 0.000000e+00 3.420803e+00 -4.584010e-01 0.000000e+00 -4.584010e-01 -7.087661e+00 0.000000e+00 0.000000e+00 0.000000e+00 0.000000e+00 7.232861e-01 1.540174e+00 0.000000e+00 1.540174e+00 1.311376e+00 0.000000e+00 0.000000e+00 0.000000e+00 0.000000e+00 2.481483e+00 3.434719e+00 0.000000e+00 3.434719e+00 2.152346e-01 0.000000e+00 0.000000e+00 0.000000e+00 0.000000e+00 1.312075e+00 3.802409e+00 0.000000e+00 3.802409e+00 8.093327e-02 0.000000e+00 0.000000e+00 0.000000e+00 0.000000e+00 -3.246095e-01 4.039584e+00 0.000000e+00 4.039584e+00 1.233583e-01 0.000000e+00 0.000000e+00 0.000000e+00 0.000000e+00 -7.599833e-01 2.248901e+00 0.000000e+00 2.248901e+00 -2.126278e+00 0.000000e+00 0.000000e+00 0.000000e+00 0.000000e+00 -3.807787e-01 -1.685211e-02 0.000000e+00 -1.685211e-02 -7.699808e-01 0.000000e+00 0.000000e+00 0.000000e+00 0.000000e+00 4.777196e-01 6.811066e-02 0.000000e+00 6.811066e-02 -3.689138e-01 0.000000e+00 0.000000e+00 0.000000e+00 0.000000e+00 -8.805522e-01 -9.894801e-01 0.000000e+00 -9.894801e-01 -1.839664e+01 0.000000e+00 0.000000e+00 0.000000e+00 0.000000e+00 1.399569e-01 -7.859295e-01 0.000000e+00 -7.859295e-01 -1.872159e+01 0.000000e+00 0.000000e+00 0.000000e+00 0.000000e+00 -1.276550e-02 -5.087724e-01 0.000000e+00 -5.087724e-01 -1.766093e+01 0.000000e+00 0.000000e+00 0.000000e+00 0.000000e+00 1.585301e+00 -6.344660e-01 0.000000e+00 -6.344660e-01 -1.100728e+01 0.000000e+00 0.000000e+00 0.000000e+00 0.000000e+00 1.455615e+00 -3.028412e-01 0.000000e+00 -3.028412e-01 -1.142962e+01 0.000000e+00 0.000000e+00 0.000000e+00 0.000000e+00 1.809272e+00 -3.300283e-01 0.000000e+00 -3.300283e-01 -1.063356e+01 0.000000e+00 0.000000e+00 0.000000e+00 0.000000e+00 4.413714e+00 -7.486958e-01 0.000000e+00 -7.486958e-01 -5.427836e+00 0.000000e+00 0.000000e+00 0.000000e+00 0.000000e+00 4.124146e+00 -5.114326e-01 0.000000e+00 -5.114326e-01 -5.758511e+00 0.000000e+00 0.000000e+00 0.000000e+00 0.000000e+00 4.389266e+00 -5.442039e-01 0.000000e+00 -5.442039e-01 -5.136075e+00 0.000000e+00 0.000000e+00 0.000000e+00 0.000000e+00 7.183040e+00 -9.520377e-01 0.000000e+00 -9.520377e-01 -1.645561e+00 0.000000e+00 0.000000e+00 0.000000e+00 0.000000e+00 6.728443e+00 -7.054540e-01 0.000000e+00 -7.054540e-01 -1.977333e+00 0.000000e+00 0.000000e+00 0.000000e+00 0.000000e+00 7.267493e+00 -7.364826e-01 0.000000e+00 -7.364826e-01 -1.360342e+00 0.000000e+00 0.000000e+00 0.000000e+00 0.000000e+00 1.074878e+01 -1.183998e+00 0.000000e+00 -1.183998e+00 2.461697e+00 0.000000e+00 0.000000e+00 0.000000e+00 0.000000e+00 1.003978e+01 -8.851464e-01 0.000000e+00 -8.851464e-01 2.029014e+00 0.000000e+00 0.000000e+00 0.000000e+00 0.000000e+00 1.077096e+01 -9.339994e-01 0.000000e+00 -9.339994e-01 2.827585e+00 0.000000e+00 0.000000e+00 0.000000e+00 0.000000e+00 1.793188e+01 -1.909663e+00 0.000000e+00 -1.909663e+00 1.000100e+01 0.000000e+00 0.000000e+00 0.000000e+00 0.000000e+00 1.622089e+01 -1.452524e+00 0.000000e+00 -1.452524e+00 9.251527e+00 0.000000e+00 0.000000e+00 0.000000e+00 0.000000e+00 1.723270e+01 -1.672703e+00 0.000000e+00 -1.672703e+00 1.050626e+01 0.000000e+00 0.000000e+00 0.000000e+00 0.000000e+00 3.387219e+01 -7.700876e+00 0.000000e+00 -7.700876e+00 3.094477e+01 0.000000e+00 0.000000e+00 0.000000e+00 0.000000e+00 2.574896e+01 -5.084474e+00 0.000000e+00 -5.084474e+00 2.686093e+01 0.000000e+00 0.000000e+00 0.000000e+00 0.000000e+00 2.532119e+01 -5.888899e+00 0.000000e+00 -5.888899e+00 3.291253e+01 0.000000e+00 0.000000e+00 0.000000e+00 0.000000e+00 1.603735e-01 9.995077e-01 0.000000e+00 9.995077e-01 7.258351e-01 0.000000e+00 0.000000e+00 0.000000e+00 0.000000e+00 -9.707626e-02 3.033482e-01 0.000000e+00 3.033482e-01 1.413707e-03 0.000000e+00 0.000000e+00 0.000000e+00 0.000000e+00 -7.725065e+00 -3.533137e-01 0.000000e+00 -3.533137e-01 1.678248e+00 0.000000e+00 0.000000e+00 0.000000e+00 0.000000e+00 1.286698e-01 -1.986112e+00 0.000000e+00 -1.986112e+00 -9.732418e+00 0.000000e+00 0.000000e+00 0.000000e+00 0.000000e+00 -1.826360e+00 -2.421307e-01 0.000000e+00 -2.421307e-01 -1.283823e+01 0.000000e+00 0.000000e+00 0.000000e+00 0.000000e+00 -2.266976e-01 -2.642055e+00 0.000000e+00 -2.642055e+00 -1.043650e+01 0.000000e+00 0.000000e+00 0.000000e+00 0.000000e+00 1.828046e+01 7.572967e+00 0.000000e+00 7.572967e+00 3.883337e+01 0.000000e+00 0.000000e+00 0.000000e+00 0.000000e+00 -5.974141e+00 1.061951e+00 0.000000e+00 1.061951e+00 3.272614e-01 0.000000e+00 0.000000e+00 0.000000e+00 0.000000e+00 -2.222287e-02 4.220014e-01 0.000000e+00 4.220014e-01 -2.115177e-01 0.000000e+00 0.000000e+00 0.000000e+00 0.000000e+00 -9.013895e-01 -3.305187e+00 0.000000e+00 -3.305187e+00 -3.244490e+00 0.000000e+00 0.000000e+00 0.000000e+00 0.000000e+00 5.360491e-01 -2.736667e+00 0.000000e+00 -2.736667e+00 -1.059915e+01 0.000000e+00 0.000000e+00 0.000000e+00 0.000000e+00 4.992631e-01 -2.515267e-01 0.000000e+00 -2.515267e-01 -1.762082e-01 0.000000e+00 0.000000e+00 0.000000e+00 0.000000e+00 3.324715e-01 -3.637413e+00 0.000000e+00 -3.637413e+00 -7.667017e+00 0.000000e+00 0.000000e+00 0.000000e+00 0.000000e+00 2.429791e-01 -3.371581e+00 0.000000e+00 -3.371581e+00 -8.706271e+00 0.000000e+00 0.000000e+00 0.000000e+00 0.000000e+00 7.873776e-01 -3.071105e+00 0.000000e+00 -3.071105e+00 -1.099811e+01 0.000000e+00 0.000000e+00 0.000000e+00 0.000000e+00 -5.656678e-01 -1.945356e+00 0.000000e+00 -1.945356e+00 -1.149200e+01 0.000000e+00 0.000000e+00 0.000000e+00 0.000000e+00 1.771622e+00 2.566858e+00 0.000000e+00 2.566858e+00 3.208288e-01 0.000000e+00 0.000000e+00 0.000000e+00 0.000000e+00 5.101308e-01 -8.719725e-01 0.000000e+00 -8.719725e-01 -1.492256e+01 0.000000e+00 0.000000e+00 0.000000e+00 0.000000e+00 4.990312e+00 -1.358413e+00 0.000000e+00 -1.358413e+00 -4.480723e+00 0.000000e+00 0.000000e+00 0.000000e+00 0.000000e+00 1.364378e-01 -3.971133e-01 0.000000e+00 -3.971133e-01 -8.319276e-02 0.000000e+00 0.000000e+00 0.000000e+00 0.000000e+00 1.878795e+01 -3.748983e+00 0.000000e+00 -3.748983e+00 1.237143e+01 0.000000e+00 0.000000e+00 0.000000e+00 0.000000e+00 7.834482e+00 -1.685383e+00 0.000000e+00 -1.685383e+00 -6.229287e-01 0.000000e+00 0.000000e+00 0.000000e+00 0.000000e+00 -5.301282e+00 9.998678e-01 0.000000e+00 9.998678e-01 2.604149e+00 0.000000e+00 0.000000e+00 0.000000e+00 0.000000e+00 1.445802e+01 -2.663421e+00 0.000000e+00 -2.663421e+00 7.769878e+00 0.000000e+00 0.000000e+00 0.000000e+00 0.000000e+00 7.290739e+00 2.541933e+00 0.000000e+00 2.541933e+00 5.136537e-01 0.000000e+00 0.000000e+00 0.000000e+00 0.000000e+00 3.011422e+00 -1.119779e+00 0.000000e+00 -1.119779e+00 -7.673554e+00 0.000000e+00 0.000000e+00 0.000000e+00 0.000000e+00 8.607399e+00 3.177130e+00 0.000000e+00 3.177130e+00 1.153914e+00 0.000000e+00 0.000000e+00 0.000000e+00 0.000000e+00 7.163013e+00 2.659420e+00 0.000000e+00 2.659420e+00 3.437008e-01 0.000000e+00 0.000000e+00 0.000000e+00 0.000000e+00 3.223135e+00 2.013806e+00 0.000000e+00 2.013806e+00 3.399955e-01 0.000000e+00 0.000000e+00 0.000000e+00 0.000000e+00 5.568546e+00 1.943566e+00 0.000000e+00 1.943566e+00 8.173889e-03 0.000000e+00 0.000000e+00 0.000000e+00 0.000000e+00 1.488757e+01 3.441331e+00 0.000000e+00 3.441331e+00 3.784699e+01 0.000000e+00 0.000000e+00 0.000000e+00 0.000000e+00 5.029164e+00 1.735246e+00 0.000000e+00 1.735246e+00 -7.410496e-03 0.000000e+00 0.000000e+00 0.000000e+00 0.000000e+00 4.835607e+00 1.849108e+00 0.000000e+00 1.849108e+00 -2.137595e-01 0.000000e+00 0.000000e+00 0.000000e+00 0.000000e+00 4.334576e+00 1.672060e+00 0.000000e+00 1.672060e+00 -2.061959e-01 0.000000e+00 0.000000e+00 0.000000e+00 0.000000e+00 1.061194e+01 4.411791e+00 0.000000e+00 4.411791e+00 2.548887e+00 0.000000e+00 0.000000e+00 0.000000e+00 0.000000e+00 8.325299e+00 3.365788e+00 0.000000e+00 3.365788e+00 8.869994e-01 0.000000e+00 0.000000e+00 0.000000e+00 0.000000e+00 2.280237e+01 -5.397233e+00 0.000000e+00 -5.397233e+00 3.855441e+01 0.000000e+00 0.000000e+00 0.000000e+00 0.000000e+00 1.592840e+01 -2.681297e-01 0.000000e+00 -2.681297e-01 4.432165e+01 0.000000e+00 0.000000e+00 0.000000e+00 0.000000e+00 6.310882e+00 2.185211e+00 0.000000e+00 2.185211e+00 2.182985e-01 0.000000e+00 0.000000e+00 0.000000e+00 0.000000e+00 5.419696e+00 2.006491e+00 0.000000e+00 2.006491e+00 -9.275853e-02 0.000000e+00 0.000000e+00 0.000000e+00 0.000000e+00 2.801452e+01 1.422542e+01 0.000000e+00 1.422542e+01 1.973101e+01 0.000000e+00 0.000000e+00 0.000000e+00 0.000000e+00 1.544306e+01 1.357081e+01 0.000000e+00 1.357081e+01 2.423091e+01 0.000000e+00 0.000000e+00 0.000000e+00 0.000000e+00 -4.966659e+00 -1.953354e+00 0.000000e+00 -1.953354e+00 3.634591e+00 0.000000e+00 0.000000e+00 0.000000e+00 0.000000e+00 -1.976687e+00 2.259565e+00 0.000000e+00 2.259565e+00 -9.006211e-01 0.000000e+00 0.000000e+00 0.000000e+00 0.000000e+00 -5.099122e+00 2.140523e+00 0.000000e+00 2.140523e+00 1.592667e+00 0.000000e+00 0.000000e+00 0.000000e+00 0.000000e+00 5.832531e-01 -4.536230e+00 0.000000e+00 -4.536230e+00 -4.991875e+00 0.000000e+00 0.000000e+00 0.000000e+00 0.000000e+00 1.525113e+01 8.517115e+00 0.000000e+00 8.517115e+00 4.187813e+01 0.000000e+00 0.000000e+00 0.000000e+00 0.000000e+00 1.301425e+00 -9.308147e-01 0.000000e+00 -9.308147e-01 -1.221352e+01 0.000000e+00 0.000000e+00 0.000000e+00 0.000000e+00 -2.901170e+00 2.736871e+00 0.000000e+00 2.736871e+00 -6.073826e-01 0.000000e+00 0.000000e+00 0.000000e+00 0.000000e+00 4.279416e-01 -2.146421e-01 0.000000e+00 -2.146421e-01 -2.417897e-01 0.000000e+00 0.000000e+00 0.000000e+00 0.000000e+00 1.899687e+00 -9.951685e-01 0.000000e+00 -9.951685e-01 -9.884503e+00 0.000000e+00 0.000000e+00 0.000000e+00 0.000000e+00 -3.044286e+00 -4.339133e+00 0.000000e+00 -4.339133e+00 6.073529e-01 0.000000e+00 0.000000e+00 0.000000e+00 0.000000e+00 -1.329965e-01 4.798593e-03 0.000000e+00 4.798593e-03 -1.957144e-01 0.000000e+00 0.000000e+00 0.000000e+00 0.000000e+00 -4.821267e+00 -2.830054e+00 0.000000e+00 -2.830054e+00 1.957719e-01 0.000000e+00 0.000000e+00 0.000000e+00 0.000000e+00 2.913961e+00 2.637521e+00 0.000000e+00 2.637521e+00 6.464365e-01 0.000000e+00 0.000000e+00 0.000000e+00 0.000000e+00 2.588290e+00 2.461606e+00 0.000000e+00 2.461606e+00 3.547805e-01 0.000000e+00 0.000000e+00 0.000000e+00 0.000000e+00 2.390579e+00 3.042645e+00 0.000000e+00 3.042645e+00 2.014057e-01 0.000000e+00 0.000000e+00 0.000000e+00 0.000000e+00 2.729335e-01 3.617740e-01 0.000000e+00 3.617740e-01 -2.884102e-01 0.000000e+00 0.000000e+00 0.000000e+00 0.000000e+00 1.335157e+01 7.115230e+00 0.000000e+00 7.115230e+00 5.595349e+00 0.000000e+00 0.000000e+00 0.000000e+00 0.000000e+00 9.183565e+00 4.704129e+00 0.000000e+00 4.704129e+00 2.046013e+00 0.000000e+00 0.000000e+00 0.000000e+00 0.000000e+00 4.615702e+00 -5.660415e+00 0.000000e+00 -5.660415e+00 9.304956e+00 0.000000e+00 0.000000e+00 0.000000e+00 0.000000e+00 -3.604473e-01 1.977131e+00 0.000000e+00 1.977131e+00 -9.268942e-01 0.000000e+00 0.000000e+00 0.000000e+00 0.000000e+00 -7.657408e-01 3.787083e+00 0.000000e+00 3.787083e+00 2.276772e-01 0.000000e+00 0.000000e+00 0.000000e+00 0.000000e+00 1.716455e+00 3.602591e+00 0.000000e+00 3.602591e+00 1.406176e-01 0.000000e+00 0.000000e+00 0.000000e+00 0.000000e+00 2.795873e-01 -4.797001e-01 0.000000e+00 -4.797001e-01 4.658992e-01 0.000000e+00 0.000000e+00 0.000000e+00 0.000000e+00 -1.949979e-01 -4.681234e+00 0.000000e+00 -4.681234e+00 -4.119770e+00 0.000000e+00 0.000000e+00 0.000000e+00 0.000000e+00 4.604340e-02 -3.902217e+00 0.000000e+00 -3.902217e+00 -7.905368e+00 0.000000e+00 0.000000e+00 0.000000e+00 0.000000e+00 -1.241452e+00 -4.063171e+00 0.000000e+00 -4.063171e+00 -1.063581e+00 0.000000e+00 0.000000e+00 0.000000e+00 0.000000e+00 -2.135335e+00 -4.594382e+00 0.000000e+00 -4.594382e+00 -8.204754e-01 0.000000e+00 0.000000e+00 0.000000e+00 0.000000e+00 -1.147969e+00 -4.351094e+00 0.000000e+00 -4.351094e+00 -2.519690e+00 0.000000e+00 0.000000e+00 0.000000e+00 0.000000e+00 2.936130e+00 3.344058e+00 0.000000e+00 3.344058e+00 9.535306e-02 0.000000e+00 0.000000e+00 0.000000e+00 0.000000e+00 2.679521e+00 3.593996e+00 0.000000e+00 3.593996e+00 7.687611e-02 0.000000e+00 0.000000e+00 0.000000e+00 0.000000e+00 4.086734e-01 3.687885e+00 0.000000e+00 3.687885e+00 2.014055e-01 0.000000e+00 0.000000e+00 0.000000e+00 0.000000e+00 9.839398e-01 3.962116e+00 0.000000e+00 3.962116e+00 3.711199e-01 0.000000e+00 0.000000e+00 0.000000e+00 0.000000e+00 -5.199954e-04 4.043984e+00 0.000000e+00 4.043984e+00 4.391887e-01 0.000000e+00 0.000000e+00 0.000000e+00 0.000000e+00 -1.548465e+00 3.889211e+00 0.000000e+00 3.889211e+00 1.103232e-01 0.000000e+00 0.000000e+00 0.000000e+00 0.000000e+00 -1.637665e+00 3.769578e+00 0.000000e+00 3.769578e+00 -2.018837e-01 0.000000e+00 0.000000e+00 0.000000e+00 0.000000e+00 -1.637058e+00 3.767525e+00 0.000000e+00 3.767525e+00 -2.033392e-01 0.000000e+00 0.000000e+00 0.000000e+00 0.000000e+00 -2.084435e+00 3.346801e+00 0.000000e+00 3.346801e+00 -7.917552e-01 0.000000e+00 0.000000e+00 0.000000e+00 0.000000e+00 -7.349049e-01 2.681005e+00 0.000000e+00 2.681005e+00 -7.138669e-01 0.000000e+00 0.000000e+00 0.000000e+00 0.000000e+00 -1.088410e-01 1.289769e+00 0.000000e+00 1.289769e+00 -1.107491e+00 0.000000e+00 0.000000e+00 0.000000e+00 0.000000e+00 8.136482e-03 6.680468e-01 0.000000e+00 6.680468e-01 -9.387669e-01 0.000000e+00 0.000000e+00 0.000000e+00 0.000000e+00 3.944968e+00 -5.550537e+00 0.000000e+00 -5.550537e+00 6.976800e+00 0.000000e+00 0.000000e+00 0.000000e+00 0.000000e+00 7.088346e-02 -2.793297e+00 0.000000e+00 -2.793297e+00 -1.035926e+01 0.000000e+00 0.000000e+00 0.000000e+00 0.000000e+00 -1.517273e-01 3.592901e-01 0.000000e+00 3.592901e-01 -1.515455e-01 0.000000e+00 0.000000e+00 0.000000e+00 0.000000e+00 8.790558e-01 -3.960356e+00 0.000000e+00 -3.960356e+00 -8.640449e+00 0.000000e+00 0.000000e+00 0.000000e+00 0.000000e+00 -4.251432e+00 -3.473213e+00 0.000000e+00 -3.473213e+00 2.492963e+00 0.000000e+00 0.000000e+00 0.000000e+00 0.000000e+00 -4.081424e+00 -2.977349e+00 0.000000e+00 -2.977349e+00 1.735074e+00 0.000000e+00 0.000000e+00 0.000000e+00 0.000000e+00 -3.028639e+00 -4.389521e+00 0.000000e+00 -4.389521e+00 6.944947e-01 0.000000e+00 0.000000e+00 0.000000e+00 0.000000e+00 7.093248e-01 -4.680108e-01 0.000000e+00 -4.680108e-01 -1.444213e+01 0.000000e+00 0.000000e+00 0.000000e+00 0.000000e+00 6.559923e-01 -8.542728e-01 0.000000e+00 -8.542728e-01 -1.397417e+01 0.000000e+00 0.000000e+00 0.000000e+00 0.000000e+00 1.091074e+01 -2.080901e+00 0.000000e+00 -2.080901e+00 2.977692e+00 0.000000e+00 0.000000e+00 0.000000e+00 0.000000e+00 4.686846e+00 -1.266091e+00 0.000000e+00 -1.266091e+00 -5.113073e+00 0.000000e+00 0.000000e+00 0.000000e+00 0.000000e+00 4.467580e+00 -1.063335e+00 0.000000e+00 -1.063335e+00 -4.856971e+00 0.000000e+00 0.000000e+00 0.000000e+00 0.000000e+00 2.825456e+00 -1.046156e+00 0.000000e+00 -1.046156e+00 -8.399220e+00 0.000000e+00 0.000000e+00 0.000000e+00 0.000000e+00 2.626932e+00 -8.097464e-01 0.000000e+00 -8.097464e-01 -8.075258e+00 0.000000e+00 0.000000e+00 0.000000e+00 0.000000e+00 6.384618e+00 -1.406595e+00 0.000000e+00 -1.406595e+00 -2.528153e+00 0.000000e+00 0.000000e+00 0.000000e+00 0.000000e+00 1.392477e+01 -2.645124e+00 0.000000e+00 -2.645124e+00 6.686600e+00 0.000000e+00 0.000000e+00 0.000000e+00 0.000000e+00 1.386132e+01 -2.221326e+00 0.000000e+00 -2.221326e+00 6.959482e+00 0.000000e+00 0.000000e+00 0.000000e+00 0.000000e+00 1.777913e+01 -3.204483e+00 0.000000e+00 -3.204483e+00 1.067129e+01 0.000000e+00 0.000000e+00 0.000000e+00 0.000000e+00 1.643592e+01 -3.040186e+00 0.000000e+00 -3.040186e+00 1.129866e+01 0.000000e+00 0.000000e+00 0.000000e+00 0.000000e+00 -3.806214e+00 2.167127e+00 0.000000e+00 2.167127e+00 1.022684e+00 0.000000e+00 0.000000e+00 0.000000e+00 0.000000e+00 2.613984e+01 -7.757565e+00 0.000000e+00 -7.757565e+00 3.357677e+01 0.000000e+00 0.000000e+00 0.000000e+00 0.000000e+00 1.815567e+01 -4.669896e+00 0.000000e+00 -4.669896e+00 3.708084e+01 0.000000e+00 0.000000e+00 0.000000e+00 0.000000e+00 4.280248e+00 1.749853e+00 0.000000e+00 1.749853e+00 6.197702e-01 0.000000e+00 0.000000e+00 0.000000e+00 0.000000e+00 2.113607e+01 -4.799488e+00 0.000000e+00 -4.799488e+00 1.644624e+01 0.000000e+00 0.000000e+00 0.000000e+00 0.000000e+00 8.841658e+00 -1.704069e+00 0.000000e+00 -1.704069e+00 6.843393e-01 0.000000e+00 0.000000e+00 0.000000e+00 0.000000e+00 1.316967e+01 -2.442625e+00 0.000000e+00 -2.442625e+00 5.698937e+00 0.000000e+00 0.000000e+00 0.000000e+00 0.000000e+00 1.271686e+01 -2.153147e+00 0.000000e+00 -2.153147e+00 5.914333e+00 0.000000e+00 0.000000e+00 0.000000e+00 0.000000e+00 3.589795e+00 2.242815e+00 0.000000e+00 2.242815e+00 6.746550e-01 0.000000e+00 0.000000e+00 0.000000e+00 0.000000e+00 5.790288e+00 -1.352394e+00 0.000000e+00 -1.352394e+00 -3.215417e+00 0.000000e+00 0.000000e+00 0.000000e+00 0.000000e+00 5.834706e+00 -1.134708e+00 0.000000e+00 -1.134708e+00 -2.875611e+00 0.000000e+00 0.000000e+00 0.000000e+00 0.000000e+00 2.483048e+01 -4.967357e+00 0.000000e+00 -4.967357e+00 1.950811e+01 0.000000e+00 0.000000e+00 0.000000e+00 0.000000e+00 6.236091e+00 2.265073e+00 0.000000e+00 2.265073e+00 8.628917e-02 0.000000e+00 0.000000e+00 0.000000e+00 0.000000e+00 -6.127394e+00 7.765355e-02 0.000000e+00 7.765355e-02 1.130242e+00 0.000000e+00 0.000000e+00 0.000000e+00 0.000000e+00 1.656810e-01 1.030953e+00 0.000000e+00 1.030953e+00 3.866836e-01 0.000000e+00 0.000000e+00 0.000000e+00 0.000000e+00 9.354192e-01 -4.867781e-01 0.000000e+00 -4.867781e-01 -1.353960e+01 0.000000e+00 0.000000e+00 0.000000e+00 0.000000e+00 9.403787e-01 -8.612114e-01 0.000000e+00 -8.612114e-01 -1.307629e+01 0.000000e+00 0.000000e+00 0.000000e+00 0.000000e+00 1.309983e+01 1.001205e+01 0.000000e+00 1.001205e+01 1.313617e+01 0.000000e+00 0.000000e+00 0.000000e+00 0.000000e+00 1.752873e+01 -3.416111e+00 0.000000e+00 -3.416111e+00 1.300043e+01 0.000000e+00 0.000000e+00 0.000000e+00 0.000000e+00 1.989032e+01 -4.299083e+00 0.000000e+00 -4.299083e+00 1.433298e+01 0.000000e+00 0.000000e+00 0.000000e+00 0.000000e+00 -3.260372e+00 2.912342e+00 0.000000e+00 2.912342e+00 5.661162e-01 0.000000e+00 0.000000e+00 0.000000e+00 0.000000e+00 -6.331725e-01 -4.346818e+00 0.000000e+00 -4.346818e+00 -4.871159e+00 0.000000e+00 0.000000e+00 0.000000e+00 0.000000e+00 -1.824695e-01 1.520976e-01 0.000000e+00 1.520976e-01 -8.422532e-02 0.000000e+00 0.000000e+00 0.000000e+00 0.000000e+00 1.149056e+00 -6.174919e-01 0.000000e+00 -6.174919e-01 -1.179834e+01 0.000000e+00 0.000000e+00 0.000000e+00 0.000000e+00 1.474720e+00 -1.008526e+00 0.000000e+00 -1.008526e+00 -1.137951e+01 0.000000e+00 0.000000e+00 0.000000e+00 0.000000e+00 1.236097e+01 -2.266482e+00 0.000000e+00 -2.266482e+00 4.729779e+00 0.000000e+00 0.000000e+00 0.000000e+00 0.000000e+00 1.223310e+01 -2.002584e+00 0.000000e+00 -2.002584e+00 5.010659e+00 0.000000e+00 0.000000e+00 0.000000e+00 0.000000e+00 -2.081551e-01 1.117579e-01 0.000000e+00 1.117579e-01 -7.580448e-01 0.000000e+00 0.000000e+00 0.000000e+00 0.000000e+00 2.644962e+00 3.319415e+00 0.000000e+00 3.319415e+00 1.789414e-01 0.000000e+00 0.000000e+00 0.000000e+00 0.000000e+00 1.522819e+01 -2.471600e+00 0.000000e+00 -2.471600e+00 8.664277e+00 0.000000e+00 0.000000e+00 0.000000e+00 0.000000e+00 1.556957e+01 -2.433369e+00 0.000000e+00 -2.433369e+00 8.159782e+00 0.000000e+00 0.000000e+00 0.000000e+00 0.000000e+00 1.706672e+01 -2.521840e+00 0.000000e+00 -2.521840e+00 9.218090e+00 0.000000e+00 0.000000e+00 0.000000e+00 0.000000e+00 -2.402845e-01 -1.539686e-02 0.000000e+00 -1.539686e-02 -2.584374e-01 0.000000e+00 0.000000e+00 0.000000e+00 0.000000e+00 3.262344e+00 2.856814e+00 0.000000e+00 2.856814e+00 4.666200e-01 0.000000e+00 0.000000e+00 0.000000e+00 0.000000e+00 2.914314e+00 2.638006e+00 0.000000e+00 2.638006e+00 1.433611e-01 0.000000e+00 0.000000e+00 0.000000e+00 0.000000e+00 2.764402e+00 3.120533e+00 0.000000e+00 3.120533e+00 1.048917e-01 0.000000e+00 0.000000e+00 0.000000e+00 0.000000e+00 1.212060e+01 1.047630e+01 0.000000e+00 1.047630e+01 1.283722e+01 0.000000e+00 0.000000e+00 0.000000e+00 0.000000e+00 -4.613289e+00 2.825618e+00 0.000000e+00 2.825618e+00 7.802880e-01 0.000000e+00 0.000000e+00 0.000000e+00 0.000000e+00 7.333127e+00 -1.605028e+00 0.000000e+00 -1.605028e+00 -1.301113e+00 0.000000e+00 0.000000e+00 0.000000e+00 0.000000e+00 7.219087e+00 -1.381434e+00 0.000000e+00 -1.381434e+00 -1.041945e+00 0.000000e+00 0.000000e+00 0.000000e+00 0.000000e+00 1.161041e+01 -2.170754e+00 0.000000e+00 -2.170754e+00 3.794887e+00 0.000000e+00 0.000000e+00 0.000000e+00 0.000000e+00 1.091618e+01 -1.805646e+00 0.000000e+00 -1.805646e+00 3.287866e+00 0.000000e+00 0.000000e+00 0.000000e+00 0.000000e+00 1.170201e+01 -1.859250e+00 0.000000e+00 -1.859250e+00 4.156868e+00 0.000000e+00 0.000000e+00 0.000000e+00 0.000000e+00 -8.960697e-01 4.007618e+00 0.000000e+00 4.007618e+00 2.579387e-01 0.000000e+00 0.000000e+00 0.000000e+00 0.000000e+00 -1.666180e+00 3.729427e+00 0.000000e+00 3.729427e+00 4.260390e-01 0.000000e+00 0.000000e+00 0.000000e+00 0.000000e+00 2.383323e+00 -7.197695e-01 0.000000e+00 -7.197695e-01 -9.539990e+00 0.000000e+00 0.000000e+00 0.000000e+00 0.000000e+00 2.356865e+00 -9.649026e-01 0.000000e+00 -9.649026e-01 -9.169891e+00 0.000000e+00 0.000000e+00 0.000000e+00 0.000000e+00 4.439313e-01 -8.549997e-01 0.000000e+00 -8.549997e-01 -1.598087e+01 0.000000e+00 0.000000e+00 0.000000e+00 0.000000e+00 3.783455e+00 -1.110133e+00 0.000000e+00 -1.110133e+00 -6.370608e+00 0.000000e+00 0.000000e+00 0.000000e+00 0.000000e+00 1.690798e+00 -1.034520e+00 0.000000e+00 -1.034520e+00 -1.055486e+01 0.000000e+00 0.000000e+00 0.000000e+00 0.000000e+00 2.130171e+00 -7.462181e-01 0.000000e+00 -7.462181e-01 -1.021473e+01 0.000000e+00 0.000000e+00 0.000000e+00 0.000000e+00 2.768741e-01 -1.212848e+00 0.000000e+00 -1.212848e+00 -2.064106e+01 0.000000e+00 0.000000e+00 0.000000e+00 0.000000e+00 -1.289706e+00 2.326944e+00 0.000000e+00 2.326944e+00 -1.475577e+00 0.000000e+00 0.000000e+00 0.000000e+00 0.000000e+00 -1.886298e+00 2.951727e+00 0.000000e+00 2.951727e+00 -1.181261e+00 0.000000e+00 0.000000e+00 0.000000e+00 0.000000e+00 1.877592e+00 3.717417e+00 0.000000e+00 3.717417e+00 2.047942e-01 0.000000e+00 0.000000e+00 0.000000e+00 0.000000e+00 -2.179894e-01 2.236933e-01 0.000000e+00 2.236933e-01 -6.938397e-01 0.000000e+00 0.000000e+00 0.000000e+00 0.000000e+00 -4.509950e-02 3.959462e-01 0.000000e+00 3.959462e-01 -2.270019e-01 0.000000e+00 0.000000e+00 0.000000e+00 0.000000e+00 -5.123675e+00 -6.167014e-01 0.000000e+00 -6.167014e-01 3.343911e+00 0.000000e+00 0.000000e+00 0.000000e+00 0.000000e+00 -4.305181e+00 8.470881e-01 0.000000e+00 8.470881e-01 1.806361e+00 0.000000e+00 0.000000e+00 0.000000e+00 0.000000e+00 -4.489858e+00 -1.063695e+00 0.000000e+00 -1.063695e+00 2.056311e+00 0.000000e+00 0.000000e+00 0.000000e+00 0.000000e+00 9.053649e-01 -5.439805e-01 0.000000e+00 -5.439805e-01 -1.260494e+01 0.000000e+00 0.000000e+00 0.000000e+00 0.000000e+00 9.243985e+00 -1.429237e+00 0.000000e+00 -1.429237e+00 1.016725e+00 0.000000e+00 0.000000e+00 0.000000e+00 0.000000e+00 9.687478e+00 -1.751540e+00 0.000000e+00 -1.751540e+00 1.475675e+00 0.000000e+00 0.000000e+00 0.000000e+00 0.000000e+00 2.096941e+01 -5.226306e+00 0.000000e+00 -5.226306e+00 2.154059e+01 0.000000e+00 0.000000e+00 0.000000e+00 0.000000e+00 2.580548e+01 -6.402221e+00 0.000000e+00 -6.402221e+00 2.350177e+01 0.000000e+00 0.000000e+00 0.000000e+00 0.000000e+00 1.177672e+01 9.198122e+00 0.000000e+00 9.198122e+00 9.321399e+00 0.000000e+00 0.000000e+00 0.000000e+00 0.000000e+00 8.869739e+00 6.309816e+00 0.000000e+00 6.309816e+00 6.739284e+00 0.000000e+00 0.000000e+00 0.000000e+00 0.000000e+00 5.922423e-01 -4.233823e-01 0.000000e+00 -4.233823e-01 -1.532839e+01 0.000000e+00 0.000000e+00 0.000000e+00 0.000000e+00 7.516197e-01 -7.339601e-01 0.000000e+00 -7.339601e-01 -1.980818e+01 0.000000e+00 0.000000e+00 0.000000e+00 0.000000e+00 -2.634002e-01 -1.312824e+00 0.000000e+00 -1.312824e+00 -1.929090e+01 0.000000e+00 0.000000e+00 0.000000e+00 0.000000e+00 -2.410665e-01 2.492353e-01 0.000000e+00 2.492353e-01 -2.299515e-01 0.000000e+00 0.000000e+00 0.000000e+00 0.000000e+00 -1.123970e+00 1.616061e+00 0.000000e+00 1.616061e+00 -1.034242e+00 0.000000e+00 0.000000e+00 0.000000e+00 0.000000e+00 3.333286e+00 -1.101937e+00 0.000000e+00 -1.101937e+00 -7.073245e+00 0.000000e+00 0.000000e+00 0.000000e+00 0.000000e+00 -2.076209e+00 3.285593e+00 0.000000e+00 3.285593e+00 -6.280118e-02 0.000000e+00 0.000000e+00 0.000000e+00 0.000000e+00 -1.062692e+00 -4.482665e+00 0.000000e+00 -4.482665e+00 -2.597858e+00 0.000000e+00 0.000000e+00 0.000000e+00 0.000000e+00 1.694209e-01 -9.145450e-01 0.000000e+00 -9.145450e-01 -1.702554e+01 0.000000e+00 0.000000e+00 0.000000e+00 0.000000e+00 3.766956e-01 -4.717623e-01 0.000000e+00 -4.717623e-01 -1.623767e+01 0.000000e+00 0.000000e+00 0.000000e+00 0.000000e+00 -3.167963e-01 9.127394e-01 0.000000e+00 9.127394e-01 -1.557759e+00 0.000000e+00 0.000000e+00 0.000000e+00 0.000000e+00 -1.427821e-01 1.700391e-01 0.000000e+00 1.700391e-01 -6.903823e-01 0.000000e+00 0.000000e+00 0.000000e+00 0.000000e+00 1.202010e+00 -2.806912e+00 0.000000e+00 -2.806912e+00 -1.242183e+01 0.000000e+00 0.000000e+00 0.000000e+00 0.000000e+00 -2.072238e-01 -1.080517e+00 0.000000e+00 -1.080517e+00 -1.792947e+01 0.000000e+00 0.000000e+00 0.000000e+00 0.000000e+00 5.618216e-01 -7.114475e-01 0.000000e+00 -7.114475e-01 -1.859726e+01 0.000000e+00 0.000000e+00 0.000000e+00 0.000000e+00 4.956820e-01 -6.440859e-01 0.000000e+00 -6.440859e-01 -1.730836e+01 0.000000e+00 0.000000e+00 0.000000e+00 0.000000e+00 3.475672e+00 -9.032390e-01 0.000000e+00 -9.032390e-01 -7.406958e+00 0.000000e+00 0.000000e+00 0.000000e+00 0.000000e+00 8.024172e+00 -1.423815e+00 0.000000e+00 -1.423815e+00 -3.125220e-01 0.000000e+00 0.000000e+00 0.000000e+00 0.000000e+00 8.296321e+00 -1.718415e+00 0.000000e+00 -1.718415e+00 8.506050e-02 0.000000e+00 0.000000e+00 0.000000e+00 0.000000e+00 5.114549e+00 -1.089210e+00 0.000000e+00 -1.089210e+00 -4.158390e+00 0.000000e+00 0.000000e+00 0.000000e+00 0.000000e+00 5.290238e+00 -1.376075e+00 0.000000e+00 -1.376075e+00 -3.783599e+00 0.000000e+00 0.000000e+00 0.000000e+00 0.000000e+00 3.430928e+00 -8.393153e-01 0.000000e+00 -8.393153e-01 -6.738008e+00 0.000000e+00 0.000000e+00 0.000000e+00 0.000000e+00 -8.274459e-01 1.934995e+00 0.000000e+00 1.934995e+00 -3.857532e-01 0.000000e+00 0.000000e+00 0.000000e+00 0.000000e+00 -2.566480e+00 3.157345e+00 0.000000e+00 3.157345e+00 -2.530795e-01 0.000000e+00 0.000000e+00 0.000000e+00 0.000000e+00 -2.395643e+00 3.706631e+00 0.000000e+00 3.706631e+00 2.362957e-01 0.000000e+00 0.000000e+00 0.000000e+00 0.000000e+00 -3.667455e+00 3.197928e+00 0.000000e+00 3.197928e+00 3.357575e-01 0.000000e+00 0.000000e+00 0.000000e+00 0.000000e+00 7.370613e-01 -1.969898e+00 0.000000e+00 -1.969898e+00 -1.277997e+01 0.000000e+00 0.000000e+00 0.000000e+00 0.000000e+00 -3.310680e-01 4.894052e-02 0.000000e+00 4.894052e-02 -1.874754e-01 0.000000e+00 0.000000e+00 0.000000e+00 0.000000e+00 2.864021e-01 -3.813540e+00 0.000000e+00 -3.813540e+00 -7.689998e+00 0.000000e+00 0.000000e+00 0.000000e+00 0.000000e+00 1.424919e+00 -3.743993e+00 0.000000e+00 -3.743993e+00 -9.636059e+00 0.000000e+00 0.000000e+00 0.000000e+00 0.000000e+00 6.534308e-01 -1.710748e+00 0.000000e+00 -1.710748e+00 -1.428393e+01 0.000000e+00 0.000000e+00 0.000000e+00 0.000000e+00 -2.398410e-01 1.380754e-01 0.000000e+00 1.380754e-01 -4.751057e-01 0.000000e+00 0.000000e+00 0.000000e+00 0.000000e+00 7.780666e-01 -2.481793e+00 0.000000e+00 -2.481793e+00 -1.491692e+01 0.000000e+00 0.000000e+00 0.000000e+00 0.000000e+00 7.643620e-01 -1.393781e+00 0.000000e+00 -1.393781e+00 -1.580762e+01 0.000000e+00 0.000000e+00 0.000000e+00 0.000000e+00 -5.319972e-01 -1.829427e+00 0.000000e+00 -1.829427e+00 -1.395377e+01 0.000000e+00 0.000000e+00 0.000000e+00 0.000000e+00 -3.292822e+00 9.042028e-01 0.000000e+00 9.042028e-01 -1.825165e+01 0.000000e+00 0.000000e+00 0.000000e+00 0.000000e+00 2.815345e-01 -9.600404e-01 0.000000e+00 -9.600404e-01 -1.590882e+01 0.000000e+00 0.000000e+00 0.000000e+00 0.000000e+00 2.349473e-01 -1.201858e+00 0.000000e+00 -1.201858e+00 -1.449875e+01 0.000000e+00 0.000000e+00 0.000000e+00 0.000000e+00 6.803393e-01 -1.131463e+00 0.000000e+00 -1.131463e+00 -1.611003e+01 0.000000e+00 0.000000e+00 0.000000e+00 0.000000e+00 1.018395e+00 -1.703470e+00 0.000000e+00 -1.703470e+00 -1.421486e+01 0.000000e+00 0.000000e+00 0.000000e+00 0.000000e+00 -1.065831e-01 -7.184567e-01 0.000000e+00 -7.184567e-01 -1.531224e+01 0.000000e+00 0.000000e+00 0.000000e+00 0.000000e+00 -8.102891e-01 -1.435716e-01 0.000000e+00 -1.435716e-01 -1.668758e+01 0.000000e+00 0.000000e+00 0.000000e+00 0.000000e+00 3.763241e-01 -9.783863e-01 0.000000e+00 -9.783863e-01 -1.590843e+01 0.000000e+00 0.000000e+00 0.000000e+00 0.000000e+00 3.047702e-01 3.119187e-01 0.000000e+00 3.119187e-01 -1.964990e+01 0.000000e+00 0.000000e+00 0.000000e+00 0.000000e+00 1.157010e+00 -2.470619e+00 0.000000e+00 -2.470619e+00 -1.327165e+01 0.000000e+00 0.000000e+00 0.000000e+00 0.000000e+00 3.351184e-01 -2.388883e+00 0.000000e+00 -2.388883e+00 -1.171223e+01 0.000000e+00 0.000000e+00 0.000000e+00 0.000000e+00 5.686253e-02 -1.804214e+00 0.000000e+00 -1.804214e+00 -1.274366e+01 0.000000e+00 0.000000e+00 0.000000e+00 0.000000e+00 9.174877e-01 -4.518937e-01 0.000000e+00 -4.518937e-01 -1.716950e+01 0.000000e+00 0.000000e+00 0.000000e+00 0.000000e+00 7.671743e-01 -7.247386e-01 0.000000e+00 -7.247386e-01 -1.719149e+01 0.000000e+00 0.000000e+00 0.000000e+00 0.000000e+00 4.222677e+00 -1.164256e+00 0.000000e+00 -1.164256e+00 -5.721871e+00 0.000000e+00 0.000000e+00 0.000000e+00 0.000000e+00 3.964377e+00 -8.797719e-01 0.000000e+00 -8.797719e-01 -6.087391e+00 0.000000e+00 0.000000e+00 0.000000e+00 0.000000e+00 3.998703e+00 -1.015337e+00 0.000000e+00 -1.015337e+00 -5.449026e+00 0.000000e+00 0.000000e+00 0.000000e+00 0.000000e+00 6.896554e+00 -1.510909e+00 0.000000e+00 -1.510909e+00 -1.924830e+00 0.000000e+00 0.000000e+00 0.000000e+00 0.000000e+00 6.293811e+00 -1.251551e+00 0.000000e+00 -1.251551e+00 -2.279167e+00 0.000000e+00 0.000000e+00 0.000000e+00 0.000000e+00 6.703796e+00 -1.324406e+00 0.000000e+00 -1.324406e+00 -1.670682e+00 0.000000e+00 0.000000e+00 0.000000e+00 0.000000e+00 3.458813e-01 -3.731213e-01 0.000000e+00 -3.731213e-01 -4.069001e-02 0.000000e+00 0.000000e+00 0.000000e+00 0.000000e+00 -3.289136e+00 2.245631e+00 0.000000e+00 2.245631e+00 2.937142e+00 0.000000e+00 0.000000e+00 0.000000e+00 0.000000e+00 3.709444e+00 -1.494390e+00 0.000000e+00 -1.494390e+00 -6.679747e+00 0.000000e+00 0.000000e+00 0.000000e+00 0.000000e+00 2.350931e-01 -4.363546e+00 0.000000e+00 -4.363546e+00 -6.063844e+00 0.000000e+00 0.000000e+00 0.000000e+00 0.000000e+00 1.035419e+01 -1.920993e+00 0.000000e+00 -1.920993e+00 2.182443e+00 0.000000e+00 0.000000e+00 0.000000e+00 0.000000e+00 9.231066e+00 -1.611347e+00 0.000000e+00 -1.611347e+00 1.694380e+00 0.000000e+00 0.000000e+00 0.000000e+00 0.000000e+00 9.893989e+00 -1.705300e+00 0.000000e+00 -1.705300e+00 2.425293e+00 0.000000e+00 0.000000e+00 0.000000e+00 0.000000e+00 2.055552e+01 -4.024193e+00 0.000000e+00 -4.024193e+00 1.693666e+01 0.000000e+00 0.000000e+00 0.000000e+00 0.000000e+00 2.659037e+01 -7.422579e+00 0.000000e+00 -7.422579e+00 2.795949e+01 0.000000e+00 0.000000e+00 0.000000e+00 0.000000e+00 2.070717e+01 -5.828960e+00 0.000000e+00 -5.828960e+00 2.538298e+01 0.000000e+00 0.000000e+00 0.000000e+00 0.000000e+00 2.021471e+01 -5.938932e+00 0.000000e+00 -5.938932e+00 3.071430e+01 0.000000e+00 0.000000e+00 0.000000e+00 0.000000e+00 3.650165e+00 2.092190e+00 0.000000e+00 2.092190e+00 3.129122e-02 0.000000e+00 0.000000e+00 0.000000e+00 0.000000e+00 4.070785e+00 2.422621e+00 0.000000e+00 2.422621e+00 4.409089e-01 0.000000e+00 0.000000e+00 0.000000e+00 0.000000e+00 9.582830e-01 -5.227469e+00 0.000000e+00 -5.227469e+00 -5.627326e+00 0.000000e+00 0.000000e+00 0.000000e+00 0.000000e+00 -7.518290e-03 -3.494156e-01 0.000000e+00 -3.494156e-01 2.578330e-01 0.000000e+00 0.000000e+00 0.000000e+00 0.000000e+00 8.611094e+00 -1.481370e+00 0.000000e+00 -1.481370e+00 3.881600e-01 0.000000e+00 0.000000e+00 0.000000e+00 0.000000e+00 7.435048e-01 -6.864945e-01 0.000000e+00 -6.864945e-01 -1.926109e+01 0.000000e+00 0.000000e+00 0.000000e+00 0.000000e+00 6.517526e+00 3.247973e+00 0.000000e+00 3.247973e+00 8.607558e-01 0.000000e+00 0.000000e+00 0.000000e+00 0.000000e+00 -1.382164e+00 2.612104e+00 0.000000e+00 2.612104e+00 -1.637677e-01 0.000000e+00 0.000000e+00 0.000000e+00 0.000000e+00 1.225337e+01 1.699261e+00 0.000000e+00 1.699261e+00 3.328659e+01 0.000000e+00 0.000000e+00 0.000000e+00 0.000000e+00 -2.916189e+00 3.156766e+00 0.000000e+00 3.156766e+00 2.005000e-01 0.000000e+00 0.000000e+00 0.000000e+00 0.000000e+00 -3.080163e+00 3.021050e+00 0.000000e+00 3.021050e+00 1.430106e+00 0.000000e+00 0.000000e+00 0.000000e+00 0.000000e+00 1.852403e+01 -3.782114e+00 0.000000e+00 -3.782114e+00 1.486882e+01 0.000000e+00 0.000000e+00 0.000000e+00 0.000000e+00 2.308924e-01 -5.584491e+00 0.000000e+00 -5.584491e+00 -3.299673e+00 0.000000e+00 0.000000e+00 0.000000e+00 0.000000e+00 1.945732e+01 -6.207374e+00 0.000000e+00 -6.207374e+00 1.846172e+01 0.000000e+00 0.000000e+00 0.000000e+00 0.000000e+00 1.184186e+01 9.415070e+00 0.000000e+00 9.415070e+00 2.942688e+01 0.000000e+00 0.000000e+00 0.000000e+00 0.000000e+00 3.005726e+00 3.337860e+00 0.000000e+00 3.337860e+00 1.018840e-02 0.000000e+00 0.000000e+00 0.000000e+00 0.000000e+00 6.244374e-01 -1.073536e+00 0.000000e+00 -1.073536e+00 -1.420774e+01 0.000000e+00 0.000000e+00 0.000000e+00 0.000000e+00 2.208706e+01 1.883254e+01 0.000000e+00 1.883254e+01 2.969157e+01 0.000000e+00 0.000000e+00 0.000000e+00 0.000000e+00 1.216088e+00 -1.764866e+00 0.000000e+00 -1.764866e+00 -1.414895e+01 0.000000e+00 0.000000e+00 0.000000e+00 0.000000e+00 7.745329e-01 -7.359641e-02 0.000000e+00 -7.359641e-02 -1.639301e+01 0.000000e+00 0.000000e+00 0.000000e+00 0.000000e+00 1.230232e+00 -7.067482e-01 0.000000e+00 -7.067482e-01 -2.005402e+01 0.000000e+00 0.000000e+00 0.000000e+00 0.000000e+00 1.014545e+01 6.291409e+00 0.000000e+00 6.291409e+00 5.233402e+00 0.000000e+00 0.000000e+00 0.000000e+00 0.000000e+00 1.035952e+01 8.690197e+00 0.000000e+00 8.690197e+00 2.148514e+01 0.000000e+00 0.000000e+00 0.000000e+00 0.000000e+00 -4.712867e-01 8.997212e-01 0.000000e+00 8.997212e-01 -1.002557e+00 0.000000e+00 0.000000e+00 0.000000e+00 0.000000e+00 9.824100e-01 -1.256896e+00 0.000000e+00 -1.256896e+00 -1.485950e+01 0.000000e+00 0.000000e+00 0.000000e+00 0.000000e+00 -2.861504e-01 3.969679e-01 0.000000e+00 3.969679e-01 -1.306035e+00 0.000000e+00 0.000000e+00 0.000000e+00 0.000000e+00 2.587433e-01 -1.272507e+00 0.000000e+00 -1.272507e+00 -1.352159e+01 0.000000e+00 0.000000e+00 0.000000e+00 0.000000e+00 2.794993e+00 -1.307256e+00 0.000000e+00 -1.307256e+00 -7.022213e+00 0.000000e+00 0.000000e+00 0.000000e+00 0.000000e+00 -1.872847e+00 -5.044717e+00 0.000000e+00 -5.044717e+00 -3.858043e-01 0.000000e+00 0.000000e+00 0.000000e+00 0.000000e+00 -9.631068e-01 -5.343384e+00 0.000000e+00 -5.343384e+00 -1.716394e+00 0.000000e+00 0.000000e+00 0.000000e+00 0.000000e+00 9.038696e-01 -8.753302e-01 0.000000e+00 -8.753302e-01 -1.915336e+01 0.000000e+00 0.000000e+00 0.000000e+00 0.000000e+00 -4.346636e-01 1.297406e+00 0.000000e+00 1.297406e+00 -5.046542e-01 0.000000e+00 0.000000e+00 0.000000e+00 0.000000e+00 3.800116e-01 -1.034566e+00 0.000000e+00 -1.034566e+00 -1.406192e+01 0.000000e+00 0.000000e+00 0.000000e+00 0.000000e+00 1.188955e+01 7.774772e+00 0.000000e+00 7.774772e+00 2.568364e+01 0.000000e+00 0.000000e+00 0.000000e+00 0.000000e+00 1.254461e+01 4.501884e+00 0.000000e+00 4.501884e+00 3.775000e+01 0.000000e+00 0.000000e+00 0.000000e+00 0.000000e+00 -7.466961e-01 1.591415e+00 0.000000e+00 1.591415e+00 -1.614892e+00 0.000000e+00 0.000000e+00 0.000000e+00 0.000000e+00 2.446390e+00 3.555401e+00 0.000000e+00 3.555401e+00 3.070285e-01 0.000000e+00 0.000000e+00 0.000000e+00 0.000000e+00 1.350526e+00 -1.942105e+00 0.000000e+00 -1.942105e+00 -1.288512e+01 0.000000e+00 0.000000e+00 0.000000e+00 0.000000e+00 7.362925e+00 3.923423e+00 0.000000e+00 3.923423e+00 1.639998e+00 0.000000e+00 0.000000e+00 0.000000e+00 0.000000e+00 5.429996e+00 3.322738e+00 0.000000e+00 3.322738e+00 6.940983e-01 0.000000e+00 0.000000e+00 0.000000e+00 0.000000e+00 -1.406044e-01 -1.922337e+00 0.000000e+00 -1.922337e+00 -1.643534e+01 0.000000e+00 0.000000e+00 0.000000e+00 0.000000e+00 -1.717334e+00 3.762244e+00 0.000000e+00 3.762244e+00 2.968997e-01 0.000000e+00 0.000000e+00 0.000000e+00 0.000000e+00 6.548640e+00 -1.995260e+00 0.000000e+00 -1.995260e+00 -2.282217e+00 0.000000e+00 0.000000e+00 0.000000e+00 0.000000e+00 6.901684e-01 -5.493929e-01 0.000000e+00 -5.493929e-01 -1.504579e+01 0.000000e+00 0.000000e+00 0.000000e+00 0.000000e+00 2.326243e+00 -7.370582e-01 0.000000e+00 -7.370582e-01 -8.763227e+00 0.000000e+00 0.000000e+00 0.000000e+00 0.000000e+00 8.023951e+00 7.564193e+00 0.000000e+00 7.564193e+00 1.473810e+01 0.000000e+00 0.000000e+00 0.000000e+00 0.000000e+00 7.349157e+00 6.897129e+00 0.000000e+00 6.897129e+00 1.403687e+01 0.000000e+00 0.000000e+00 0.000000e+00 0.000000e+00 3.649427e+00 -1.281063e+00 0.000000e+00 -1.281063e+00 -6.324109e+00 0.000000e+00 0.000000e+00 0.000000e+00 0.000000e+00 3.786414e+00 -1.538633e+00 0.000000e+00 -1.538633e+00 -5.911147e+00 0.000000e+00 0.000000e+00 0.000000e+00 0.000000e+00 -2.244303e+00 2.279283e+00 0.000000e+00 2.279283e+00 2.622846e+00 0.000000e+00 0.000000e+00 0.000000e+00 0.000000e+00 1.678051e+01 -4.418194e+00 0.000000e+00 -4.418194e+00 1.144408e+01 0.000000e+00 0.000000e+00 0.000000e+00 0.000000e+00 2.221476e+01 -4.963577e+00 0.000000e+00 -4.963577e+00 1.872528e+01 0.000000e+00 0.000000e+00 0.000000e+00 0.000000e+00 1.091269e+01 7.860976e+00 0.000000e+00 7.860976e+00 2.900263e+01 0.000000e+00 0.000000e+00 0.000000e+00 0.000000e+00 9.256803e+00 5.119733e+00 0.000000e+00 5.119733e+00 2.626789e+01 0.000000e+00 0.000000e+00 0.000000e+00 0.000000e+00 8.430598e+00 6.978978e+00 0.000000e+00 6.978978e+00 1.984439e+01 0.000000e+00 0.000000e+00 0.000000e+00 0.000000e+00 1.334939e+01 -3.587156e+00 0.000000e+00 -3.587156e+00 6.642175e+00 0.000000e+00 0.000000e+00 0.000000e+00 0.000000e+00 1.070474e+01 -2.997247e+00 0.000000e+00 -2.997247e+00 3.530791e+00 0.000000e+00 0.000000e+00 0.000000e+00 0.000000e+00 1.652805e+01 -3.884381e+00 0.000000e+00 -3.884381e+00 3.246330e+01 0.000000e+00 0.000000e+00 0.000000e+00 0.000000e+00 1.319662e+01 -1.211220e+00 0.000000e+00 -1.211220e+00 3.668016e+01 0.000000e+00 0.000000e+00 0.000000e+00 0.000000e+00 4.978916e+00 -1.975181e+00 0.000000e+00 -1.975181e+00 -3.993932e+00 0.000000e+00 0.000000e+00 0.000000e+00 0.000000e+00 1.554159e+01 -2.798153e+00 0.000000e+00 -2.798153e+00 9.867289e+00 0.000000e+00 0.000000e+00 0.000000e+00 0.000000e+00 7.126264e+00 4.741113e+00 0.000000e+00 4.741113e+00 2.741074e+00 0.000000e+00 0.000000e+00 0.000000e+00 0.000000e+00 8.455055e+00 4.815846e+00 0.000000e+00 4.815846e+00 2.945604e+00 0.000000e+00 0.000000e+00 0.000000e+00 0.000000e+00 3.700119e+00 3.190500e+00 0.000000e+00 3.190500e+00 2.420914e-01 0.000000e+00 0.000000e+00 0.000000e+00 0.000000e+00 2.759921e+00 3.718162e+00 0.000000e+00 3.718162e+00 4.043457e-01 0.000000e+00 0.000000e+00 0.000000e+00 0.000000e+00 6.066317e+00 -1.824186e+00 0.000000e+00 -1.824186e+00 -2.994413e+00 0.000000e+00 0.000000e+00 0.000000e+00 0.000000e+00 5.859026e+00 -1.686936e+00 0.000000e+00 -1.686936e+00 -2.650838e+00 0.000000e+00 0.000000e+00 0.000000e+00 0.000000e+00 2.662075e+01 1.537320e+01 0.000000e+00 1.537320e+01 4.527151e+01 0.000000e+00 0.000000e+00 0.000000e+00 0.000000e+00 9.863390e+00 7.479548e+00 0.000000e+00 7.479548e+00 8.547555e+00 0.000000e+00 0.000000e+00 0.000000e+00 0.000000e+00 6.894759e+00 5.645677e+00 0.000000e+00 5.645677e+00 6.125955e+00 0.000000e+00 0.000000e+00 0.000000e+00 0.000000e+00 5.169682e+00 2.356862e+00 0.000000e+00 2.356862e+00 1.517406e-01 0.000000e+00 0.000000e+00 0.000000e+00 0.000000e+00 -1.163095e+00 -5.131223e+00 0.000000e+00 -5.131223e+00 -2.020612e+00 0.000000e+00 0.000000e+00 0.000000e+00 0.000000e+00 1.764455e+01 -5.035644e+00 0.000000e+00 -5.035644e+00 1.929560e+01 0.000000e+00 0.000000e+00 0.000000e+00 0.000000e+00 2.146458e+01 -6.445504e+00 0.000000e+00 -6.445504e+00 2.143961e+01 0.000000e+00 0.000000e+00 0.000000e+00 0.000000e+00 -2.915093e+00 3.442502e+00 0.000000e+00 3.442502e+00 6.389404e-01 0.000000e+00 0.000000e+00 0.000000e+00 0.000000e+00 5.797504e+00 2.745514e+00 0.000000e+00 2.745514e+00 3.507665e-01 0.000000e+00 0.000000e+00 0.000000e+00 0.000000e+00 4.518454e-02 3.288480e-01 0.000000e+00 3.288480e-01 -3.507767e-01 0.000000e+00 0.000000e+00 0.000000e+00 0.000000e+00 -1.609826e+00 3.365890e+00 0.000000e+00 3.365890e+00 1.519543e+00 0.000000e+00 0.000000e+00 0.000000e+00 0.000000e+00 1.260984e+00 -1.034613e+00 0.000000e+00 -1.034613e+00 -1.300686e+01 0.000000e+00 0.000000e+00 0.000000e+00 0.000000e+00 -1.649963e+00 3.801462e+00 0.000000e+00 3.801462e+00 8.451975e-01 0.000000e+00 0.000000e+00 0.000000e+00 0.000000e+00 1.854576e+01 -5.704256e+00 0.000000e+00 -5.704256e+00 1.589186e+01 0.000000e+00 0.000000e+00 0.000000e+00 0.000000e+00 1.630926e+01 -4.984538e+00 0.000000e+00 -4.984538e+00 1.657148e+01 0.000000e+00 0.000000e+00 0.000000e+00 0.000000e+00 -2.884852e-01 -5.091646e+00 0.000000e+00 -5.091646e+00 -3.594760e+00 0.000000e+00 0.000000e+00 0.000000e+00 0.000000e+00 7.156183e-01 -1.026692e+00 0.000000e+00 -1.026692e+00 -1.316830e+01 0.000000e+00 0.000000e+00 0.000000e+00 0.000000e+00 1.628158e+00 -6.482746e-01 0.000000e+00 -6.482746e-01 -1.098149e+01 0.000000e+00 0.000000e+00 0.000000e+00 0.000000e+00 8.304990e+00 -2.408675e+00 0.000000e+00 -2.408675e+00 6.031093e-01 0.000000e+00 0.000000e+00 0.000000e+00 0.000000e+00 3.610970e+00 2.922694e+00 0.000000e+00 2.922694e+00 2.629381e-01 0.000000e+00 0.000000e+00 0.000000e+00 0.000000e+00 1.248816e+01 -3.212635e+00 0.000000e+00 -3.212635e+00 5.482975e+00 0.000000e+00 0.000000e+00 0.000000e+00 0.000000e+00 1.160025e+01 -3.005015e+00 0.000000e+00 -3.005015e+00 5.739696e+00 0.000000e+00 0.000000e+00 0.000000e+00 0.000000e+00 8.291892e-01 -7.092721e-01 0.000000e+00 -7.092721e-01 -1.383516e+01 0.000000e+00 0.000000e+00 0.000000e+00 0.000000e+00 4.775855e+00 -1.862560e+00 0.000000e+00 -1.862560e+00 -4.821586e+00 0.000000e+00 0.000000e+00 0.000000e+00 0.000000e+00 4.501030e+00 -1.640018e+00 0.000000e+00 -1.640018e+00 -4.452728e+00 0.000000e+00 0.000000e+00 0.000000e+00 0.000000e+00 7.346758e-01 -1.046347e+00 0.000000e+00 -1.046347e+00 -1.290473e+01 0.000000e+00 0.000000e+00 0.000000e+00 0.000000e+00 1.554110e+00 -1.376217e+00 0.000000e+00 -1.376217e+00 -1.004861e+01 0.000000e+00 0.000000e+00 0.000000e+00 0.000000e+00 7.446345e+00 -2.358577e+00 0.000000e+00 -2.358577e+00 -8.611097e-01 0.000000e+00 0.000000e+00 0.000000e+00 0.000000e+00 5.829303e+00 -1.162198e+00 0.000000e+00 -1.162198e+00 -3.478038e+00 0.000000e+00 0.000000e+00 0.000000e+00 0.000000e+00 4.506072e+00 -5.454938e+00 0.000000e+00 -5.454938e+00 5.146948e+00 0.000000e+00 0.000000e+00 0.000000e+00 0.000000e+00 4.460539e+00 2.546876e+00 0.000000e+00 2.546876e+00 -7.564338e-02 0.000000e+00 0.000000e+00 0.000000e+00 0.000000e+00 1.608825e+00 -2.528269e+00 0.000000e+00 -2.528269e+00 -1.198407e+01 0.000000e+00 0.000000e+00 0.000000e+00 0.000000e+00 3.515569e+00 -1.715408e+00 0.000000e+00 -1.715408e+00 -7.288547e+00 0.000000e+00 0.000000e+00 0.000000e+00 0.000000e+00 -9.589750e-02 2.766624e-01 0.000000e+00 2.766624e-01 -6.109047e-01 0.000000e+00 0.000000e+00 0.000000e+00 0.000000e+00 1.902111e+00 -1.180528e+00 0.000000e+00 -1.180528e+00 -9.272415e+00 0.000000e+00 0.000000e+00 0.000000e+00 0.000000e+00 2.306729e+00 -1.178404e+00 0.000000e+00 -1.178404e+00 -9.756341e+00 0.000000e+00 0.000000e+00 0.000000e+00 0.000000e+00 2.707081e+00 -1.195521e+00 0.000000e+00 -1.195521e+00 -9.032754e+00 0.000000e+00 0.000000e+00 0.000000e+00 0.000000e+00 5.121035e+00 2.855723e+00 0.000000e+00 2.855723e+00 2.389133e-01 0.000000e+00 0.000000e+00 0.000000e+00 0.000000e+00 -3.493209e+00 -1.151500e+00 0.000000e+00 -1.151500e+00 5.394005e+00 0.000000e+00 0.000000e+00 0.000000e+00 0.000000e+00 7.770330e+00 -2.426347e+00 0.000000e+00 -2.426347e+00 -1.275716e-01 0.000000e+00 0.000000e+00 0.000000e+00 0.000000e+00 7.289480e+00 -2.101904e+00 0.000000e+00 -2.101904e+00 -5.907687e-01 0.000000e+00 0.000000e+00 0.000000e+00 0.000000e+00 8.302254e+00 -2.174647e+00 0.000000e+00 -2.174647e+00 1.804423e-01 0.000000e+00 0.000000e+00 0.000000e+00 0.000000e+00 5.988156e-01 -1.045521e+00 0.000000e+00 -1.045521e+00 -1.566839e+01 0.000000e+00 0.000000e+00 0.000000e+00 0.000000e+00 4.753219e+00 2.022586e+00 0.000000e+00 2.022586e+00 3.023067e-01 0.000000e+00 0.000000e+00 0.000000e+00 0.000000e+00 1.037456e+00 3.699447e+00 0.000000e+00 3.699447e+00 3.902113e-01 0.000000e+00 0.000000e+00 0.000000e+00 0.000000e+00 5.907622e-01 -5.591203e-01 0.000000e+00 -5.591203e-01 -1.595204e+01 0.000000e+00 0.000000e+00 0.000000e+00 0.000000e+00 4.511010e-01 -1.678622e+00 0.000000e+00 -1.678622e+00 -1.183271e+01 0.000000e+00 0.000000e+00 0.000000e+00 0.000000e+00 6.309299e+00 3.897450e+00 0.000000e+00 3.897450e+00 1.472140e+00 0.000000e+00 0.000000e+00 0.000000e+00 0.000000e+00 9.851809e-01 -1.467591e+00 0.000000e+00 -1.467591e+00 -1.366665e+01 0.000000e+00 0.000000e+00 0.000000e+00 0.000000e+00 1.517430e+01 -4.095454e+00 0.000000e+00 -4.095454e+00 1.223394e+01 0.000000e+00 0.000000e+00 0.000000e+00 0.000000e+00 1.781902e+01 -5.042112e+00 0.000000e+00 -5.042112e+00 1.366684e+01 0.000000e+00 0.000000e+00 0.000000e+00 0.000000e+00 -3.539268e+00 7.858663e-01 0.000000e+00 7.858663e-01 4.476501e+00 0.000000e+00 0.000000e+00 0.000000e+00 0.000000e+00 8.140718e-01 -8.609747e-01 0.000000e+00 -8.609747e-01 -1.225720e+01 0.000000e+00 0.000000e+00 0.000000e+00 0.000000e+00 1.189364e+00 -1.639172e+00 0.000000e+00 -1.639172e+00 -1.207659e+01 0.000000e+00 0.000000e+00 0.000000e+00 0.000000e+00 1.474955e+00 -1.354268e+00 0.000000e+00 -1.354268e+00 -1.177967e+01 0.000000e+00 0.000000e+00 0.000000e+00 0.000000e+00 8.561206e+00 -2.118959e+00 0.000000e+00 -2.118959e+00 8.631073e-01 0.000000e+00 0.000000e+00 0.000000e+00 0.000000e+00 8.803175e+00 -2.365337e+00 0.000000e+00 -2.365337e+00 1.316846e+00 0.000000e+00 0.000000e+00 0.000000e+00 0.000000e+00 -2.602891e-01 7.782804e-01 0.000000e+00 7.782804e-01 -8.105902e-01 0.000000e+00 0.000000e+00 0.000000e+00 0.000000e+00 -3.273602e+00 -1.875429e+00 0.000000e+00 -1.875429e+00 3.299246e+00 0.000000e+00 0.000000e+00 0.000000e+00 0.000000e+00 1.588728e+00 4.003616e+00 0.000000e+00 4.003616e+00 6.917419e-01 0.000000e+00 0.000000e+00 0.000000e+00 0.000000e+00 5.283846e+00 -6.396060e+00 0.000000e+00 -6.396060e+00 4.823804e+00 0.000000e+00 0.000000e+00 0.000000e+00 0.000000e+00 1.638776e+00 -3.171545e+00 0.000000e+00 -3.171545e+00 -1.097129e+01 0.000000e+00 0.000000e+00 0.000000e+00 0.000000e+00 4.218451e-01 -3.099360e+00 0.000000e+00 -3.099360e+00 -9.402044e+00 0.000000e+00 0.000000e+00 0.000000e+00 0.000000e+00 1.124401e+00 7.776983e-01 0.000000e+00 7.776983e-01 -2.101362e+01 0.000000e+00 0.000000e+00 0.000000e+00 0.000000e+00 -3.097845e+00 -3.281873e+00 0.000000e+00 -3.281873e+00 4.868771e+00 0.000000e+00 0.000000e+00 0.000000e+00 0.000000e+00 6.051989e+00 -1.924739e+00 0.000000e+00 -1.924739e+00 -1.989148e+00 0.000000e+00 0.000000e+00 0.000000e+00 0.000000e+00 7.001326e+00 -2.173313e+00 0.000000e+00 -2.173313e+00 -1.615825e+00 0.000000e+00 0.000000e+00 0.000000e+00 0.000000e+00 -2.100538e+00 -1.979674e+00 0.000000e+00 -1.979674e+00 7.220162e+00 0.000000e+00 0.000000e+00 0.000000e+00 0.000000e+00 4.072361e+00 2.315894e+00 0.000000e+00 2.315894e+00 -1.332970e-01 0.000000e+00 0.000000e+00 0.000000e+00 0.000000e+00 3.120230e+00 -1.502777e+00 0.000000e+00 -1.502777e+00 -8.167923e+00 0.000000e+00 0.000000e+00 0.000000e+00 0.000000e+00 2.223911e+00 -1.247409e+00 0.000000e+00 -1.247409e+00 -8.496049e+00 0.000000e+00 0.000000e+00 0.000000e+00 0.000000e+00 2.442794e+00 -1.489327e+00 0.000000e+00 -1.489327e+00 -7.670450e+00 0.000000e+00 0.000000e+00 0.000000e+00 0.000000e+00 -1.676147e+00 -5.487847e+00 0.000000e+00 -5.487847e+00 4.110034e-01 0.000000e+00 0.000000e+00 0.000000e+00 0.000000e+00 9.820859e+00 -2.613296e+00 0.000000e+00 -2.613296e+00 2.983176e+00 0.000000e+00 0.000000e+00 0.000000e+00 0.000000e+00 1.035289e+01 -2.799554e+00 0.000000e+00 -2.799554e+00 2.651166e+00 0.000000e+00 0.000000e+00 0.000000e+00 0.000000e+00 1.619447e+01 -3.589730e+00 0.000000e+00 -3.589730e+00 9.586424e+00 0.000000e+00 0.000000e+00 0.000000e+00 0.000000e+00 1.438135e+01 -3.951618e+00 0.000000e+00 -3.951618e+00 1.055555e+01 0.000000e+00 0.000000e+00 0.000000e+00 0.000000e+00 3.386309e+00 2.776353e+00 0.000000e+00 2.776353e+00 -6.951594e-03 0.000000e+00 0.000000e+00 0.000000e+00 0.000000e+00 3.303943e-01 -4.762650e+00 0.000000e+00 -4.762650e+00 -5.184270e+00 0.000000e+00 0.000000e+00 0.000000e+00 0.000000e+00 5.058119e-01 -2.409569e+00 0.000000e+00 -2.409569e+00 -1.078025e+01 0.000000e+00 0.000000e+00 0.000000e+00 0.000000e+00 -3.086345e+00 3.092153e-01 0.000000e+00 3.092153e-01 3.276664e+00 0.000000e+00 0.000000e+00 0.000000e+00 0.000000e+00 2.919257e+00 -1.708979e+00 0.000000e+00 -1.708979e+00 -6.783049e+00 0.000000e+00 0.000000e+00 0.000000e+00 0.000000e+00 6.720849e-01 -6.043128e+00 0.000000e+00 -6.043128e+00 -2.489294e+00 0.000000e+00 0.000000e+00 0.000000e+00 0.000000e+00 1.537296e+00 -1.479395e+00 0.000000e+00 -1.479395e+00 -1.083505e+01 0.000000e+00 0.000000e+00 0.000000e+00 0.000000e+00 1.236849e+00 -1.066027e+00 0.000000e+00 -1.066027e+00 -1.124848e+01 0.000000e+00 0.000000e+00 0.000000e+00 0.000000e+00 2.048683e+00 -1.199747e+00 0.000000e+00 -1.199747e+00 -1.051318e+01 0.000000e+00 0.000000e+00 0.000000e+00 0.000000e+00 5.945549e+00 4.223830e+00 0.000000e+00 4.223830e+00 1.843711e+00 0.000000e+00 0.000000e+00 0.000000e+00 0.000000e+00 6.793641e+00 5.618620e+00 0.000000e+00 5.618620e+00 5.529238e+00 0.000000e+00 0.000000e+00 0.000000e+00 0.000000e+00 1.680743e+00 -4.680325e+00 0.000000e+00 -4.680325e+00 -6.969474e+00 0.000000e+00 0.000000e+00 0.000000e+00 0.000000e+00 6.526680e+00 -2.018513e+00 0.000000e+00 -2.018513e+00 -1.342542e+00 0.000000e+00 0.000000e+00 0.000000e+00 0.000000e+00 5.165401e+00 -1.789593e+00 0.000000e+00 -1.789593e+00 -3.264085e+00 0.000000e+00 0.000000e+00 0.000000e+00 0.000000e+00 1.136241e+01 -3.047724e+00 0.000000e+00 -3.047724e+00 4.435511e+00 0.000000e+00 0.000000e+00 0.000000e+00 0.000000e+00 1.073617e+01 -2.667003e+00 0.000000e+00 -2.667003e+00 3.884837e+00 0.000000e+00 0.000000e+00 0.000000e+00 0.000000e+00 1.163766e+01 -2.748510e+00 0.000000e+00 -2.748510e+00 4.749486e+00 0.000000e+00 0.000000e+00 0.000000e+00 0.000000e+00 -2.813287e+00 -3.619119e+00 0.000000e+00 -3.619119e+00 3.009438e+00 0.000000e+00 0.000000e+00 0.000000e+00 0.000000e+00 4.844183e+00 3.094766e+00 0.000000e+00 3.094766e+00 3.609985e-01 0.000000e+00 0.000000e+00 0.000000e+00 0.000000e+00 6.288628e+00 4.965241e+00 0.000000e+00 4.965241e+00 3.553420e+00 0.000000e+00 0.000000e+00 0.000000e+00 0.000000e+00 5.037083e+00 4.584792e+00 0.000000e+00 4.584792e+00 3.380143e+00 0.000000e+00 0.000000e+00 0.000000e+00 0.000000e+00 4.156948e+00 3.976949e+00 0.000000e+00 3.976949e+00 1.911207e+00 0.000000e+00 0.000000e+00 0.000000e+00 0.000000e+00 1.936606e+00 -2.395917e+00 0.000000e+00 -2.395917e+00 -1.102532e+01 0.000000e+00 0.000000e+00 0.000000e+00 0.000000e+00 -6.977391e-01 4.064760e+00 0.000000e+00 4.064760e+00 7.245881e-01 0.000000e+00 0.000000e+00 0.000000e+00 0.000000e+00 4.549364e+00 2.717198e+00 0.000000e+00 2.717198e+00 3.043170e-01 0.000000e+00 0.000000e+00 0.000000e+00 0.000000e+00 9.916729e+00 -3.721156e+00 0.000000e+00 -3.721156e+00 3.277744e+00 0.000000e+00 0.000000e+00 0.000000e+00 0.000000e+00 8.848682e+00 -2.431490e+00 0.000000e+00 -2.431490e+00 2.048609e+00 0.000000e+00 0.000000e+00 0.000000e+00 0.000000e+00 2.043229e+00 -3.297860e+00 0.000000e+00 -3.297860e+00 -9.679636e+00 0.000000e+00 0.000000e+00 0.000000e+00 0.000000e+00 6.048772e-01 -4.073136e+00 0.000000e+00 -4.073136e+00 -6.741338e+00 0.000000e+00 0.000000e+00 0.000000e+00 0.000000e+00 -3.959840e-01 3.723207e+00 0.000000e+00 3.723207e+00 4.401012e-01 0.000000e+00 0.000000e+00 0.000000e+00 0.000000e+00 3.504620e+00 3.066037e+00 0.000000e+00 3.066037e+00 -1.359805e-03 0.000000e+00 0.000000e+00 0.000000e+00 0.000000e+00 4.507858e+00 -1.491691e+00 0.000000e+00 -1.491691e+00 -5.690835e+00 0.000000e+00 0.000000e+00 0.000000e+00 0.000000e+00 5.742792e+00 -6.276961e+00 0.000000e+00 -6.276961e+00 1.039735e+01 0.000000e+00 0.000000e+00 0.000000e+00 0.000000e+00 3.936519e+00 -1.584970e+00 0.000000e+00 -1.584970e+00 -5.192124e+00 0.000000e+00 0.000000e+00 0.000000e+00 0.000000e+00 1.602749e+00 3.735814e+00 0.000000e+00 3.735814e+00 6.780852e-01 0.000000e+00 0.000000e+00 0.000000e+00 0.000000e+00 1.374284e+01 -3.846209e+00 0.000000e+00 -3.846209e+00 7.827781e+00 0.000000e+00 0.000000e+00 0.000000e+00 0.000000e+00 -1.572992e+00 2.428902e+00 0.000000e+00 2.428902e+00 5.122063e+00 0.000000e+00 0.000000e+00 0.000000e+00 0.000000e+00 6.290393e-01 -6.626150e-01 0.000000e+00 -6.626150e-01 -1.724036e+01 0.000000e+00 0.000000e+00 0.000000e+00 0.000000e+00 1.421889e+01 -3.543765e+00 0.000000e+00 -3.543765e+00 8.992139e+00 0.000000e+00 0.000000e+00 0.000000e+00 0.000000e+00 4.168046e-01 4.101126e+00 0.000000e+00 4.101126e+00 7.607351e-01 0.000000e+00 0.000000e+00 0.000000e+00 0.000000e+00 -1.291463e+00 3.295532e+00 0.000000e+00 3.295532e+00 2.594638e+00 0.000000e+00 0.000000e+00 0.000000e+00 0.000000e+00 1.240438e-01 3.670303e+00 0.000000e+00 3.670303e+00 2.870847e+00 0.000000e+00 0.000000e+00 0.000000e+00 0.000000e+00 1.447276e+01 -3.505583e+00 0.000000e+00 -3.505583e+00 8.143556e+00 0.000000e+00 0.000000e+00 0.000000e+00 0.000000e+00 4.362447e-01 -1.000518e+00 0.000000e+00 -1.000518e+00 -1.753903e+01 0.000000e+00 0.000000e+00 0.000000e+00 0.000000e+00 2.045993e-01 3.681287e+00 0.000000e+00 3.681287e+00 7.052180e-01 0.000000e+00 0.000000e+00 0.000000e+00 0.000000e+00 1.498698e+01 -4.873285e+00 0.000000e+00 -4.873285e+00 1.038388e+01 0.000000e+00 0.000000e+00 0.000000e+00 0.000000e+00 1.223406e+01 -3.234471e+00 0.000000e+00 -3.234471e+00 6.857383e+00 0.000000e+00 0.000000e+00 0.000000e+00 0.000000e+00 6.038407e+00 -5.718006e+00 0.000000e+00 -5.718006e+00 7.044059e+00 0.000000e+00 0.000000e+00 0.000000e+00 0.000000e+00 4.767065e+00 -4.803049e+00 0.000000e+00 -4.803049e+00 1.417181e+01 0.000000e+00 0.000000e+00 0.000000e+00 0.000000e+00 -1.967923e+00 5.260414e-01 0.000000e+00 5.260414e-01 7.062511e+00 0.000000e+00 0.000000e+00 0.000000e+00 0.000000e+00 -1.136483e+00 2.038648e+00 0.000000e+00 2.038648e+00 4.298117e+00 0.000000e+00 0.000000e+00 0.000000e+00 0.000000e+00 -2.082265e+00 -3.139319e-01 0.000000e+00 -3.139319e-01 5.151853e+00 0.000000e+00 0.000000e+00 0.000000e+00 0.000000e+00 2.117030e+00 -4.108075e+00 0.000000e+00 -4.108075e+00 -8.245342e+00 0.000000e+00 0.000000e+00 0.000000e+00 0.000000e+00 -1.157318e+00 -1.699905e+00 0.000000e+00 -1.699905e+00 -2.112678e+01 0.000000e+00 0.000000e+00 0.000000e+00 0.000000e+00 -2.058538e+00 -2.645697e+00 0.000000e+00 -2.645697e+00 5.065426e+00 0.000000e+00 0.000000e+00 0.000000e+00 0.000000e+00 9.589890e+00 -3.354544e+00 0.000000e+00 -3.354544e+00 3.606119e+00 0.000000e+00 0.000000e+00 0.000000e+00 0.000000e+00 1.037592e+01 -3.818499e+00 0.000000e+00 -3.818499e+00 4.411912e+00 0.000000e+00 0.000000e+00 0.000000e+00 0.000000e+00 3.125502e+00 -1.931031e+00 0.000000e+00 -1.931031e+00 -8.069409e+00 0.000000e+00 0.000000e+00 0.000000e+00 0.000000e+00 7.161299e+00 7.330786e+00 0.000000e+00 7.330786e+00 1.332074e+01 0.000000e+00 0.000000e+00 0.000000e+00 0.000000e+00 5.574563e+00 5.551312e+00 0.000000e+00 5.551312e+00 1.037959e+01 0.000000e+00 0.000000e+00 0.000000e+00 0.000000e+00 1.064326e+00 4.198405e+00 0.000000e+00 4.198405e+00 1.497170e+00 0.000000e+00 0.000000e+00 0.000000e+00 0.000000e+00 1.016685e+01 3.871326e-01 0.000000e+00 3.871326e-01 2.787873e+01 0.000000e+00 0.000000e+00 0.000000e+00 0.000000e+00 9.329329e-01 -2.996694e+00 0.000000e+00 -2.996694e+00 -8.612146e+00 0.000000e+00 0.000000e+00 0.000000e+00 0.000000e+00 1.286624e+01 -4.445923e+00 0.000000e+00 -4.445923e+00 7.226249e+00 0.000000e+00 0.000000e+00 0.000000e+00 0.000000e+00 5.602190e+00 -1.747437e+00 0.000000e+00 -1.747437e+00 -3.677966e+00 0.000000e+00 0.000000e+00 0.000000e+00 0.000000e+00 1.978668e+01 -6.161669e+00 0.000000e+00 -6.161669e+00 2.884652e+01 0.000000e+00 0.000000e+00 0.000000e+00 0.000000e+00 1.526053e+01 -4.774872e+00 0.000000e+00 -4.774872e+00 3.274983e+01 0.000000e+00 0.000000e+00 0.000000e+00 0.000000e+00 6.950112e+00 -2.915268e+00 0.000000e+00 -2.915268e+00 -1.275849e+00 0.000000e+00 0.000000e+00 0.000000e+00 0.000000e+00 2.091009e+01 -6.804523e+00 0.000000e+00 -6.804523e+00 2.519314e+01 0.000000e+00 0.000000e+00 0.000000e+00 0.000000e+00 1.604974e+01 -5.347769e+00 0.000000e+00 -5.347769e+00 2.739070e+01 0.000000e+00 0.000000e+00 0.000000e+00 0.000000e+00 3.115797e+00 3.530210e+00 0.000000e+00 3.530210e+00 5.000288e-01 0.000000e+00 0.000000e+00 0.000000e+00 0.000000e+00 2.376423e+00 4.176064e+00 0.000000e+00 4.176064e+00 1.198434e+00 0.000000e+00 0.000000e+00 0.000000e+00 0.000000e+00 9.722221e+00 2.079026e+00 0.000000e+00 2.079026e+00 3.117464e+01 0.000000e+00 0.000000e+00 0.000000e+00 0.000000e+00 2.255316e+00 -4.910094e+00 0.000000e+00 -4.910094e+00 -5.804046e+00 0.000000e+00 0.000000e+00 0.000000e+00 0.000000e+00 8.344445e+00 4.563570e+00 0.000000e+00 4.563570e+00 2.580752e+01 0.000000e+00 0.000000e+00 0.000000e+00 0.000000e+00 -3.868191e-01 -5.993843e+00 0.000000e+00 -5.993843e+00 -6.509994e-01 0.000000e+00 0.000000e+00 0.000000e+00 0.000000e+00 1.727084e+01 -5.754477e+00 0.000000e+00 -5.754477e+00 2.356893e+01 0.000000e+00 0.000000e+00 0.000000e+00 0.000000e+00 2.968853e-01 -5.502332e+00 0.000000e+00 -5.502332e+00 -2.167292e+00 0.000000e+00 0.000000e+00 0.000000e+00 0.000000e+00 3.773637e+00 -2.036714e+00 0.000000e+00 -2.036714e+00 -6.352661e+00 0.000000e+00 0.000000e+00 0.000000e+00 0.000000e+00 1.605511e+01 -6.540779e+00 0.000000e+00 -6.540779e+00 1.750994e+01 0.000000e+00 0.000000e+00 0.000000e+00 0.000000e+00 -5.552108e-01 -5.608618e+00 0.000000e+00 -5.608618e+00 -7.209599e-01 0.000000e+00 0.000000e+00 0.000000e+00 0.000000e+00 1.591034e+00 -5.698427e+00 0.000000e+00 -5.698427e+00 -4.103103e+00 0.000000e+00 0.000000e+00 0.000000e+00 0.000000e+00 7.540106e+00 -3.042044e+00 0.000000e+00 -3.042044e+00 6.072826e-01 0.000000e+00 0.000000e+00 0.000000e+00 0.000000e+00 6.739436e+00 5.626981e+00 0.000000e+00 5.626981e+00 5.514235e+00 0.000000e+00 0.000000e+00 0.000000e+00 0.000000e+00 5.540743e+00 3.558173e+00 0.000000e+00 3.558173e+00 8.969286e-01 0.000000e+00 0.000000e+00 0.000000e+00 0.000000e+00 2.599910e-01 3.967251e+00 0.000000e+00 3.967251e+00 1.399834e+00 0.000000e+00 0.000000e+00 0.000000e+00 0.000000e+00 4.157332e+00 3.672412e+00 0.000000e+00 3.672412e+00 9.726353e-01 0.000000e+00 0.000000e+00 0.000000e+00 0.000000e+00 4.755958e+00 -2.569233e+00 0.000000e+00 -2.569233e+00 -4.381154e+00 0.000000e+00 0.000000e+00 0.000000e+00 0.000000e+00 9.455703e+00 -3.438407e+00 0.000000e+00 -3.438407e+00 2.196051e+00 0.000000e+00 0.000000e+00 0.000000e+00 0.000000e+00 8.770105e+00 -3.251194e+00 0.000000e+00 -3.251194e+00 2.557753e+00 0.000000e+00 0.000000e+00 0.000000e+00 0.000000e+00 -1.728108e+00 -4.045137e+00 0.000000e+00 -4.045137e+00 6.332459e+00 0.000000e+00 0.000000e+00 0.000000e+00 0.000000e+00 1.507520e+01 -5.647099e+00 0.000000e+00 -5.647099e+00 1.326723e+01 0.000000e+00 0.000000e+00 0.000000e+00 0.000000e+00 8.444553e-01 -2.198622e+00 0.000000e+00 -2.198622e+00 -1.008683e+01 0.000000e+00 0.000000e+00 0.000000e+00 0.000000e+00 1.571052e+01 -4.775196e+00 0.000000e+00 -4.775196e+00 1.449024e+01 0.000000e+00 0.000000e+00 0.000000e+00 0.000000e+00 -2.853603e+00 -4.602874e+00 0.000000e+00 -4.602874e+00 1.750463e+00 0.000000e+00 0.000000e+00 0.000000e+00 0.000000e+00 -1.609914e+00 -5.313849e+00 0.000000e+00 -5.313849e+00 5.684948e-01 0.000000e+00 0.000000e+00 0.000000e+00 0.000000e+00 7.292551e+00 -3.161788e+00 0.000000e+00 -3.161788e+00 -2.976711e-01 0.000000e+00 0.000000e+00 0.000000e+00 0.000000e+00 7.565001e+00 -2.864990e+00 0.000000e+00 -2.864990e+00 3.830793e-02 0.000000e+00 0.000000e+00 0.000000e+00 0.000000e+00 1.274166e+01 -4.523910e+00 0.000000e+00 -4.523910e+00 9.607876e+00 0.000000e+00 0.000000e+00 0.000000e+00 0.000000e+00 1.715305e+00 -1.511760e+00 0.000000e+00 -1.511760e+00 -9.253547e+00 0.000000e+00 0.000000e+00 0.000000e+00 0.000000e+00 2.660018e+00 -1.546176e+00 0.000000e+00 -1.546176e+00 -8.974299e+00 0.000000e+00 0.000000e+00 0.000000e+00 0.000000e+00 -9.454106e-01 -5.927049e+00 0.000000e+00 -5.927049e+00 1.920543e+00 0.000000e+00 0.000000e+00 0.000000e+00 0.000000e+00 1.282373e+01 -4.719871e+00 0.000000e+00 -4.719871e+00 1.178820e+01 0.000000e+00 0.000000e+00 0.000000e+00 0.000000e+00 2.437589e+00 -2.117176e+00 0.000000e+00 -2.117176e+00 -7.370800e+00 0.000000e+00 0.000000e+00 0.000000e+00 0.000000e+00 3.419996e+00 -2.397883e+00 0.000000e+00 -2.397883e+00 -7.013650e+00 0.000000e+00 0.000000e+00 0.000000e+00 0.000000e+00 1.002858e+00 -4.825959e+00 0.000000e+00 -4.825959e+00 -4.200741e+00 0.000000e+00 0.000000e+00 0.000000e+00 0.000000e+00 2.273710e+00 -1.837814e+00 0.000000e+00 -1.837814e+00 -9.577693e+00 0.000000e+00 0.000000e+00 0.000000e+00 0.000000e+00 4.896703e+00 -2.576303e+00 0.000000e+00 -2.576303e+00 -3.355470e+00 0.000000e+00 0.000000e+00 0.000000e+00 0.000000e+00 6.395067e+00 -2.773587e+00 0.000000e+00 -2.773587e+00 -8.600257e-01 0.000000e+00 0.000000e+00 0.000000e+00 0.000000e+00 6.140440e+00 4.263382e+00 0.000000e+00 4.263382e+00 1.849289e+01 0.000000e+00 0.000000e+00 0.000000e+00 0.000000e+00 6.895257e+00 5.587931e+00 0.000000e+00 5.587931e+00 1.991746e+01 0.000000e+00 0.000000e+00 0.000000e+00 0.000000e+00 1.354014e+01 -5.184879e+00 0.000000e+00 -5.184879e+00 1.845818e+01 0.000000e+00 0.000000e+00 0.000000e+00 0.000000e+00 1.647773e+01 -6.731387e+00 0.000000e+00 -6.731387e+00 2.126947e+01 0.000000e+00 0.000000e+00 0.000000e+00 0.000000e+00 3.783604e+00 -5.511410e+00 0.000000e+00 -5.511410e+00 3.172676e+00 0.000000e+00 0.000000e+00 0.000000e+00 0.000000e+00 8.671667e+00 -3.136976e+00 0.000000e+00 -3.136976e+00 9.535920e-01 0.000000e+00 0.000000e+00 0.000000e+00 0.000000e+00 4.869843e+00 -2.260724e+00 0.000000e+00 -2.260724e+00 -3.943582e+00 0.000000e+00 0.000000e+00 0.000000e+00 0.000000e+00 -2.201105e+00 -5.081306e+00 0.000000e+00 -5.081306e+00 3.331168e+00 0.000000e+00 0.000000e+00 0.000000e+00 0.000000e+00 1.199502e+00 -1.673646e+00 0.000000e+00 -1.673646e+00 -9.940161e+00 0.000000e+00 0.000000e+00 0.000000e+00 0.000000e+00 6.567231e+00 -2.448127e+00 0.000000e+00 -2.448127e+00 -2.206473e+00 0.000000e+00 0.000000e+00 0.000000e+00 0.000000e+00 5.628335e+00 -2.507549e+00 0.000000e+00 -2.507549e+00 -2.494910e+00 0.000000e+00 0.000000e+00 0.000000e+00 0.000000e+00 5.703815e+00 -2.637979e+00 0.000000e+00 -2.637979e+00 -1.733251e+00 0.000000e+00 0.000000e+00 0.000000e+00 0.000000e+00 5.793109e+00 -2.363622e+00 0.000000e+00 -2.363622e+00 -2.998728e+00 0.000000e+00 0.000000e+00 0.000000e+00 0.000000e+00 -1.318069e+00 -4.509798e+00 0.000000e+00 -4.509798e+00 4.107535e+00 0.000000e+00 0.000000e+00 0.000000e+00 0.000000e+00 2.286986e+00 -3.993131e+00 0.000000e+00 -3.993131e+00 -7.088026e+00 0.000000e+00 0.000000e+00 0.000000e+00 0.000000e+00 7.234850e+00 2.858111e+00 0.000000e+00 2.858111e+00 2.311762e+01 0.000000e+00 0.000000e+00 0.000000e+00 0.000000e+00 6.692452e+00 -3.743509e+00 0.000000e+00 -3.743509e+00 -7.279220e-01 0.000000e+00 0.000000e+00 0.000000e+00 0.000000e+00 1.412383e+00 -6.227961e+00 0.000000e+00 -6.227961e+00 -1.228818e+00 0.000000e+00 0.000000e+00 0.000000e+00 0.000000e+00 4.781555e-01 3.657944e+00 0.000000e+00 3.657944e+00 1.342846e+00 0.000000e+00 0.000000e+00 0.000000e+00 0.000000e+00 1.857905e+00 -4.757697e+00 0.000000e+00 -4.757697e+00 -4.765134e+00 0.000000e+00 0.000000e+00 0.000000e+00 0.000000e+00 2.195395e+00 -3.644379e+00 0.000000e+00 -3.644379e+00 -6.745399e+00 0.000000e+00 0.000000e+00 0.000000e+00 0.000000e+00 1.293960e+01 -4.669505e+00 0.000000e+00 -4.669505e+00 8.761531e+00 0.000000e+00 0.000000e+00 0.000000e+00 0.000000e+00 3.473433e+00 -1.834339e+00 0.000000e+00 -1.834339e+00 -5.872546e+00 0.000000e+00 0.000000e+00 0.000000e+00 0.000000e+00 3.601188e+00 -2.481794e+00 0.000000e+00 -2.481794e+00 1.454995e+01 0.000000e+00 0.000000e+00 0.000000e+00 0.000000e+00 1.487960e-01 -6.305901e+00 0.000000e+00 -6.305901e+00 3.919014e-01 0.000000e+00 0.000000e+00 0.000000e+00 0.000000e+00 -9.140563e-01 -5.539439e+00 0.000000e+00 -5.539439e+00 1.876411e+00 0.000000e+00 0.000000e+00 0.000000e+00 0.000000e+00 7.612820e-02 -5.905485e+00 0.000000e+00 -5.905485e+00 7.634697e-01 0.000000e+00 0.000000e+00 0.000000e+00 0.000000e+00 8.709892e-01 -1.720456e+00 0.000000e+00 -1.720456e+00 -1.075542e+01 0.000000e+00 0.000000e+00 0.000000e+00 0.000000e+00 1.234051e+01 -3.732235e+00 0.000000e+00 -3.732235e+00 5.753181e+00 0.000000e+00 0.000000e+00 0.000000e+00 0.000000e+00 1.093091e+01 -3.722934e+00 0.000000e+00 -3.722934e+00 5.330380e+00 0.000000e+00 0.000000e+00 0.000000e+00 0.000000e+00 1.083208e+01 -4.057134e+00 0.000000e+00 -4.057134e+00 6.490432e+00 0.000000e+00 0.000000e+00 0.000000e+00 0.000000e+00 4.828749e+00 5.323028e+00 0.000000e+00 5.323028e+00 8.665946e+00 0.000000e+00 0.000000e+00 0.000000e+00 0.000000e+00 3.941832e+00 3.179342e+00 0.000000e+00 3.179342e+00 2.852216e-01 0.000000e+00 0.000000e+00 0.000000e+00 0.000000e+00 -5.427703e-01 4.095011e+00 0.000000e+00 4.095011e+00 1.362287e+00 0.000000e+00 0.000000e+00 0.000000e+00 0.000000e+00 1.584507e+01 -5.299609e+00 0.000000e+00 -5.299609e+00 1.360848e+01 0.000000e+00 0.000000e+00 0.000000e+00 0.000000e+00 2.262774e+00 -3.028065e+00 0.000000e+00 -3.028065e+00 -8.880563e+00 0.000000e+00 0.000000e+00 0.000000e+00 0.000000e+00 1.103131e+01 -4.510007e+00 0.000000e+00 -4.510007e+00 8.172927e+00 0.000000e+00 0.000000e+00 0.000000e+00 0.000000e+00 8.115772e+00 -3.587250e-01 0.000000e+00 -3.587250e-01 2.668556e+01 0.000000e+00 0.000000e+00 0.000000e+00 0.000000e+00 1.121445e+01 -5.574070e+00 0.000000e+00 -5.574070e+00 1.058487e+01 0.000000e+00 0.000000e+00 0.000000e+00 0.000000e+00 3.876082e+00 3.862810e+00 0.000000e+00 3.862810e+00 8.302296e-01 0.000000e+00 0.000000e+00 0.000000e+00 0.000000e+00 1.153302e+01 -5.294743e+00 0.000000e+00 -5.294743e+00 7.999262e+00 0.000000e+00 0.000000e+00 0.000000e+00 0.000000e+00 -8.566528e-01 -2.792609e+00 0.000000e+00 -2.792609e+00 9.128589e+00 0.000000e+00 0.000000e+00 0.000000e+00 0.000000e+00 2.120955e+00 -1.871252e+00 0.000000e+00 -1.871252e+00 -8.348165e+00 0.000000e+00 0.000000e+00 0.000000e+00 0.000000e+00 1.327076e+01 -5.516583e+00 0.000000e+00 -5.516583e+00 1.594132e+01 0.000000e+00 0.000000e+00 0.000000e+00 0.000000e+00 9.901643e+00 -2.367215e+00 0.000000e+00 -2.367215e+00 1.644020e+00 0.000000e+00 0.000000e+00 0.000000e+00 0.000000e+00 2.194311e+00 -2.144128e+00 0.000000e+00 -2.144128e+00 -1.021555e+01 0.000000e+00 0.000000e+00 0.000000e+00 0.000000e+00 1.290044e+01 -5.511115e+00 0.000000e+00 -5.511115e+00 1.106925e+01 0.000000e+00 0.000000e+00 0.000000e+00 0.000000e+00 4.077727e-01 3.569815e+00 0.000000e+00 3.569815e+00 3.753527e+00 0.000000e+00 0.000000e+00 0.000000e+00 0.000000e+00 1.159559e+01 -3.166646e+00 0.000000e+00 -3.166646e+00 2.998703e+01 0.000000e+00 0.000000e+00 0.000000e+00 0.000000e+00 8.730811e+00 -1.485346e+00 0.000000e+00 -1.485346e+00 2.293176e+01 0.000000e+00 0.000000e+00 0.000000e+00 0.000000e+00 1.308538e+01 -6.228366e+00 0.000000e+00 -6.228366e+00 1.482318e+01 0.000000e+00 0.000000e+00 0.000000e+00 0.000000e+00 2.191751e+00 -5.713331e+00 0.000000e+00 -5.713331e+00 -2.542051e+00 0.000000e+00 0.000000e+00 0.000000e+00 0.000000e+00 4.234918e+00 -3.408116e+00 0.000000e+00 -3.408116e+00 -3.485245e+00 0.000000e+00 0.000000e+00 0.000000e+00 0.000000e+00 2.051516e+00 -1.626512e+00 0.000000e+00 -1.626512e+00 -9.073879e+00 0.000000e+00 0.000000e+00 0.000000e+00 0.000000e+00 2.178894e+00 -2.509455e+00 0.000000e+00 -2.509455e+00 -8.408212e+00 0.000000e+00 0.000000e+00 0.000000e+00 0.000000e+00 9.502147e+00 -4.640168e+00 0.000000e+00 -4.640168e+00 4.359409e+00 0.000000e+00 0.000000e+00 0.000000e+00 0.000000e+00 2.323748e+00 -4.570901e+00 0.000000e+00 -4.570901e+00 -4.572143e+00 0.000000e+00 0.000000e+00 0.000000e+00 0.000000e+00 3.764808e+00 -2.234348e+00 0.000000e+00 -2.234348e+00 -4.820663e+00 0.000000e+00 0.000000e+00 0.000000e+00 0.000000e+00 5.830476e+00 5.887181e-01 0.000000e+00 5.887181e-01 1.989082e+01 0.000000e+00 0.000000e+00 0.000000e+00 0.000000e+00 1.015017e+01 -4.920311e+00 0.000000e+00 -4.920311e+00 9.128554e+00 0.000000e+00 0.000000e+00 0.000000e+00 0.000000e+00 -1.982814e+00 -4.888245e+00 0.000000e+00 -4.888245e+00 2.242653e+00 0.000000e+00 0.000000e+00 0.000000e+00 0.000000e+00 1.057614e+01 -5.574557e+00 0.000000e+00 -5.574557e+00 1.375881e+01 0.000000e+00 0.000000e+00 0.000000e+00 0.000000e+00 1.024117e+01 -6.030967e+00 0.000000e+00 -6.030967e+00 1.243323e+01 0.000000e+00 0.000000e+00 0.000000e+00 0.000000e+00 6.088164e+00 -3.525760e+00 0.000000e+00 -3.525760e+00 -1.934044e-01 0.000000e+00 0.000000e+00 0.000000e+00 0.000000e+00 7.106263e+00 -4.024215e+00 0.000000e+00 -4.024215e+00 5.226955e-01 0.000000e+00 0.000000e+00 0.000000e+00 0.000000e+00 1.442183e+00 -1.963178e+00 0.000000e+00 -1.963178e+00 -9.431598e+00 0.000000e+00 0.000000e+00 0.000000e+00 0.000000e+00 4.881066e+00 -3.112359e+00 0.000000e+00 -3.112359e+00 -2.416818e+00 0.000000e+00 0.000000e+00 0.000000e+00 0.000000e+00 6.314210e+00 -3.162982e+00 0.000000e+00 -3.162982e+00 -1.987748e+00 0.000000e+00 0.000000e+00 0.000000e+00 0.000000e+00 4.639729e+00 4.354982e+00 0.000000e+00 4.354982e+00 1.348105e+01 0.000000e+00 0.000000e+00 0.000000e+00 0.000000e+00 5.925970e+00 -6.323057e+00 0.000000e+00 -6.323057e+00 6.995819e+00 0.000000e+00 0.000000e+00 0.000000e+00 0.000000e+00 -3.721493e-01 -4.809628e+00 0.000000e+00 -4.809628e+00 7.257895e+00 0.000000e+00 0.000000e+00 0.000000e+00 0.000000e+00 1.406698e+00 4.287346e+00 0.000000e+00 4.287346e+00 2.156573e+00 0.000000e+00 0.000000e+00 0.000000e+00 0.000000e+00 2.238116e+00 3.755583e+00 0.000000e+00 3.755583e+00 1.120069e+00 0.000000e+00 0.000000e+00 0.000000e+00 0.000000e+00 1.679435e+01 -5.698641e+00 0.000000e+00 -5.698641e+00 2.136042e+01 0.000000e+00 0.000000e+00 0.000000e+00 0.000000e+00 4.189988e+00 3.707819e+00 0.000000e+00 3.707819e+00 9.604802e-01 0.000000e+00 0.000000e+00 0.000000e+00 0.000000e+00 5.316941e+00 -3.325290e+00 0.000000e+00 -3.325290e+00 -1.340675e+00 0.000000e+00 0.000000e+00 0.000000e+00 0.000000e+00 1.503658e+00 -2.673250e+00 0.000000e+00 -2.673250e+00 -8.201091e+00 0.000000e+00 0.000000e+00 0.000000e+00 0.000000e+00 5.758094e+00 1.490329e+00 0.000000e+00 1.490329e+00 2.220106e+01 0.000000e+00 0.000000e+00 0.000000e+00 0.000000e+00 7.913971e+00 -2.962287e+00 0.000000e+00 -2.962287e+00 1.492238e+00 0.000000e+00 0.000000e+00 0.000000e+00 0.000000e+00 -1.373673e+00 3.501889e+00 0.000000e+00 3.501889e+00 7.740409e-01 0.000000e+00 0.000000e+00 0.000000e+00 0.000000e+00 1.125889e+01 -4.476861e+00 0.000000e+00 -4.476861e+00 5.998744e+00 0.000000e+00 0.000000e+00 0.000000e+00 0.000000e+00 1.083417e+01 -3.508257e+00 0.000000e+00 -3.508257e+00 4.656768e+00 0.000000e+00 0.000000e+00 0.000000e+00 0.000000e+00 -6.668485e-01 -3.602966e+00 0.000000e+00 -3.602966e+00 6.273464e+00 0.000000e+00 0.000000e+00 0.000000e+00 0.000000e+00 3.530769e+00 -3.445286e+00 0.000000e+00 -3.445286e+00 -4.891897e+00 0.000000e+00 0.000000e+00 0.000000e+00 0.000000e+00 2.360246e+00 4.350566e+00 0.000000e+00 4.350566e+00 2.401655e+00 0.000000e+00 0.000000e+00 0.000000e+00 0.000000e+00 3.212994e+00 4.362835e+00 0.000000e+00 4.362835e+00 2.148024e+00 0.000000e+00 0.000000e+00 0.000000e+00 0.000000e+00 -1.123895e+00 -5.372084e+00 0.000000e+00 -5.372084e+00 4.634296e+00 0.000000e+00 0.000000e+00 0.000000e+00 0.000000e+00 2.401221e+00 3.936901e+00 0.000000e+00 3.936901e+00 2.059315e+00 0.000000e+00 0.000000e+00 0.000000e+00 0.000000e+00 7.752430e-02 2.568591e+00 0.000000e+00 2.568591e+00 8.109292e+00 0.000000e+00 0.000000e+00 0.000000e+00 0.000000e+00 5.390938e+00 -3.216046e+00 0.000000e+00 -3.216046e+00 -3.083351e+00 0.000000e+00 0.000000e+00 0.000000e+00 0.000000e+00 4.211407e+00 4.846443e+00 0.000000e+00 4.846443e+00 3.636007e+00 0.000000e+00 0.000000e+00 0.000000e+00 0.000000e+00 3.463125e+00 4.458238e+00 0.000000e+00 4.458238e+00 5.657676e+00 0.000000e+00 0.000000e+00 0.000000e+00 0.000000e+00 -3.076623e-01 -5.899619e+00 0.000000e+00 -5.899619e+00 2.476183e+00 0.000000e+00 0.000000e+00 0.000000e+00 0.000000e+00 9.581457e+00 -4.906616e+00 0.000000e+00 -4.906616e+00 7.270485e+00 0.000000e+00 0.000000e+00 0.000000e+00 0.000000e+00 4.441538e+00 5.206003e+00 0.000000e+00 5.206003e+00 6.046300e+00 0.000000e+00 0.000000e+00 0.000000e+00 0.000000e+00 1.358683e+00 -1.137968e+00 0.000000e+00 -1.137968e+00 -1.709206e+01 0.000000e+00 0.000000e+00 0.000000e+00 0.000000e+00 2.777998e+00 -2.439477e+00 0.000000e+00 -2.439477e+00 -8.213241e+00 0.000000e+00 0.000000e+00 0.000000e+00 0.000000e+00 1.710903e+00 -1.535289e+00 0.000000e+00 -1.535289e+00 -1.188470e+01 0.000000e+00 0.000000e+00 0.000000e+00 0.000000e+00 8.305012e-01 3.123936e+00 0.000000e+00 3.123936e+00 5.051808e+00 0.000000e+00 0.000000e+00 0.000000e+00 0.000000e+00 8.950318e+00 -4.408858e+00 0.000000e+00 -4.408858e+00 3.111322e+00 0.000000e+00 0.000000e+00 0.000000e+00 0.000000e+00 8.190739e+00 -4.059072e+00 0.000000e+00 -4.059072e+00 3.418999e+00 0.000000e+00 0.000000e+00 0.000000e+00 0.000000e+00 -7.738689e-01 -9.928076e-02 0.000000e+00 -9.928076e-02 9.524232e+00 0.000000e+00 0.000000e+00 0.000000e+00 0.000000e+00 -4.590187e-01 1.466538e+00 0.000000e+00 1.466538e+00 6.486667e+00 0.000000e+00 0.000000e+00 0.000000e+00 0.000000e+00 -1.145398e+00 -1.271016e+00 0.000000e+00 -1.271016e+00 6.982498e+00 0.000000e+00 0.000000e+00 0.000000e+00 0.000000e+00 6.754037e-01 -6.841600e-01 0.000000e+00 -6.841600e-01 -1.784066e+01 0.000000e+00 0.000000e+00 0.000000e+00 0.000000e+00 4.404670e+00 -3.070067e+00 0.000000e+00 -3.070067e+00 -4.364880e+00 0.000000e+00 0.000000e+00 0.000000e+00 0.000000e+00 2.812659e+00 -5.095687e+00 0.000000e+00 -5.095687e+00 -2.688630e+00 0.000000e+00 0.000000e+00 0.000000e+00 0.000000e+00 1.557612e+01 -6.028906e+00 0.000000e+00 -6.028906e+00 2.608456e+01 0.000000e+00 0.000000e+00 0.000000e+00 0.000000e+00 6.778115e+00 -2.193849e+00 0.000000e+00 -2.193849e+00 2.264802e+01 0.000000e+00 0.000000e+00 0.000000e+00 0.000000e+00 9.915775e+00 -6.056259e+00 0.000000e+00 -6.056259e+00 9.139794e+00 0.000000e+00 0.000000e+00 0.000000e+00 0.000000e+00 8.300988e+00 -5.249646e+00 0.000000e+00 -5.249646e+00 1.119672e+01 0.000000e+00 0.000000e+00 0.000000e+00 0.000000e+00 6.910800e+00 -3.667954e+00 0.000000e+00 -3.667954e+00 9.073694e-01 0.000000e+00 0.000000e+00 0.000000e+00 0.000000e+00 6.385243e+00 -4.622310e+00 0.000000e+00 -4.622310e+00 8.612022e-02 0.000000e+00 0.000000e+00 0.000000e+00 0.000000e+00 1.260987e+01 -3.074702e+00 0.000000e+00 -3.074702e+00 2.750737e+01 0.000000e+00 0.000000e+00 0.000000e+00 0.000000e+00 3.642702e-01 -4.986713e+00 0.000000e+00 -4.986713e+00 4.935525e+00 0.000000e+00 0.000000e+00 0.000000e+00 0.000000e+00 9.686457e+00 -5.103028e+00 0.000000e+00 -5.103028e+00 6.268598e+00 0.000000e+00 0.000000e+00 0.000000e+00 0.000000e+00 2.566465e+00 -4.055205e+00 0.000000e+00 -4.055205e+00 -4.901042e+00 0.000000e+00 0.000000e+00 0.000000e+00 0.000000e+00 1.336675e+01 -5.394571e+00 0.000000e+00 -5.394571e+00 2.506447e+01 0.000000e+00 0.000000e+00 0.000000e+00 0.000000e+00 3.757631e+00 -2.714843e+00 0.000000e+00 -2.714843e+00 -5.810189e+00 0.000000e+00 0.000000e+00 0.000000e+00 0.000000e+00 2.904422e+00 -2.293781e+00 0.000000e+00 -2.293781e+00 -6.392448e+00 0.000000e+00 0.000000e+00 0.000000e+00 0.000000e+00 4.312489e+00 -2.430605e+00 0.000000e+00 -2.430605e+00 -5.418471e+00 0.000000e+00 0.000000e+00 0.000000e+00 0.000000e+00 1.140425e+00 -6.474290e+00 0.000000e+00 -6.474290e+00 1.666825e+00 0.000000e+00 0.000000e+00 0.000000e+00 0.000000e+00 1.002971e+01 -4.567098e+00 0.000000e+00 -4.567098e+00 5.635091e+00 0.000000e+00 0.000000e+00 0.000000e+00 0.000000e+00 9.637625e+00 -4.200790e+00 0.000000e+00 -4.200790e+00 4.608544e+00 0.000000e+00 0.000000e+00 0.000000e+00 0.000000e+00 5.904576e+00 -4.065152e+00 0.000000e+00 -4.065152e+00 -1.569175e+00 0.000000e+00 0.000000e+00 0.000000e+00 0.000000e+00 4.304458e+00 -3.755710e+00 0.000000e+00 -3.755710e+00 -2.143155e+00 0.000000e+00 0.000000e+00 0.000000e+00 0.000000e+00 5.133065e+00 5.522303e+00 0.000000e+00 5.522303e+00 8.886540e+00 0.000000e+00 0.000000e+00 0.000000e+00 0.000000e+00 1.293055e+01 -6.494726e+00 0.000000e+00 -6.494726e+00 2.032742e+01 0.000000e+00 0.000000e+00 0.000000e+00 0.000000e+00 8.632668e+00 -5.371782e+00 0.000000e+00 -5.371782e+00 5.919465e+00 0.000000e+00 0.000000e+00 0.000000e+00 0.000000e+00 1.038972e+01 -5.102539e+00 0.000000e+00 -5.102539e+00 1.769997e+01 0.000000e+00 0.000000e+00 0.000000e+00 0.000000e+00 9.786058e+00 -5.579007e+00 0.000000e+00 -5.579007e+00 1.601548e+01 0.000000e+00 0.000000e+00 0.000000e+00 0.000000e+00 1.156675e+01 -4.247477e+00 0.000000e+00 -4.247477e+00 2.069664e+01 0.000000e+00 0.000000e+00 0.000000e+00 0.000000e+00 6.079652e-01 -3.756929e+00 0.000000e+00 -3.756929e+00 1.064612e+01 0.000000e+00 0.000000e+00 0.000000e+00 0.000000e+00 4.328880e+00 2.053083e+00 0.000000e+00 2.053083e+00 1.750036e+01 0.000000e+00 0.000000e+00 0.000000e+00 0.000000e+00 1.412498e+00 -6.056764e+00 0.000000e+00 -6.056764e+00 -6.628914e-02 0.000000e+00 0.000000e+00 0.000000e+00 0.000000e+00 2.244982e+00 -5.363497e+00 0.000000e+00 -5.363497e+00 -2.356622e+00 0.000000e+00 0.000000e+00 0.000000e+00 0.000000e+00 2.792333e+00 -5.840344e+00 0.000000e+00 -5.840344e+00 -2.803700e-01 0.000000e+00 0.000000e+00 0.000000e+00 0.000000e+00 3.240525e+00 -4.814634e+00 0.000000e+00 -4.814634e+00 -2.503993e+00 0.000000e+00 0.000000e+00 0.000000e+00 0.000000e+00 2.411323e+00 4.093592e+00 0.000000e+00 4.093592e+00 8.784610e+00 0.000000e+00 0.000000e+00 0.000000e+00 0.000000e+00 1.638259e+00 3.220316e+00 0.000000e+00 3.220316e+00 7.998037e+00 0.000000e+00 0.000000e+00 0.000000e+00 0.000000e+00 3.078388e+00 3.987526e+00 0.000000e+00 3.987526e+00 1.189329e+01 0.000000e+00 0.000000e+00 0.000000e+00 0.000000e+00 9.740518e-01 1.888606e+00 0.000000e+00 1.888606e+00 1.109831e+01 0.000000e+00 0.000000e+00 0.000000e+00 0.000000e+00 7.914584e+00 -3.780337e+00 0.000000e+00 -3.780337e+00 2.069226e+00 0.000000e+00 0.000000e+00 0.000000e+00 0.000000e+00 8.075142e+00 -5.494427e+00 0.000000e+00 -5.494427e+00 8.248918e+00 0.000000e+00 0.000000e+00 0.000000e+00 0.000000e+00 5.556854e+00 -4.974950e+00 0.000000e+00 -4.974950e+00 1.043912e+01 0.000000e+00 0.000000e+00 0.000000e+00 0.000000e+00 8.019933e+00 -5.263069e+00 0.000000e+00 -5.263069e+00 1.547331e+01 0.000000e+00 0.000000e+00 0.000000e+00 0.000000e+00 4.959772e+00 -4.048002e+00 0.000000e+00 -4.048002e+00 -7.545555e-01 0.000000e+00 0.000000e+00 0.000000e+00 0.000000e+00 3.122441e+00 -3.257205e+00 0.000000e+00 -3.257205e+00 -6.537064e+00 0.000000e+00 0.000000e+00 0.000000e+00 0.000000e+00 8.232510e+00 -4.224291e+00 0.000000e+00 -4.224291e+00 1.747661e+00 0.000000e+00 0.000000e+00 0.000000e+00 0.000000e+00 9.854028e+00 -4.340165e+00 0.000000e+00 -4.340165e+00 2.462539e+01 0.000000e+00 0.000000e+00 0.000000e+00 0.000000e+00 4.035482e-01 -2.541483e+00 0.000000e+00 -2.541483e+00 8.783965e+00 0.000000e+00 0.000000e+00 0.000000e+00 0.000000e+00 3.418912e+00 -3.949713e+00 0.000000e+00 -3.949713e+00 -4.621944e+00 0.000000e+00 0.000000e+00 0.000000e+00 0.000000e+00 6.960143e+00 -5.020943e+00 0.000000e+00 -5.020943e+00 1.695765e+00 0.000000e+00 0.000000e+00 0.000000e+00 0.000000e+00 4.502219e+00 -2.222987e+00 0.000000e+00 -2.222987e+00 -5.353184e+00 0.000000e+00 0.000000e+00 0.000000e+00 0.000000e+00 5.568481e+00 -4.340197e+00 0.000000e+00 -4.340197e+00 6.019771e-01 0.000000e+00 0.000000e+00 0.000000e+00 0.000000e+00 1.207689e+00 -5.923220e-01 0.000000e+00 -5.923220e-01 -2.161072e+01 0.000000e+00 0.000000e+00 0.000000e+00 0.000000e+00 -8.196774e-02 -5.578499e+00 0.000000e+00 -5.578499e+00 3.270443e+00 0.000000e+00 0.000000e+00 0.000000e+00 0.000000e+00 2.160089e+00 -2.598472e+00 0.000000e+00 -2.598472e+00 -7.128435e+00 0.000000e+00 0.000000e+00 0.000000e+00 0.000000e+00 1.463760e+00 -4.931926e+00 0.000000e+00 -4.931926e+00 7.225837e+00 0.000000e+00 0.000000e+00 0.000000e+00 0.000000e+00 1.034114e+00 -5.121587e+00 0.000000e+00 -5.121587e+00 7.419253e+00 0.000000e+00 0.000000e+00 0.000000e+00 0.000000e+00 7.584885e+00 -4.736332e+00 0.000000e+00 -4.736332e+00 4.629851e+00 0.000000e+00 0.000000e+00 0.000000e+00 0.000000e+00 7.695988e+00 -4.418361e+00 0.000000e+00 -4.418361e+00 1.994312e+01 0.000000e+00 0.000000e+00 0.000000e+00 0.000000e+00 2.451926e+00 4.003197e+00 0.000000e+00 4.003197e+00 3.451121e+00 0.000000e+00 0.000000e+00 0.000000e+00 0.000000e+00 4.476120e-01 -1.203471e+00 0.000000e+00 -1.203471e+00 1.234004e+01 0.000000e+00 0.000000e+00 0.000000e+00 0.000000e+00 1.082359e+00 -5.922588e+00 0.000000e+00 -5.922588e+00 2.060762e+00 0.000000e+00 0.000000e+00 0.000000e+00 0.000000e+00 2.111350e+00 -6.221166e+00 0.000000e+00 -6.221166e+00 2.069117e-01 0.000000e+00 0.000000e+00 0.000000e+00 0.000000e+00 5.058791e+00 -1.514197e+00 0.000000e+00 -1.514197e+00 1.745018e+01 0.000000e+00 0.000000e+00 0.000000e+00 0.000000e+00 4.358289e+00 -1.010300e+00 0.000000e+00 -1.010300e+00 1.932554e+01 0.000000e+00 0.000000e+00 0.000000e+00 0.000000e+00 2.454266e+00 -6.316644e+00 0.000000e+00 -6.316644e+00 2.016294e+00 0.000000e+00 0.000000e+00 0.000000e+00 0.000000e+00 3.406551e+00 -5.751184e+00 0.000000e+00 -5.751184e+00 -9.990876e-02 0.000000e+00 0.000000e+00 0.000000e+00 0.000000e+00 2.691610e+00 -3.470086e+00 0.000000e+00 -3.470086e+00 -6.817741e+00 0.000000e+00 0.000000e+00 0.000000e+00 0.000000e+00 7.946758e+00 -5.793109e+00 0.000000e+00 -5.793109e+00 7.144215e+00 0.000000e+00 0.000000e+00 0.000000e+00 0.000000e+00 1.839457e+00 -2.594864e+00 0.000000e+00 -2.594864e+00 1.357389e+01 0.000000e+00 0.000000e+00 0.000000e+00 0.000000e+00 6.661233e+00 -4.494870e+00 0.000000e+00 -4.494870e+00 2.041031e+00 0.000000e+00 0.000000e+00 0.000000e+00 0.000000e+00 3.348150e+00 -3.107547e+00 0.000000e+00 -3.107547e+00 -6.488064e+00 0.000000e+00 0.000000e+00 0.000000e+00 0.000000e+00 4.870773e+00 -4.285153e+00 0.000000e+00 -4.285153e+00 -2.784400e+00 0.000000e+00 0.000000e+00 0.000000e+00 0.000000e+00 8.058979e+00 -6.175774e+00 0.000000e+00 -6.175774e+00 1.084613e+01 0.000000e+00 0.000000e+00 0.000000e+00 0.000000e+00 6.337744e+00 -5.805947e+00 0.000000e+00 -5.805947e+00 3.112660e+00 0.000000e+00 0.000000e+00 0.000000e+00 0.000000e+00 3.741985e+00 -4.212232e+00 0.000000e+00 -4.212232e+00 -1.699348e+00 0.000000e+00 0.000000e+00 0.000000e+00 0.000000e+00 3.903813e+00 -5.367246e+00 0.000000e+00 -5.367246e+00 -8.706348e-01 0.000000e+00 0.000000e+00 0.000000e+00 0.000000e+00 5.425662e+00 -4.923847e+00 0.000000e+00 -4.923847e+00 -6.659211e-01 0.000000e+00 0.000000e+00 0.000000e+00 0.000000e+00 7.311620e+00 -5.968415e+00 0.000000e+00 -5.968415e+00 5.140725e+00 0.000000e+00 0.000000e+00 0.000000e+00 0.000000e+00 6.392332e+00 -5.161934e+00 0.000000e+00 -5.161934e+00 6.190151e+00 0.000000e+00 0.000000e+00 0.000000e+00 0.000000e+00 6.410338e+00 -4.107100e+00 0.000000e+00 -4.107100e+00 1.579298e+01 0.000000e+00 0.000000e+00 0.000000e+00 0.000000e+00 5.181312e+00 -3.358682e+00 0.000000e+00 -3.358682e+00 1.860871e+01 0.000000e+00 0.000000e+00 0.000000e+00 0.000000e+00 3.519479e+00 1.420775e+00 0.000000e+00 1.420775e+00 1.500486e+01 0.000000e+00 0.000000e+00 0.000000e+00 0.000000e+00 4.582782e-01 7.914875e-01 0.000000e+00 7.914875e-01 9.142363e+00 0.000000e+00 0.000000e+00 0.000000e+00 0.000000e+00 7.518839e+00 -5.591439e+00 0.000000e+00 -5.591439e+00 1.380663e+01 0.000000e+00 0.000000e+00 0.000000e+00 0.000000e+00 6.230533e+00 -5.028290e+00 0.000000e+00 -5.028290e+00 1.295920e+01 0.000000e+00 0.000000e+00 0.000000e+00 0.000000e+00 5.410044e+00 -4.374967e+00 0.000000e+00 -4.374967e+00 1.598072e+01 0.000000e+00 0.000000e+00 0.000000e+00 0.000000e+00 8.327457e-01 -6.258804e+00 0.000000e+00 -6.258804e+00 4.880477e+00 0.000000e+00 0.000000e+00 0.000000e+00 0.000000e+00 5.925076e+00 -5.411976e+00 0.000000e+00 -5.411976e+00 9.775312e-01 0.000000e+00 0.000000e+00 0.000000e+00 0.000000e+00 4.428528e+00 -4.827764e+00 0.000000e+00 -4.827764e+00 1.286148e-01 0.000000e+00 0.000000e+00 0.000000e+00 0.000000e+00 4.829067e+00 -5.025511e+00 0.000000e+00 -5.025511e+00 1.784343e+00 0.000000e+00 0.000000e+00 0.000000e+00 0.000000e+00 4.338071e+00 3.976004e+00 0.000000e+00 3.976004e+00 1.631537e+01 0.000000e+00 0.000000e+00 0.000000e+00 0.000000e+00 2.896287e+00 7.267756e-01 0.000000e+00 7.267756e-01 1.666910e+01 0.000000e+00 0.000000e+00 0.000000e+00 0.000000e+00 1.043364e+00 -5.587284e+00 0.000000e+00 -5.587284e+00 4.121056e+00 0.000000e+00 0.000000e+00 0.000000e+00 0.000000e+00 2.116930e+00 -6.585066e+00 0.000000e+00 -6.585066e+00 3.199580e+00 0.000000e+00 0.000000e+00 0.000000e+00 0.000000e+00 4.919390e+00 -6.146511e+00 0.000000e+00 -6.146511e+00 1.992641e+00 0.000000e+00 0.000000e+00 0.000000e+00 0.000000e+00 1.977191e+00 -2.366539e+00 0.000000e+00 -2.366539e+00 1.276437e+01 0.000000e+00 0.000000e+00 0.000000e+00 0.000000e+00 2.613973e+00 3.139609e+00 0.000000e+00 3.139609e+00 1.093160e+01 0.000000e+00 0.000000e+00 0.000000e+00 0.000000e+00 3.344623e+00 -4.123323e+00 0.000000e+00 -4.123323e+00 -3.262685e+00 0.000000e+00 0.000000e+00 0.000000e+00 0.000000e+00 1.996406e+00 4.503392e+00 0.000000e+00 4.503392e+00 5.604642e+00 0.000000e+00 0.000000e+00 0.000000e+00 0.000000e+00 6.629724e+00 -6.058663e+00 0.000000e+00 -6.058663e+00 9.182623e+00 0.000000e+00 0.000000e+00 0.000000e+00 0.000000e+00 6.396633e+00 -5.299993e+00 0.000000e+00 -5.299993e+00 9.253164e+00 0.000000e+00 0.000000e+00 0.000000e+00 0.000000e+00 2.399194e+00 -6.402864e+00 0.000000e+00 -6.402864e+00 5.668925e+00 0.000000e+00 0.000000e+00 0.000000e+00 0.000000e+00 2.716790e+00 -3.519449e-01 0.000000e+00 -3.519449e-01 1.439830e+01 0.000000e+00 0.000000e+00 0.000000e+00 0.000000e+00 2.294794e+00 -5.747834e+00 0.000000e+00 -5.747834e+00 2.141598e+00 0.000000e+00 0.000000e+00 0.000000e+00 0.000000e+00 5.753813e+00 -5.140875e+00 0.000000e+00 -5.140875e+00 3.700526e+00 0.000000e+00 0.000000e+00 0.000000e+00 0.000000e+00 8.579444e+00 -5.146349e+00 0.000000e+00 -5.146349e+00 3.628579e+00 0.000000e+00 0.000000e+00 0.000000e+00 0.000000e+00 7.656641e+00 -3.163364e+00 0.000000e+00 -3.163364e+00 1.876028e+01 0.000000e+00 0.000000e+00 0.000000e+00 0.000000e+00 3.030417e+00 -2.285412e+00 0.000000e+00 -2.285412e+00 1.633541e+01 0.000000e+00 0.000000e+00 0.000000e+00 0.000000e+00 2.903524e+00 -4.396157e+00 0.000000e+00 -4.396157e+00 9.614536e+00 0.000000e+00 0.000000e+00 0.000000e+00 0.000000e+00 4.647319e+00 -5.261808e+00 0.000000e+00 -5.261808e+00 -6.401033e-01 0.000000e+00 0.000000e+00 0.000000e+00 0.000000e+00 7.306507e+00 -4.944744e+00 0.000000e+00 -4.944744e+00 3.187333e+00 0.000000e+00 0.000000e+00 0.000000e+00 0.000000e+00 2.519412e+00 -5.462675e+00 0.000000e+00 -5.462675e+00 4.815233e+00 0.000000e+00 0.000000e+00 0.000000e+00 0.000000e+00 2.394076e+00 -5.056984e+00 0.000000e+00 -5.056984e+00 1.048375e+01 0.000000e+00 0.000000e+00 0.000000e+00 0.000000e+00 3.673314e+00 -6.672295e+00 0.000000e+00 -6.672295e+00 4.382533e+00 0.000000e+00 0.000000e+00 0.000000e+00 0.000000e+00 4.064021e+00 -4.436868e+00 0.000000e+00 -4.436868e+00 1.355060e+01 0.000000e+00 0.000000e+00 0.000000e+00 0.000000e+00 3.931853e+00 -6.412717e+00 0.000000e+00 -6.412717e+00 7.313209e+00 0.000000e+00 0.000000e+00 0.000000e+00 0.000000e+00 2.985036e+00 -2.956224e+00 0.000000e+00 -2.956224e+00 -5.517518e+00 0.000000e+00 0.000000e+00 0.000000e+00 0.000000e+00 3.468977e+00 -5.565878e+00 0.000000e+00 -5.565878e+00 1.150837e+00 0.000000e+00 0.000000e+00 0.000000e+00 0.000000e+00 1.956557e+00 1.128323e+00 0.000000e+00 1.128323e+00 1.413596e+01 0.000000e+00 0.000000e+00 0.000000e+00 0.000000e+00   </DataArray>
  <DataArray type="Float64" Name="IST_PrincipalStressTensor" NumberOfComponents="3" format="ascii">-1.776357e-15 -2.428498e+00 -1.979888e+01 -1.065814e-14 -7.894503e-01 -1.765619e+01 8.400863e-02 -1.953993e-14 -1.574054e+01 6.595121e-01 0.000000e+00 -1.393011e+01 1.202450e+00 -3.552714e-15 -1.227146e+01 1.768638e+00 -4.440892e-16 -1.065405e+01 2.399328e+00 -4.440892e-16 -9.180510e+00 3.078173e+00 -6.661338e-16 -7.777274e+00 3.827414e+00 -4.440892e-16 -6.439390e+00 4.635918e+00 -6.106227e-16 -5.153609e+00 5.495578e+00 -1.665335e-15 -3.836557e+00 6.451647e+00 -1.332268e-15 -2.598997e+00 7.484596e+00 -4.440892e-16 -1.369207e+00 8.585086e+00 1.998401e-14 -2.935648e-02 9.812480e+00 1.294409e+00 -1.332268e-15 1.112820e+01 2.799731e+00 0.000000e+00 1.259586e+01 4.418053e+00 0.000000e+00 1.430071e+01 6.080699e+00 8.881784e-16 1.621640e+01 8.170087e+00 0.000000e+00 1.852915e+01 1.046594e+01 0.000000e+00 2.145304e+01 1.323656e+01 1.776357e-15 2.547625e+01 1.695003e+01 0.000000e+00 3.188499e+01 2.195030e+01 0.000000e+00 4.557220e+01 3.007154e+01 7.105427e-15 8.499922e+01 4.626064e+01 0.000000e+00 7.209144e+00 2.250785e-01 3.552714e-15 6.330222e+00 -1.332268e-15 -1.323866e-01 4.930170e+00 8.881784e-16 -1.304188e-01 2.734483e+00 -3.330669e-16 -1.005699e-01 3.336947e+00 8.016470e-02 6.661338e-16 6.139586e+00 1.993719e-01 2.664535e-15 6.616266e+00 3.845988e-01 -1.332268e-15 1.855828e+00 0.000000e+00 -1.919697e-01 5.331378e-01 -1.110223e-16 -1.285247e+00 1.837372e-01 0.000000e+00 -1.114379e+00 9.861609e-10 -9.862104e-10 -1.985454e-01 2.046355e-03 1.110223e-16 -4.328742e-01 1.187665e-01 -1.110223e-16 -6.204468e-01 2.235652e-01 -1.387779e-17 -1.638526e-01 6.207644e-01 -5.551115e-17 -8.744730e-02 3.834898e-01 -1.387779e-17 -6.864824e-02 1.622726e-01 -1.387779e-17 -2.962452e-02 1.499031e-01 -3.469447e-17 -8.581588e-02 1.599927e-01 -2.428613e-17 -9.511326e-02 3.209221e-01 8.326673e-17 -8.585325e-03 4.733059e-01 0.000000e+00 -1.850362e-01 1.017178e-01 -8.326673e-17 -8.466598e-01 1.030393e-01 -4.440892e-16 -4.208063e+00 2.947276e-01 4.440892e-16 -8.694299e+00 6.915957e-01 -4.440892e-16 -1.185459e+01 1.039196e+00 8.881784e-16 -9.196315e+00 7.878507e-01 -4.440892e-16 -4.813272e+00 2.249861e-02 -5.551115e-17 -1.278678e+00 2.247691e-01 -1.110223e-15 -3.836916e+00 3.087880e-02 2.775558e-16 -1.212459e+00 4.883205e-01 -8.881784e-16 -4.411668e+00 5.589484e-01 2.081668e-17 -6.627726e-01 6.845956e-01 -9.714451e-17 -4.576910e-01 7.834969e-01 -1.110223e-16 -2.148632e-01 8.216759e-01 3.415123e-02 -5.551115e-17 7.703490e-01 2.032079e-01 0.000000e+00 1.057892e+00 -5.551115e-16 -2.501440e-02 1.600811e+00 0.000000e+00 -4.150733e-01 2.378953e+00 -3.885781e-16 -1.172301e+00 3.244528e+00 -7.771561e-16 -1.874315e+00 4.425935e+00 -1.332268e-15 -2.252475e+00 4.923961e+00 -3.330669e-16 -2.587672e+00 5.026967e+00 0.000000e+00 -2.818111e+00 4.790578e+00 -4.440892e-16 -2.922413e+00 4.277781e+00 -2.775558e-16 -3.087575e+00 3.763118e+00 -2.775558e-17 -3.446934e+00 3.504551e+00 -3.330669e-16 -4.058083e+00 3.472232e+00 -1.110223e-16 -4.712828e+00 3.296413e+00 -8.881784e-16 -5.035224e+00 2.933627e+00 2.220446e-16 -4.841390e+00 2.424212e+00 4.440892e-16 -4.267772e+00 1.886293e+00 -8.881784e-16 -3.665277e+00 1.247151e+00 -2.220446e-16 -2.989955e+00 6.163213e-01 -2.220446e-16 -2.260017e+00 8.241108e-02 0.000000e+00 -1.643716e+00 -1.665335e-16 -3.416389e-01 -9.901854e-01 -5.551115e-17 -2.471447e-01 -7.992876e-01 1.028505e-01 -1.942890e-16 -8.132481e-01 3.670141e-01 -1.387779e-16 -7.894663e-01 8.381468e-02 -2.775558e-17 -1.852634e-01 -1.776357e-15 -4.103062e+00 -2.028670e+01 3.552714e-15 -1.440364e+00 -1.875376e+01 -4.440892e-15 -1.103927e+00 -1.889610e+01 -3.552714e-15 -6.510732e-01 -1.801213e+01 7.993606e-15 -2.900258e-01 -1.668450e+01 1.437295e-03 3.054446e-12 -1.614676e+01 3.795846e-01 -9.769963e-15 -1.479519e+01 9.225769e-01 8.881784e-16 -1.307269e+01 1.476041e+00 1.776357e-15 -1.144450e+01 1.295428e+00 -1.776357e-15 -1.184254e+01 1.639125e+00 -4.440892e-16 -1.103789e+01 2.070709e+00 -1.776357e-15 -9.881157e+00 2.744766e+00 -6.661338e-16 -8.511227e+00 3.438186e+00 -1.110223e-15 -7.082254e+00 4.216522e+00 -1.554312e-15 -5.772948e+00 3.975906e+00 -1.221245e-15 -6.091630e+00 4.395518e+00 -8.326673e-16 -5.447298e+00 5.063735e+00 -5.551115e-16 -4.513604e+00 5.959680e+00 2.220446e-16 -3.201872e+00 6.958302e+00 -4.440892e-16 -1.990035e+00 6.651079e+00 -4.440892e-16 -2.286888e+00 7.144450e+00 0.000000e+00 -1.668283e+00 8.032311e+00 -1.776357e-15 -7.310992e-01 9.175704e+00 6.539768e-01 8.881784e-16 1.046282e+01 2.005532e+00 1.776357e-15 1.003642e+01 1.658693e+00 4.440892e-16 1.070342e+01 2.399258e+00 0.000000e+00 1.183688e+01 3.608420e+00 0.000000e+00 1.209095e+01 3.998387e+00 0.000000e+00 1.342981e+01 5.199711e+00 0.000000e+00 1.520629e+01 7.114614e+00 8.881784e-16 1.734601e+01 9.228386e+00 1.776357e-15 1.658981e+01 8.712481e+00 -1.776357e-15 1.747838e+01 9.802525e+00 0.000000e+00 1.990136e+01 1.176679e+01 0.000000e+00 2.329792e+01 1.487213e+01 1.776357e-15 2.823700e+01 1.927319e+01 -1.776357e-15 3.717413e+01 2.547821e+01 3.552714e-15 3.041358e+01 2.325932e+01 3.552714e-15 3.362608e+01 2.648766e+01 0.000000e+00 5.996429e+01 3.670147e+01 7.105427e-15 1.128965e+01 -1.643130e-14 -5.251120e-02 6.745062e+00 8.881784e-16 -4.023540e-01 6.797583e+00 1.243450e-14 -6.413756e-02 5.699086e+00 1.332268e-15 -1.085438e-01 3.980750e+00 -1.776357e-15 -2.027905e-01 4.005654e+00 -4.440892e-16 -4.354334e-01 4.853773e+00 3.354984e-01 -1.110223e-15 4.765355e+00 1.272939e-01 -1.998401e-15 3.671763e+00 -8.881784e-16 -7.956465e-02 8.201052e-01 -1.942890e-16 -4.893747e-01 7.173575e-02 -2.775558e-17 -4.704239e-01 -1.665335e-16 -8.914459e-02 -7.226912e-01 3.037798e-01 -2.775558e-16 -1.509896e+00 7.621863e-02 0.000000e+00 -5.507247e-01 4.827894e-02 -2.775558e-17 -4.018988e-01 1.032375e-01 1.110223e-16 -6.454200e-01 5.713227e-03 -3.608225e-16 -4.845883e-01 1.231124e-01 -1.387779e-17 -3.951410e-01 4.309450e-01 -1.387779e-17 -1.034022e-01 5.735618e-01 -8.326673e-17 -6.357686e-02 2.331722e-01 -1.110223e-15 -4.192877e+00 1.364746e-01 3.552714e-15 -6.450742e+00 1.701075e-01 0.000000e+00 -2.538563e-02 1.016796e-01 -1.040834e-17 -3.976866e-02 3.266117e-01 -9.107298e-17 -3.219853e-01 1.731692e-01 -1.110223e-16 -6.352454e-01 4.297420e-02 2.886580e-15 -2.197034e+00 9.597647e-02 -3.996803e-15 -5.837704e+00 4.606720e-01 -8.881784e-16 -1.066428e+01 -3.996803e-14 -2.071625e-02 -7.626177e+00 9.132028e-01 0.000000e+00 -1.148757e+01 -5.551115e-15 -3.356297e-02 -5.738100e+00 6.345105e-01 2.775558e-17 -3.738699e-01 4.393435e-01 -1.040834e-16 -5.756668e-01 7.952023e-01 -8.326673e-17 -1.826677e-01 9.352170e-01 -1.665335e-16 -3.285267e-02 1.162814e+00 1.513147e-01 -5.551115e-17 1.393991e+00 2.822199e-01 0.000000e+00 1.799520e+00 1.315072e-01 -2.220446e-16 2.740299e+00 1.110223e-16 -2.699310e-01 3.601875e+00 -3.330669e-16 -8.655325e-01 4.796611e+00 0.000000e+00 -1.330884e+00 5.163692e+00 -2.220446e-16 -1.919845e+00 5.153396e+00 5.551115e-16 -2.342135e+00 4.941352e+00 5.551115e-16 -2.780643e+00 4.629639e+00 -2.220446e-16 -3.099701e+00 4.285107e+00 -3.330669e-16 -3.436101e+00 3.977644e+00 -4.857226e-16 -3.910016e+00 3.676906e+00 -8.326673e-16 -4.559569e+00 3.241084e+00 5.551115e-16 -5.147974e+00 2.651083e+00 -1.554312e-15 -5.426231e+00 1.996235e+00 -2.220446e-16 -5.194380e+00 1.386087e+00 -4.440892e-16 -4.626900e+00 8.412563e-01 -6.661338e-16 -4.021159e+00 2.944670e-01 1.110223e-16 -3.272752e+00 -1.221245e-15 -1.362087e-01 -2.455198e+00 1.110223e-16 -4.435629e-01 -1.659663e+00 -1.110223e-16 -5.391164e-01 -9.283902e-01 -1.110223e-16 -2.485004e-01 -7.069186e-01 1.480781e-01 -1.110223e-16 -6.780872e-01 1.322229e+01 1.778108e+00 2.664535e-15 -7.993606e-15 -3.197415e-01 -1.707261e+01 2.798602e-01 -1.776357e-15 -1.523079e+01 8.062683e-01 -8.881784e-16 -1.347203e+01 2.241251e+00 0.000000e+00 -9.527312e+00 1.943605e+00 -1.332268e-15 -1.026195e+01 2.555457e+00 -4.440892e-16 -8.838910e+00 3.227734e+00 2.220446e-16 -7.425717e+00 5.232677e+00 7.216450e-16 -4.142771e+00 4.790895e+00 -5.316927e-16 -4.808878e+00 5.712050e+00 5.551115e-16 -3.499180e+00 8.253136e+00 -1.776357e-15 -3.611868e-01 7.699872e+00 0.000000e+00 -1.026190e+00 8.847551e+00 3.303874e-01 4.884981e-15 1.136976e+01 3.189187e+00 8.881784e-16 1.287186e+01 4.799334e+00 -8.881784e-16 1.470309e+01 6.602936e+00 0.000000e+00 2.021882e+01 1.246564e+01 0.000000e+00 1.881803e+01 1.108111e+01 1.776357e-15 2.177505e+01 1.401183e+01 1.776357e-15 2.576015e+01 1.807056e+01 0.000000e+00 4.739388e+01 3.043684e+01 -3.552714e-15 3.820562e+01 2.939632e+01 0.000000e+00 8.978008e+00 4.440892e-16 -6.915331e-02 6.539362e+00 -1.021405e-14 -1.262929e-02 4.892592e+00 7.105427e-15 -6.708015e-02 3.921237e+00 4.440892e-16 -3.355556e-01 1.466488e+00 -2.220446e-16 -3.360817e-01 -1.110223e-16 -1.883563e-01 -7.412317e-01 2.680207e-02 -5.551115e-17 -5.222377e-01 2.455028e-02 -1.665335e-16 -4.364771e-01 1.780699e-01 1.214306e-17 -2.197400e-01 1.908478e-01 1.387779e-17 -6.922749e-03 2.065218e-01 -3.330669e-16 -1.546551e+00 -8.437695e-15 -4.118179e-02 -7.177941e+00 -5.773160e-15 -1.486344e-01 -8.355458e+00 5.986161e-01 2.220446e-16 -5.262376e+00 3.607132e+00 -6.661338e-16 -6.747553e+00 2.765491e+01 2.037287e+01 0.000000e+00 5.647899e+00 -4.440892e-15 -2.963001e-02 4.141139e+00 4.440892e-16 -1.537261e-01 1.595597e-01 -2.081668e-17 -4.804207e-02 1.052259e+00 -3.108624e-15 -1.264976e+01 5.715081e-01 -1.776357e-15 -1.432777e+01 2.886013e+00 -4.440892e-16 -8.130939e+00 6.178621e+00 2.220446e-16 -2.890427e+00 9.418840e+00 9.895166e-01 -8.881784e-16 1.566708e+01 7.669913e+00 8.881784e-16 1.374914e+01 5.640144e+00 0.000000e+00 2.373147e+01 1.592225e+01 1.776357e-15 7.658325e+00 6.119892e-03 -1.381117e-13 2.814646e+00 -8.881784e-16 -2.418811e-01 2.047283e-01 -4.163336e-17 -2.877510e-02 1.191966e-01 1.387779e-17 -3.278735e-01 2.244771e-01 4.440892e-16 -2.722739e+00 -1.332268e-15 -1.962611e-01 -8.164561e+00 3.279598e-01 7.105427e-15 -1.533747e+01 8.069297e-01 0.000000e+00 -1.354902e+01 2.931486e+00 -1.776357e-15 -8.169284e+00 2.250780e+00 -1.776357e-15 -9.573155e+00 5.539306e-01 -3.552714e-15 -1.445913e+01 7.810529e-01 4.440892e-15 -1.394249e+01 2.587142e+00 -8.881784e-16 -8.836996e+00 2.413049e+00 -1.776357e-15 -9.183903e+00 2.614951e+00 -8.881784e-16 -8.497937e+00 1.914325e+00 -4.440892e-16 -1.027368e+01 2.203471e+00 -4.440892e-16 -9.894645e+00 6.255201e+00 1.110223e-15 -2.968908e+00 5.296170e+00 -1.221245e-15 -4.243604e+00 3.069867e+01 1.933636e+01 3.552714e-15 5.739733e+00 4.440892e-16 -3.576763e+00 5.524804e+00 -5.551115e-16 -3.868884e+00 5.950557e+00 4.440892e-16 -3.233897e+00 4.885666e+00 -4.482092e-16 -4.880910e+00 4.930954e+00 -5.828671e-16 -4.539098e+00 8.342822e+00 -3.108624e-15 -4.591904e-01 9.541261e+00 8.773514e-01 -4.440892e-16 8.931131e+00 1.929789e-01 3.552714e-15 8.559664e+00 -7.105427e-15 -8.978700e-02 9.224603e+00 5.875150e-01 -8.881784e-16 7.784493e+00 0.000000e+00 -1.147068e+00 7.857248e+00 -4.440892e-16 -7.762316e-01 1.164472e+01 3.121470e+00 0.000000e+00 1.572958e+01 7.486495e+00 0.000000e+00 1.320338e+01 4.711845e+00 0.000000e+00 1.486028e+01 6.475116e+00 8.881784e-16 1.524262e+01 7.039131e+00 -8.881784e-16 2.465745e+01 1.517553e+01 1.776357e-15 2.112517e+01 1.210199e+01 -1.776357e-15 1.399932e+01 5.547480e+00 0.000000e+00 1.315825e+01 5.099752e+00 0.000000e+00 1.400306e+01 6.004390e+00 0.000000e+00 2.287006e+01 1.358280e+01 1.776357e-15 2.053855e+01 1.278454e+01 0.000000e+00 2.225535e+01 1.433549e+01 0.000000e+00 1.963631e+01 1.077501e+01 0.000000e+00 1.896937e+01 1.138200e+01 0.000000e+00 2.736543e+01 1.731006e+01 0.000000e+00 2.444897e+01 1.625878e+01 1.776357e-15 2.572296e+01 1.780234e+01 0.000000e+00 7.784248e+00 6.217249e-15 -1.383481e-01 5.217762e+01 2.999992e+01 7.105427e-15 5.922729e+00 0.000000e+00 -3.473253e-01 9.406503e+00 1.806703e-01 6.217249e-15 8.932257e+00 -3.996803e-15 -2.365592e-01 1.202241e+01 7.012342e-01 0.000000e+00 1.069548e+01 0.000000e+00 -2.548138e-01 4.675525e+01 2.759465e+01 -3.552714e-15 4.344410e+01 2.235773e+01 3.552714e-15 6.781498e+00 -1.776357e-15 -2.417619e-01 6.404555e+00 4.440892e-16 -3.067948e-01 1.396721e+01 -8.881784e-16 -5.088835e+00 3.371673e+00 -7.771561e-16 -8.756386e-01 4.603146e+00 -1.332268e-15 -5.361613e-01 4.368806e+00 -8.881784e-16 -4.741104e-01 4.081209e+00 0.000000e+00 -5.251792e-01 1.283211e-01 -3.469447e-18 -1.741726e-01 4.898297e+00 -2.220446e-16 -4.620874e-01 2.399647e+00 -4.440892e-16 -9.374459e-01 1.893821e-01 -1.387779e-17 -3.120522e-01 3.289018e-01 -1.110223e-16 -4.029485e-01 4.535473e-01 1.387779e-17 -5.734300e-01 3.274498e-01 -5.551115e-17 -5.631693e-01 9.972297e-02 -5.551115e-17 -3.728945e-01 8.881784e-16 -3.416629e-01 -1.733845e+01 2.775872e-01 -2.775558e-17 -3.773259e-01 3.505278e-01 -8.673617e-18 -3.813209e-01 1.685352e-01 -2.775558e-17 -3.966018e-01 1.509522e-01 -5.551115e-17 -4.514894e-01 5.428490e-01 4.440892e-16 -3.981108e+00 1.435975e-01 -4.857226e-17 -1.757034e-01 6.352155e-03 0.000000e+00 -1.826806e-01 0.000000e+00 -1.012497e-01 -2.080349e-01 3.125501e-01 -9.714451e-17 -4.161418e-01 4.061740e-01 0.000000e+00 -2.594400e+00 8.047025e-01 0.000000e+00 -5.217705e+00 1.305915e-01 -1.561251e-17 -1.178626e-01 -2.775558e-17 -5.087165e-02 -2.805512e-01 1.915817e-02 2.775558e-17 -3.176996e-01 1.160867e+00 4.440892e-16 -7.429605e+00 2.142579e+00 -1.110223e-15 -7.291755e+00 1.801542e-01 3.330669e-16 -1.492816e+00 7.109285e-01 1.110223e-16 -1.610211e+00 1.076562e+00 -1.998401e-15 -6.448729e+00 1.075819e+00 -2.220446e-16 -4.800774e+00 9.062483e-01 8.881784e-16 -5.504372e+00 2.234939e+00 0.000000e+00 -6.389781e+00 1.413425e+00 -1.554312e-15 -6.859947e+00 2.011072e+00 1.110223e-16 -4.551982e+00 2.752630e-01 -6.661338e-16 -3.811642e+00 3.707694e-02 -7.194245e-14 -1.632778e+01 1.197253e-01 -5.329071e-15 -1.667949e+01 2.757026e-01 -1.065814e-14 -1.571764e+01 1.240496e+01 3.934396e+00 0.000000e+00 1.169714e+01 3.516239e+00 0.000000e+00 1.241860e+01 4.306445e+00 0.000000e+00 6.903705e+01 2.802754e+01 0.000000e+00 -4.829470e-15 -1.684117e-03 -7.709792e-01 4.581834e-02 -6.938894e-18 -1.271174e-01 3.732095e-01 -1.387779e-16 -8.079929e-01 8.881784e-16 -4.883420e-01 -9.417223e+00 3.856544e-01 4.857226e-17 -5.486613e-01 3.667534e+00 4.440892e-16 -6.820063e+00 6.513633e-01 -2.775558e-17 -2.131654e-01 5.898561e-01 -5.551115e-17 -6.055679e-02 4.369370e-01 3.095875e-02 0.000000e+00 6.388419e-01 -2.775558e-17 -2.322893e-01 2.293564e+00 -1.110223e-16 -1.366854e+00 3.311912e+00 4.440892e-16 -1.788404e+00 4.336497e+00 -1.332268e-15 -2.219246e+00 5.077316e+00 -3.330669e-16 -2.599935e+00 4.131786e+00 -2.775558e-16 -3.145298e+00 3.454781e+00 1.110223e-16 -4.383203e+00 3.262334e+00 -2.220446e-16 -4.792429e+00 2.964348e+00 1.110223e-16 -4.727358e+00 2.490842e+00 -6.661338e-16 -4.200629e+00 1.337654e+00 3.330669e-16 -2.798760e+00 7.428660e-01 -4.996004e-16 -2.049985e+00 2.185987e-01 -5.551115e-17 -1.398726e+00 5.551115e-17 -1.993595e-01 -6.674677e-01 4.555704e-02 0.000000e+00 -6.716990e-01 2.827548e+01 8.881784e-16 -7.354772e+00 1.931901e+01 1.479089e+00 -1.776357e-15 1.329833e+01 -3.552714e-15 -9.704193e-01 2.367116e-01 -5.551115e-17 -4.192845e-01 1.665761e+00 0.000000e+00 -7.583782e+00 2.926390e+01 3.467700e+00 -1.776357e-15 3.552714e-15 -1.394484e+00 -1.983732e+01 3.486570e+00 -4.440892e-16 -8.195360e-01 5.297392e-01 4.440892e-15 -1.479425e+01 1.388001e+00 -4.440892e-16 -1.185627e+01 6.314417e+00 2.220446e-16 -2.631295e+00 6.765687e+00 -4.440892e-16 -2.342636e+00 3.288458e+00 0.000000e+00 -7.426725e+00 3.279017e-01 6.938894e-18 -3.979977e-01 9.622789e+00 1.237826e+00 -8.881784e-16 1.019969e+01 1.585897e+00 0.000000e+00 3.066907e+00 0.000000e+00 -7.789213e+00 1.631994e+01 8.031813e+00 0.000000e+00 1.692570e+01 8.515587e+00 -1.776357e-15 4.841131e+01 1.615427e+01 0.000000e+00 7.495684e+00 -2.664535e-15 -2.498383e-01 5.796342e+01 2.148744e+01 7.105427e-15 5.665996e+00 -6.661338e-16 -3.908614e-01 5.209921e+00 4.440892e-16 -4.762143e-01 2.049894e+01 -8.881784e-16 -2.019750e+00 2.803961e+01 1.948261e+01 0.000000e+00 3.475075e+01 2.168317e+01 0.000000e+00 5.131415e+00 -8.881784e-16 -5.026347e-01 4.625983e+00 1.081221e-01 2.220446e-16 6.114935e-01 -6.661338e-16 -5.930643e+00 1.399759e+00 4.440892e-16 -7.933403e+00 5.112322e+00 -4.440892e-16 -1.796243e-01 4.536548e+00 0.000000e+00 -3.888033e-01 2.423382e+00 -4.440892e-16 -9.182725e-01 1.030418e+00 2.220446e-16 -2.557565e+00 7.490585e-01 -1.387779e-16 -5.461732e-01 1.920516e-02 -4.163336e-17 -2.545760e-01 3.051153e-01 2.081668e-17 -4.023801e-01 4.359047e-01 3.996803e-15 -1.070859e+01 1.026668e+00 0.000000e+00 -8.720210e+00 1.346087e+00 -5.551115e-16 -3.676461e+00 1.093020e+00 1.776357e-15 -1.268787e+01 1.786624e+00 -2.220446e-16 -6.261927e+00 2.791987e+01 4.411476e+00 3.552714e-15 9.652366e-01 -2.664535e-15 -1.307317e+01 1.870068e+00 -2.220446e-16 -6.571792e+00 1.102051e+00 0.000000e+00 -1.225749e+01 1.663050e+00 -6.661338e-16 -5.624164e+00 1.793916e+00 -4.440892e-16 -3.835048e+00 9.010407e-01 8.881784e-16 -1.047128e+01 3.832013e-01 4.163336e-17 -6.696621e-01 3.756837e+00 2.220446e-16 -6.457647e+00 4.058450e+00 6.661338e-16 -6.110895e+00 7.394269e-02 -5.551115e-17 -5.387016e-01 2.664914e-01 -1.110223e-16 -7.021353e-01 0.000000e+00 -2.941219e-01 -5.487139e-01 -2.220446e-16 -2.569772e-01 -1.477371e+00 -2.220446e-16 -1.719934e-01 -9.105851e-01 1.506490e-02 5.218048e-15 -2.246445e+00 4.341820e-01 -1.110223e-16 -3.029402e+00 1.447420e+00 -2.220446e-16 -4.526035e+00 1.910745e+00 -1.110223e-16 -3.466430e+00 2.047302e+00 -8.881784e-16 -4.977333e+00 2.467677e+00 -8.881784e-16 -4.245610e+00 2.731400e+00 0.000000e+00 -5.026825e+00 3.437371e+00 -6.106227e-16 -4.684549e+00 4.295724e+00 -8.326673e-16 -3.598226e+00 3.684834e+00 -4.267420e-16 -3.720949e+00 4.800843e+00 -1.332268e-15 -2.767220e+00 4.678430e+00 -4.440892e-16 -2.813694e+00 4.986376e+00 -2.220446e-16 -1.764236e+00 4.935757e+00 -2.220446e-16 -2.433286e+00 4.522929e+00 -2.220446e-16 -1.352920e+00 3.533462e+00 -1.110223e-16 -1.027643e+00 1.636637e+00 -1.110223e-16 -2.202238e-01 3.493764e-01 -7.632783e-17 -5.254775e-01 1.408210e+00 -3.053113e-16 -7.385383e-01 9.564295e-01 -5.551115e-16 -8.727150e-03 7.877413e-01 -2.775558e-17 -1.433893e-01 1.148340e+00 -2.220446e-16 -5.361157e+00 5.285032e-01 -1.387779e-17 -3.133000e-01 3.440762e+00 -2.220446e-16 -7.107620e+00 2.585323e+00 -1.110223e-16 -5.506609e-01 4.965162e+00 7.771561e-16 -2.268444e+00 4.548419e+00 0.000000e+00 -3.155410e+00 3.945163e+00 -1.387779e-17 -4.146414e+00 9.072405e-01 -8.881784e-16 -3.793502e+00 0.000000e+00 -3.800504e-01 -7.707091e-01 4.831640e-01 2.081668e-17 -3.743582e-01 2.664535e-15 -8.248339e-01 -1.845236e+01 1.726486e-01 4.263256e-14 -1.875428e+01 1.889546e-03 -3.907985e-13 -1.767559e+01 1.617188e+00 -8.881784e-16 -1.103916e+01 1.462729e+00 -4.440892e-16 -1.143673e+01 1.818019e+00 -4.440892e-16 -1.064231e+01 4.470345e+00 -4.996004e-16 -5.484467e+00 4.150542e+00 -4.440892e-16 -5.784907e+00 4.420257e+00 1.665335e-16 -5.167066e+00 7.284537e+00 -8.881784e-16 -1.747058e+00 6.785237e+00 -2.220446e-16 -2.034127e+00 7.329908e+00 -1.110223e-15 -1.422757e+00 1.091462e+01 2.295855e+00 8.881784e-16 1.013641e+01 1.932376e+00 8.881784e-16 1.087930e+01 2.719241e+00 0.000000e+00 1.836775e+01 9.565132e+00 0.000000e+00 1.651150e+01 8.960917e+00 0.000000e+00 1.762570e+01 1.011326e+01 0.000000e+00 4.024723e+01 2.456973e+01 -3.552714e-15 3.141973e+01 2.119017e+01 0.000000e+00 3.612302e+01 2.211070e+01 0.000000e+00 1.481831e+00 -2.220446e-16 -5.956220e-01 2.594881e-01 -8.326673e-17 -3.551507e-01 1.691504e+00 0.000000e+00 -7.738322e+00 5.136602e-01 2.664535e-15 -1.011741e+01 -1.776357e-15 -1.821039e+00 -1.284355e+01 4.164850e-01 -3.552714e-15 -1.107969e+01 4.132231e+01 1.579152e+01 0.000000e+00 5.014148e-01 -8.881784e-16 -6.148294e+00 3.156148e-01 -5.551115e-17 -5.493554e-01 1.433738e+00 -6.661338e-16 -5.579617e+00 1.172280e+00 1.332268e-15 -1.123538e+01 5.826344e-01 -1.804112e-16 -2.595795e-01 1.739087e+00 -8.881784e-16 -9.073633e+00 1.371017e+00 -1.332268e-15 -9.834308e+00 1.539641e+00 2.664535e-15 -1.175037e+01 -6.217249e-15 -2.296449e-01 -1.182802e+01 3.713614e+00 -3.330669e-16 -1.621163e+00 5.592424e-01 5.329071e-15 -1.497167e+01 5.181295e+00 -7.494005e-16 -4.671706e+00 4.386399e-01 -3.469447e-17 -3.853949e-01 2.051404e+01 1.064534e+01 1.776357e-15 8.157970e+00 8.881784e-16 -9.464167e-01 2.728650e+00 4.440892e-16 -5.425783e+00 1.538907e+01 6.838832e+00 0.000000e+00 8.138190e+00 2.664535e-15 -3.337978e-01 3.127513e+00 -2.220446e-16 -7.789645e+00 9.777877e+00 -5.284662e-14 -1.656352e-02 8.077506e+00 4.440892e-16 -5.707927e-01 4.258163e+00 -8.881784e-16 -6.950328e-01 6.180540e+00 0.000000e+00 -6.038199e-01 3.835171e+01 1.438285e+01 3.552714e-15 5.569119e+00 -1.332268e-15 -5.473662e-01 5.440337e+00 4.440892e-16 -8.184895e-01 4.883842e+00 -6.661338e-16 -7.554621e-01 1.255679e+01 6.040351e-01 4.440892e-15 9.622183e+00 -8.881784e-16 -4.098855e-01 4.022626e+01 2.113052e+01 -3.552714e-15 4.432418e+01 1.592587e+01 0.000000e+00 7.013596e+00 8.881784e-16 -4.844149e-01 6.072691e+00 -2.220446e-16 -7.457533e-01 3.868885e+01 9.056672e+00 -3.552714e-15 3.410140e+01 5.572579e+00 0.000000e+00 4.057415e+00 -2.220446e-16 -5.389482e+00 8.840839e-01 1.110223e-16 -3.761392e+00 2.218780e+00 -1.110223e-15 -5.725235e+00 3.119963e+00 0.000000e+00 -7.528585e+00 4.436939e+01 1.275987e+01 -3.552714e-15 1.365232e+00 1.332268e-15 -1.227733e+01 1.213185e+00 -2.220446e-16 -4.721738e+00 4.908274e-01 4.163336e-17 -3.046755e-01 1.983138e+00 -3.108624e-15 -9.967954e+00 3.489154e+00 3.330669e-16 -5.926087e+00 0.000000e+00 -1.326315e-01 -1.960794e-01 1.469035e+00 -1.110223e-15 -6.094530e+00 4.651075e+00 -6.661338e-16 -1.090678e+00 4.174616e+00 -4.440892e-16 -1.231546e+00 4.529537e+00 -2.220446e-16 -1.937552e+00 4.501449e-01 -1.387779e-17 -4.656216e-01 1.757693e+01 1.369989e+00 -2.664535e-15 1.151945e+01 8.881784e-16 -2.898699e-01 1.308712e+01 8.335373e-01 0.000000e+00 1.353643e+00 2.775558e-16 -2.640984e+00 3.550486e+00 -5.551115e-17 -4.088550e+00 4.616283e+00 -1.110223e-16 -2.759211e+00 8.614048e-01 -2.220446e-16 -1.159184e-01 2.918531e+00 8.881784e-16 -7.233299e+00 1.641112e+00 8.881784e-16 -9.500437e+00 2.911628e+00 -5.551115e-16 -5.216661e+00 3.163276e+00 -2.220446e-16 -6.119086e+00 2.570988e+00 -8.881784e-16 -6.238648e+00 5.148954e+00 4.440892e-16 -2.117470e+00 5.200534e+00 -2.220446e-16 -2.444137e+00 3.994380e+00 2.220446e-16 -3.384301e+00 4.651477e+00 -7.216450e-16 -3.296417e+00 4.269290e+00 -2.220446e-16 -3.830622e+00 3.257593e+00 -1.332268e-15 -4.695735e+00 2.917553e+00 -3.330669e-16 -4.757102e+00 2.914920e+00 -4.440892e-16 -4.755317e+00 1.970546e+00 -6.661338e-16 -4.846736e+00 1.956640e+00 3.330669e-16 -3.405412e+00 7.748849e-01 -2.220446e-16 -1.991217e+00 3.534907e-01 -5.551115e-17 -1.284121e+00 1.121471e+01 4.440892e-16 -2.929378e-01 7.718478e-01 2.664535e-15 -1.106022e+01 2.076537e-01 -2.775558e-17 -5.109266e-01 2.311207e+00 -4.440892e-16 -1.007260e+01 3.961729e+00 0.000000e+00 -5.720197e+00 2.988858e+00 -4.440892e-16 -5.335208e+00 3.600875e+00 8.881784e-16 -5.935020e+00 7.237674e-01 8.881784e-16 -1.445658e+01 7.057054e-01 -8.881784e-16 -1.402389e+01 1.142344e+01 2.464991e+00 8.881784e-16 4.847774e+00 -2.775558e-16 -5.274002e+00 4.587302e+00 -3.608225e-16 -4.976692e+00 2.922126e+00 6.661338e-16 -8.495891e+00 2.687852e+00 2.220446e-16 -8.136178e+00 6.601335e+00 -6.661338e-16 -2.744870e+00 1.478837e+01 5.823000e+00 0.000000e+00 1.451444e+01 6.306362e+00 -8.881784e-16 1.901051e+01 9.439918e+00 0.000000e+00 1.784732e+01 9.887269e+00 -3.552714e-15 1.852616e+00 4.440892e-16 -4.636145e+00 3.846103e+01 2.125559e+01 3.552714e-15 3.817043e+01 1.706608e+01 -3.552714e-15 4.982154e+00 -5.551115e-15 -8.213614e-02 2.413285e+01 1.344946e+01 0.000000e+00 9.183328e+00 3.426691e-01 -1.332268e-15 1.389742e+01 4.971191e+00 8.881784e-16 1.334109e+01 5.290098e+00 0.000000e+00 4.807058e+00 -4.440892e-16 -5.426077e-01 5.988994e+00 -1.776357e-15 -3.414123e+00 5.980099e+00 -8.881784e-16 -3.021004e+00 2.780459e+01 1.653400e+01 0.000000e+00 6.980296e+00 0.000000e+00 -6.579159e-01 1.131073e+00 -2.220446e-16 -6.128224e+00 1.313041e+00 -1.387779e-16 -7.606759e-01 9.517705e-01 -2.664535e-15 -1.355595e+01 9.930950e-01 -3.552714e-15 -1.312901e+01 2.313007e+01 3.105932e+00 0.000000e+00 1.936290e+01 1.116627e+01 0.000000e+00 2.223055e+01 1.199275e+01 1.776357e-15 2.137444e+00 -2.220446e-16 -4.831699e+00 2.083634e+00 -6.661338e-16 -7.587965e+00 2.648584e-02 -6.938894e-17 -2.931807e-01 1.178439e+00 4.440892e-16 -1.182772e+01 1.553367e+00 -8.881784e-16 -1.145815e+01 1.298336e+01 4.107389e+00 -1.776357e-15 1.275119e+01 4.492563e+00 8.881784e-16 5.551115e-17 -1.863096e-01 -7.798902e-01 4.952973e+00 -5.551115e-16 -2.129070e+00 1.605477e+01 7.837701e+00 0.000000e+00 1.629723e+01 7.432123e+00 0.000000e+00 1.780716e+01 8.477652e+00 -1.776357e-15 0.000000e+00 -2.314879e-01 -2.672339e-01 5.044954e+00 0.000000e+00 -1.315990e+00 4.508539e+00 -2.220446e-16 -1.450864e+00 4.826692e+00 0.000000e+00 -1.957399e+00 2.296133e+01 1.996487e+00 -3.552714e-15 1.989493e+00 -8.881784e-16 -5.822493e+00 7.621834e+00 -1.776357e-15 -1.589820e+00 7.443972e+00 -4.440892e-16 -1.266831e+00 1.217286e+01 3.232438e+00 8.881784e-16 1.132200e+01 2.882053e+00 8.881784e-16 1.213528e+01 3.723597e+00 0.000000e+00 3.729877e+00 4.163336e-16 -4.368008e+00 3.253297e+00 -6.661338e-16 -4.493438e+00 2.426616e+00 0.000000e+00 -9.583283e+00 2.437079e+00 -8.881784e-16 -9.250105e+00 4.883187e-01 -5.329071e-15 -1.602526e+01 3.903408e+00 -5.551115e-16 -6.490561e+00 1.777580e+00 -4.440892e-16 -1.064164e+01 2.175115e+00 -1.776357e-15 -1.025967e+01 3.469618e-01 2.398082e-14 -2.071115e+01 9.461576e-01 -8.881784e-16 -3.711441e+00 1.438923e+00 -4.440892e-16 -4.506483e+00 4.851541e+00 6.661338e-16 -2.769155e+00 -5.551115e-17 -1.293459e-01 -7.824832e-01 2.702073e-01 0.000000e+00 -5.423086e-01 3.388590e+00 -3.330669e-16 -5.168354e+00 1.921599e+00 -1.110223e-16 -4.420418e+00 2.224815e+00 1.110223e-16 -4.658362e+00 9.272324e-01 -4.884981e-15 -1.262681e+01 9.485200e+00 7.755106e-01 -2.220446e-15 1.004547e+01 1.117686e+00 2.220446e-15 2.648910e+01 1.602090e+01 0.000000e+00 3.115864e+01 1.814861e+01 0.000000e+00 1.982874e+01 1.269370e+00 4.440892e-15 1.420361e+01 1.405411e+00 0.000000e+00 6.034935e-01 2.664535e-15 -1.533964e+01 7.777879e-01 -5.329071e-15 -1.983435e+01 1.776357e-15 -1.732476e-01 -1.938105e+01 1.378827e-02 -5.551115e-17 -4.848063e-01 5.375783e-01 -2.220446e-16 -2.695790e+00 3.448689e+00 6.661338e-16 -7.188648e+00 2.366856e+00 -8.881784e-16 -4.505866e+00 2.717633e+00 4.440892e-16 -6.378184e+00 2.179258e-01 -2.842171e-14 -1.707404e+01 3.900805e-01 -7.105427e-15 -1.625106e+01 1.663938e-01 -2.220446e-16 -2.040949e+00 5.551115e-17 -9.427830e-02 -7.388861e-01 1.757654e+00 4.440892e-16 -1.297748e+01 1.243450e-14 -1.415882e-01 -1.799510e+01 5.882040e-01 8.881784e-16 -1.862365e+01 5.189523e-01 8.881784e-16 -1.733164e+01 3.550129e+00 -1.776357e-15 -7.481416e+00 8.260637e+00 1.332268e-15 -5.489866e-01 8.641438e+00 4.884981e-15 -2.600565e-01 5.240771e+00 -1.554312e-15 -4.284611e+00 5.494333e+00 1.110223e-16 -3.987695e+00 3.499737e+00 -1.332268e-15 -6.806817e+00 1.340958e+00 -1.665335e-16 -2.554157e+00 1.952776e+00 -1.110223e-16 -4.772336e+00 2.853631e+00 3.330669e-16 -5.012979e+00 2.106839e+00 -2.220446e-16 -5.438536e+00 1.018292e+00 -8.881784e-16 -1.306120e+01 0.000000e+00 -1.723816e-01 -3.461617e-01 1.816247e+00 -8.881784e-16 -9.219843e+00 2.573037e+00 -8.881784e-16 -1.078418e+01 8.468550e-01 1.776357e-15 -1.447736e+01 -5.551115e-17 -1.760837e-01 -5.388629e-01 1.161153e+00 -4.440892e-15 -1.530001e+01 8.807677e-01 -1.776357e-15 -1.592403e+01 -2.664535e-15 -2.871089e-01 -1.419865e+01 -3.552714e-15 -3.238365e+00 -1.830611e+01 3.382633e-01 -1.065814e-14 -1.596555e+01 3.323415e-01 -3.552714e-15 -1.459615e+01 7.562428e-01 7.993606e-15 -1.618593e+01 1.206562e+00 -8.881784e-16 -1.440302e+01 1.154632e-14 -7.271192e-02 -1.534611e+01 -4.440892e-15 -8.089910e-01 -1.668888e+01 4.348948e-01 -1.776357e-15 -1.596700e+01 3.096447e-01 1.598721e-14 -1.965477e+01 1.568329e+00 -2.664535e-15 -1.368296e+01 7.915221e-01 -3.108624e-15 -1.216864e+01 3.063030e-01 8.881784e-16 -1.299310e+01 9.287710e-01 -8.881784e-16 -1.718078e+01 7.963743e-01 1.776357e-15 -1.722069e+01 4.357163e+00 -6.661338e-16 -5.856357e+00 4.040798e+00 -1.332268e-15 -6.163811e+00 4.106588e+00 -7.771561e-16 -5.556911e+00 7.148163e+00 -2.220446e-16 -2.176439e+00 6.472786e+00 -2.220446e-16 -2.458142e+00 6.908257e+00 -1.110223e-15 -1.875142e+00 5.728085e-01 -6.938894e-17 -2.676172e-01 3.662556e+00 -7.771561e-16 -4.014551e+00 3.920126e+00 8.881784e-16 -6.890429e+00 2.467045e+00 -8.881784e-16 -8.295796e+00 1.078325e+01 1.753388e+00 8.881784e-16 9.561119e+00 1.364328e+00 0.000000e+00 1.026493e+01 2.054351e+00 0.000000e+00 2.315836e+01 1.433382e+01 1.776357e-15 3.472900e+01 1.982085e+01 -3.552714e-15 2.932541e+01 1.676474e+01 1.776357e-15 3.339112e+01 1.753788e+01 -3.552714e-15 4.606830e+00 -1.110223e-15 -9.253741e-01 5.282906e+00 0.000000e+00 -7.712130e-01 3.843585e+00 0.000000e+00 -8.512628e+00 4.989141e-01 1.387779e-17 -2.485994e-01 8.869824e+00 1.294303e-01 9.769963e-15 7.670355e-01 8.881784e-16 -1.928462e+01 7.996006e+00 -1.776357e-15 -6.177244e-01 1.909237e+00 1.110223e-16 -3.455168e+00 3.342298e+01 1.211697e+01 0.000000e+00 2.162611e+00 2.220446e-16 -4.878300e+00 2.944902e+00 -8.881784e-16 -4.594959e+00 2.089696e+01 1.249588e+01 -1.776357e-15 4.322465e+00 -6.661338e-16 -7.391246e+00 2.518682e+01 1.273222e+01 0.000000e+00 3.351659e+01 7.752140e+00 0.000000e+00 5.166457e+00 -1.554312e-15 -2.150543e+00 7.017358e-01 0.000000e+00 -1.428504e+01 4.510185e+01 6.676769e+00 0.000000e+00 1.416198e+00 2.664535e-15 -1.434906e+01 7.748484e-01 -1.776357e-15 -1.639332e+01 1.253674e+00 -1.776357e-15 -2.007746e+01 1.444323e+01 9.356198e-01 -4.440892e-15 2.624049e+01 5.604174e+00 -1.776357e-15 2.011935e-01 0.000000e+00 -1.675037e+00 1.081512e+00 -8.881784e-16 -1.495861e+01 0.000000e+00 -1.498539e-01 -1.442332e+00 3.752642e-01 -1.776357e-15 -1.363811e+01 2.966085e+00 -1.110223e-15 -7.193305e+00 3.969890e+00 -8.881784e-16 -6.228541e+00 4.016892e+00 2.220446e-16 -6.696393e+00 9.419979e-01 2.664535e-15 -1.919149e+01 8.282185e-01 -2.775558e-16 -1.767536e+00 4.537475e-01 3.552714e-15 -1.413565e+01 2.917968e+01 8.393509e+00 0.000000e+00 3.852994e+01 1.176468e+01 0.000000e+00 4.687644e-01 -2.220446e-16 -2.830352e+00 5.089537e+00 -5.551115e-16 -2.336119e+00 1.610723e+00 1.776357e-15 -1.314532e+01 9.357512e+00 2.664535e-15 -3.545888e-01 7.142215e+00 8.881784e-16 -1.018121e+00 8.310790e-02 1.154632e-14 -1.665905e+01 3.184492e+00 4.996004e-16 -4.604926e+00 6.978526e+00 -4.440892e-16 -2.712103e+00 7.093262e-01 -3.552714e-15 -1.506495e+01 2.375017e+00 8.881784e-16 -8.812001e+00 1.965671e+01 3.105341e+00 -8.881784e-16 1.835798e+01 3.028042e+00 4.440892e-15 3.811346e+00 -4.440892e-16 -6.486028e+00 4.024682e+00 -9.992007e-16 -6.149415e+00 3.523550e+00 -1.665335e-16 -3.145007e+00 1.927367e+01 8.950919e+00 1.776357e-15 2.573131e+01 1.520873e+01 -1.776357e-15 3.194125e+01 7.974074e+00 -1.776357e-15 2.768988e+01 7.834812e+00 0.000000e+00 2.315275e+01 5.122240e+00 -1.776357e-15 1.490642e+01 5.085144e+00 8.881784e-16 1.179215e+01 2.443381e+00 8.881784e-16 3.335973e+01 1.563162e+01 -3.552714e-15 3.674246e+01 1.313431e+01 3.552714e-15 5.394465e+00 2.775558e-16 -4.409481e+00 1.668929e+01 8.719582e+00 0.000000e+00 1.015723e+01 -3.996803e-15 -2.898953e-01 1.124838e+01 1.522767e-01 1.332268e-14 5.599986e+00 -2.220446e-16 -1.657776e+00 5.482379e+00 -1.332268e-15 -2.318112e+00 6.419789e+00 0.000000e+00 -3.347885e+00 6.181232e+00 -1.554312e-15 -2.973045e+00 5.392662e+01 1.796564e+01 3.552714e-15 1.671390e+01 1.697045e+00 -1.776357e-15 1.216910e+01 8.516088e-01 0.000000e+00 6.103056e+00 4.440892e-16 -7.816326e-01 3.557251e+00 -2.220446e-16 -6.740959e+00 2.357294e+01 1.336721e+01 0.000000e+00 2.789761e+01 1.500658e+01 -1.776357e-15 2.736018e+00 -4.440892e-16 -5.012171e+00 6.941251e+00 -4.440892e-16 -7.929802e-01 2.310494e-01 -5.551115e-17 -5.366416e-01 3.666658e+00 -7.736867e-16 -3.756941e+00 1.335618e+00 -3.552714e-15 -1.308149e+01 3.598564e+00 2.220446e-16 -4.403329e+00 2.307537e+01 1.136224e+01 0.000000e+00 2.142663e+01 1.145411e+01 -1.776357e-15 3.411669e+00 0.000000e+00 -7.294914e+00 7.911297e-01 0.000000e+00 -1.324381e+01 1.661398e+00 4.440892e-16 -1.101474e+01 8.996236e+00 1.332268e-14 -8.813652e-02 5.305109e+00 -6.661338e-16 -1.431201e+00 1.373837e+01 4.232760e+00 -8.881784e-16 1.286719e+01 4.472754e+00 8.881784e-16 8.634148e-01 2.664535e-15 -1.386939e+01 5.124644e+00 -1.344411e-15 -5.170375e+00 4.791971e+00 -1.144917e-16 -4.743669e+00 8.144793e-01 -1.776357e-15 -1.298453e+01 1.715111e+00 4.440892e-16 -1.020962e+01 8.069262e+00 8.881784e-16 -1.484027e+00 5.972231e+00 -7.771561e-16 -3.620966e+00 1.029085e+01 -1.332268e-15 -6.378314e-01 5.602847e+00 -1.554312e-15 -1.217950e+00 2.063850e+00 0.000000e+00 -1.243909e+01 3.781390e+00 -1.554312e-15 -7.554368e+00 2.455416e-02 -4.996004e-16 -7.313563e-01 2.025466e+00 0.000000e+00 -9.395770e+00 2.420766e+00 0.000000e+00 -9.870378e+00 2.827590e+00 0.000000e+00 -9.153262e+00 6.436825e+00 -2.220446e-16 -1.076877e+00 5.540779e+00 -6.661338e-16 -3.639983e+00 8.456180e+00 2.220446e-15 -8.134211e-01 7.815067e+00 -8.881784e-16 -1.116356e+00 8.847870e+00 -3.996803e-15 -3.651742e-01 6.657377e-01 -1.776357e-15 -1.573531e+01 5.535006e+00 -2.220446e-16 -4.794798e-01 4.427409e+00 -4.996004e-16 -2.999742e+00 6.096380e-01 0.000000e+00 -1.597091e+01 6.763595e-01 1.332268e-15 -1.205797e+01 8.477619e+00 -3.552714e-15 -6.961799e-01 1.130735e+00 -1.776357e-15 -1.381221e+01 1.805546e+01 9.352781e+00 -1.776357e-15 2.119573e+01 1.029012e+01 0.000000e+00 4.552820e+00 -1.221245e-15 -3.615587e+00 8.705382e-01 0.000000e+00 -1.231367e+01 1.388903e+00 1.776357e-15 -1.227613e+01 1.611910e+00 -3.108624e-15 -1.191662e+01 9.105921e+00 3.183920e-01 -6.661338e-15 9.487889e+00 6.321326e-01 4.440892e-16 2.900470e-01 -5.551115e-17 -1.360926e+00 3.796711e+00 -1.613293e-16 -3.771067e+00 5.168893e+00 -3.330669e-16 -2.888423e+00 1.145402e+01 4.440892e-16 -1.346370e+00 2.391515e+00 -2.664535e-15 -1.172403e+01 1.317932e+00 -4.440892e-16 -1.029813e+01 1.151687e+00 0.000000e+00 -2.104091e+01 6.046610e+00 5.551115e-16 -4.275683e+00 6.488953e+00 -2.220446e-16 -2.426112e+00 7.518423e+00 -2.220446e-16 -2.132921e+00 7.623207e+00 -4.440892e-16 -2.503584e+00 5.097671e+00 -4.440892e-16 -1.158607e+00 3.316868e+00 -1.110223e-15 -8.364560e+00 2.367150e+00 -8.881784e-16 -8.639288e+00 2.657559e+00 -2.220446e-16 -7.885215e+00 4.953618e+00 -1.942890e-15 -6.218762e+00 1.070525e+01 2.098787e+00 8.881784e-16 1.126298e+01 1.741079e+00 0.000000e+00 1.776925e+01 8.011642e+00 1.776357e-15 1.685872e+01 8.078177e+00 0.000000e+00 4.943398e+00 -8.881784e-16 -1.564040e+00 3.076308e+00 -1.554312e-15 -7.930184e+00 9.987259e-01 -1.332268e-15 -1.127316e+01 3.291655e+00 2.498002e-16 -3.101336e+00 3.211478e+00 -4.440892e-16 -7.075270e+00 5.337832e+00 5.551115e-16 -7.155041e+00 1.711732e+00 -2.664535e-15 -1.100949e+01 1.327214e+00 -1.332268e-15 -1.133884e+01 2.162240e+00 -8.881784e-16 -1.062674e+01 8.590054e+00 -2.220446e-15 -8.007946e-01 1.181551e+01 5.073640e-01 8.881784e-16 3.728389e+00 -1.110223e-15 -9.017120e+00 7.014236e+00 -2.220446e-16 -1.830098e+00 5.529599e+00 -9.992007e-16 -3.628283e+00 1.251243e+01 3.285490e+00 0.000000e+00 1.165195e+01 2.969064e+00 -8.881784e-16 1.259994e+01 3.787209e+00 0.000000e+00 4.742863e+00 1.110223e-16 -4.546713e+00 6.423888e+00 -8.881784e-16 -1.218707e+00 1.007117e+01 -4.884981e-15 -2.291179e-01 8.867656e+00 -1.776357e-15 -4.504302e-01 7.166506e+00 4.440892e-16 -1.098351e+00 2.365295e+00 -1.776357e-15 -1.145401e+01 4.139928e+00 -2.602085e-17 -4.113079e+00 5.874778e+00 -8.881784e-16 -1.021097e+00 1.158382e+01 1.610651e+00 0.000000e+00 9.628645e+00 1.268647e+00 8.881784e-16 2.907291e+00 4.440892e-16 -1.054370e+01 2.416490e+00 -1.332268e-15 -8.552951e+00 3.768662e+00 3.261280e-16 -3.724544e+00 5.283423e+00 6.661338e-16 -1.780162e+00 4.721560e+00 -7.771561e-16 -5.904536e+00 1.476458e+01 1.375560e+00 -1.776357e-15 4.203880e+00 -4.996004e-16 -5.459485e+00 4.904731e+00 -7.771561e-16 -2.623896e+00 1.563714e+01 5.933475e+00 -1.776357e-15 5.910416e+00 0.000000e+00 -2.361345e+00 6.535760e-01 0.000000e+00 -1.726490e+01 1.600870e+01 7.202334e+00 -8.881784e-16 4.693499e+00 -1.665335e-15 -3.515960e+00 4.477287e+00 5.551115e-17 -3.174111e+00 5.416291e+00 -9.992007e-16 -2.421401e+00 1.603085e+01 6.585466e+00 8.881784e-16 4.917628e-01 -6.217249e-15 -1.759455e+01 4.144695e+00 0.000000e+00 -3.234878e+00 1.807487e+01 7.295992e+00 0.000000e+00 1.375155e+01 5.339896e+00 0.000000e+00 1.228130e+01 8.011610e-01 4.440892e-15 1.619116e+01 2.747713e+00 1.776357e-15 7.093051e+00 4.440892e-16 -1.998463e+00 4.977846e+00 2.220446e-16 -1.816211e+00 5.165451e+00 -2.220446e-16 -2.095863e+00 3.548027e+00 -1.776357e-15 -9.676339e+00 0.000000e+00 -1.013647e+00 -2.127045e+01 5.940495e+00 -1.110223e-15 -2.933607e+00 1.109293e+01 2.103080e+00 8.881784e-16 1.223884e+01 2.548992e+00 0.000000e+00 3.449228e+00 -4.440892e-16 -8.393135e+00 1.819244e+01 2.289598e+00 -1.776357e-15 1.402597e+01 1.928180e+00 0.000000e+00 5.484727e+00 -8.881784e-16 -2.923231e+00 2.788719e+01 1.015839e+01 0.000000e+00 1.795756e+00 -4.440892e-16 -9.474969e+00 1.531109e+01 4.781397e+00 0.000000e+00 5.920324e+00 1.221245e-15 -3.996099e+00 3.196424e+01 1.666897e+01 0.000000e+00 3.396853e+01 1.404183e+01 0.000000e+00 7.878500e+00 6.661338e-16 -2.204237e+00 3.018518e+01 1.591806e+01 1.776357e-15 2.951464e+01 1.392580e+01 0.000000e+00 5.572610e+00 -2.220446e-16 -1.956784e+00 6.004823e+00 4.440892e-16 -2.429967e+00 3.137427e+01 9.522593e+00 0.000000e+00 4.577592e+00 -8.881784e-16 -8.126322e+00 2.692819e+01 7.223779e+00 0.000000e+00 5.476389e+00 -5.551115e-17 -6.514207e+00 2.697965e+01 1.386012e+01 1.776357e-15 4.703387e+00 -1.443290e-15 -6.573793e+00 4.167931e+00 -7.771561e-16 -6.746955e+00 2.336363e+01 1.020142e+01 0.000000e+00 4.971145e+00 -3.330669e-16 -6.247315e+00 5.114041e+00 -8.881784e-16 -7.626111e+00 8.685640e+00 1.332268e-15 -5.382514e-01 1.178707e+01 4.666060e-01 -8.881784e-16 7.467582e+00 -4.440892e-16 -1.029911e+00 4.837890e+00 -1.110223e-15 -3.178066e+00 6.567755e+00 -2.220446e-16 -1.437788e+00 5.428839e+00 8.326673e-17 -5.054035e+00 1.082570e+01 8.260493e-01 8.881784e-16 1.016044e+01 1.167420e+00 0.000000e+00 8.012369e+00 -8.881784e-16 -3.408019e+00 1.989021e+01 8.452221e+00 -1.776357e-15 1.270093e+00 -8.881784e-16 -1.051247e+01 1.991440e+01 1.028636e+01 0.000000e+00 4.594866e+00 -6.106227e-16 -5.698006e+00 4.903620e+00 -1.165734e-15 -5.945040e+00 8.437052e+00 -8.881784e-16 -1.442172e+00 8.531448e+00 8.881784e-16 -9.281389e-01 1.596235e+01 6.387189e+00 -8.881784e-16 1.919846e+00 8.881784e-16 -9.458088e+00 2.861995e+00 -1.332268e-15 -9.176276e+00 6.585380e+00 -1.221245e-15 -5.610247e+00 1.705415e+01 7.557783e+00 0.000000e+00 2.875076e+00 -1.998401e-15 -7.808287e+00 3.944696e+00 -6.661338e-16 -7.538350e+00 3.883689e+00 -1.998401e-15 -7.081572e+00 2.552160e+00 -8.881784e-16 -9.856144e+00 5.634970e+00 -1.110223e-16 -4.093736e+00 7.333906e+00 -1.776357e-15 -1.798865e+00 1.982147e+01 4.811854e+00 3.552714e-15 2.198653e+01 4.826183e+00 0.000000e+00 2.173761e+01 1.026072e+01 0.000000e+00 2.601865e+01 1.172855e+01 0.000000e+00 8.998008e+00 0.000000e+00 -2.041728e+00 9.785837e+00 -3.552714e-15 -1.605776e-01 5.415907e+00 -3.330669e-16 -4.489646e+00 6.350461e+00 -1.110223e-16 -5.220398e+00 1.445520e+00 4.440892e-16 -1.018618e+01 7.204102e+00 0.000000e+00 -2.843344e+00 6.340032e+00 0.000000e+00 -3.206606e+00 6.544495e+00 -6.661338e-16 -2.573931e+00 6.388263e+00 -1.221245e-15 -3.593883e+00 6.657581e+00 -5.551115e-16 -3.868115e+00 3.757224e+00 -2.220446e-16 -8.558264e+00 2.361629e+01 6.736188e+00 0.000000e+00 8.252877e+00 -8.881784e-16 -2.288346e+00 6.458216e+00 -7.563394e-16 -6.274652e+00 4.593906e+00 -5.551115e-16 -2.772905e+00 4.343095e+00 -3.330669e-16 -7.250324e+00 3.492662e+00 -8.881784e-16 -8.042666e+00 1.596607e+01 5.735067e+00 8.881784e-16 3.820566e+00 -7.771561e-16 -6.219679e+00 1.508624e+01 3.064900e+00 8.881784e-16 6.577421e+00 -1.831868e-15 -6.036724e+00 6.193626e+00 3.885781e-16 -5.231271e+00 6.335275e+00 -1.054712e-15 -5.495677e+00 1.120236e+00 2.220446e-15 -1.100466e+01 1.402458e+01 4.069115e+00 0.000000e+00 1.278915e+01 3.472134e+00 0.000000e+00 1.326265e+01 4.059863e+00 0.000000e+00 1.240558e+01 1.089110e+00 -2.664535e-15 5.781076e+00 0.000000e+00 -1.554022e+00 4.614092e+00 -6.661338e-16 -3.794576e+00 2.014309e+01 9.310463e+00 1.776357e-15 3.032451e+00 0.000000e+00 -9.650240e+00 1.433316e+01 4.871076e+00 0.000000e+00 2.669249e+01 8.108844e+00 -1.776357e-15 1.648261e+01 5.316705e+00 8.881784e-16 6.505337e+00 -6.661338e-16 -1.799025e+00 1.534791e+01 4.184370e+00 0.000000e+00 9.856539e+00 -2.220446e-15 -1.584602e+00 2.445370e+00 -4.440892e-16 -8.672580e+00 2.028193e+01 8.930158e+00 0.000000e+00 1.053212e+01 1.013547e+00 -1.776357e-15 2.554322e+00 0.000000e+00 -1.057556e+01 1.757150e+01 6.398189e+00 -8.881784e-16 6.022996e+00 -1.332268e-15 -1.861697e+00 3.051699e+01 1.106562e+01 3.552714e-15 2.308546e+01 8.577115e+00 -1.776357e-15 2.024296e+01 7.665597e+00 -1.776357e-15 6.009054e+00 6.661338e-16 -6.359353e+00 5.524156e+00 -1.554312e-15 -4.774483e+00 2.284433e+00 4.440892e-16 -9.306795e+00 2.743589e+00 0.000000e+00 -8.972907e+00 1.223579e+01 1.625771e+00 -8.881784e-16 4.601312e+00 -1.554312e-15 -6.849708e+00 4.311483e+00 1.665335e-16 -5.367338e+00 1.991542e+01 5.805869e+00 0.000000e+00 1.458612e+01 4.692608e+00 0.000000e+00 5.455197e+00 1.249001e-16 -5.195358e+00 1.796472e+01 6.370230e+00 -1.776357e-15 1.746695e+01 5.207451e+00 1.776357e-15 7.669192e+00 0.000000e+00 -1.774432e+00 9.013531e+00 -4.440892e-16 -1.384573e+00 1.785764e+00 -2.664535e-15 -9.775178e+00 6.028118e+00 -4.440892e-16 -3.563869e+00 7.381955e+00 -4.440892e-16 -3.055493e+00 1.526588e+01 2.854899e+00 -2.664535e-15 1.280654e+01 1.152514e-01 0.000000e+00 9.581840e+00 0.000000e+00 -2.696094e+00 6.085345e+00 -8.881784e-16 -2.522074e+00 5.476053e+00 -6.661338e-16 -2.117869e+00 2.521634e+01 1.293843e+01 -1.776357e-15 6.619409e+00 -6.661338e-16 -1.468941e+00 6.693291e+00 -1.332268e-15 -2.717026e+00 2.191302e+00 -4.440892e-16 -8.888735e+00 2.233505e+01 5.624108e+00 0.000000e+00 9.071721e+00 3.344882e-01 8.881784e-16 3.363024e+00 -2.220446e-16 -3.962656e+00 1.382108e+01 3.436558e+00 0.000000e+00 1.241965e+01 3.071291e+00 -8.881784e-16 7.805642e+00 -2.220446e-16 -2.199027e+00 4.760513e+00 2.775558e-16 -6.121641e+00 6.731565e+00 -2.220446e-16 -1.969665e+00 7.075718e+00 -6.661338e-16 -1.714701e+00 7.850156e+00 -4.440892e-16 -4.339755e+00 6.170879e+00 -6.661338e-16 -1.710343e+00 8.860481e+00 -1.332268e-15 -6.736645e-01 6.473224e+00 5.551115e-16 -4.165637e+00 8.778682e+00 -2.220446e-15 -9.312683e-01 9.151685e+00 -3.819167e-14 -3.088461e-02 7.145857e+00 2.220446e-16 -4.977336e+00 1.346681e+01 3.385135e+00 8.881784e-16 1.051139e+01 4.707346e-14 -2.355467e-02 1.428603e+00 -8.881784e-15 -1.716198e+01 3.295105e+00 -2.220446e-16 -8.730348e+00 1.882120e+00 -1.776357e-15 -1.205592e+01 6.711278e+00 -1.332268e-15 -8.289693e-01 1.131868e+01 7.429573e-01 0.000000e+00 1.051321e+01 1.096532e+00 0.000000e+00 9.525189e+00 -4.440892e-16 -7.748259e-01 6.783622e+00 1.332268e-15 -7.559733e-01 7.176619e+00 -4.440892e-16 -1.339519e+00 7.006487e-01 -5.329071e-15 -1.786591e+01 5.372611e+00 -5.342948e-16 -5.332820e+00 5.852703e+00 -7.355228e-16 -5.728674e+00 2.882750e+01 1.283318e+01 1.776357e-15 2.294571e+01 6.480423e+00 0.000000e+00 1.559646e+01 3.459110e+00 -1.776357e-15 1.519451e+01 4.303205e+00 0.000000e+00 8.648724e+00 0.000000e+00 -8.305549e-01 8.829025e+00 -4.440892e-16 -2.357661e+00 2.811701e+01 1.200023e+01 -1.776357e-15 8.135461e+00 8.881784e-16 -2.835665e+00 1.335910e+01 2.595954e+00 -8.881784e-16 4.345025e+00 2.220446e-16 -6.679603e+00 2.717240e+01 1.125881e+01 -1.776357e-15 4.474282e+00 -4.440892e-16 -6.526839e+00 3.439555e+00 -4.440892e-16 -6.927581e+00 4.885826e+00 3.330669e-16 -5.991808e+00 7.883263e+00 -1.110223e-15 -5.076013e+00 1.290059e+01 2.764210e+00 8.881784e-16 1.201896e+01 2.227213e+00 0.000000e+00 7.689448e+00 -1.332268e-15 -3.354047e+00 6.030226e+00 3.330669e-16 -3.868923e+00 1.284230e+01 1.177310e+00 1.776357e-15 2.410293e+01 9.155038e+00 -1.776357e-15 1.281650e+01 1.735632e+00 -8.881784e-16 2.032146e+01 7.768237e+00 0.000000e+00 1.929035e+01 6.511187e+00 0.000000e+00 2.236706e+01 9.896333e+00 0.000000e+00 1.189647e+01 6.661338e-15 -6.423790e-01 1.781296e+01 4.016278e+00 1.776357e-15 6.774833e+00 -1.332268e-15 -5.428625e+00 5.780342e+00 -9.714451e-16 -5.891982e+00 7.295021e+00 -1.332268e-15 -4.783058e+00 5.974563e+00 -6.661338e-16 -5.238031e+00 1.078566e+01 4.102698e-01 1.332268e-15 9.343867e+00 2.924289e-01 -4.440892e-16 1.342940e+01 1.542272e+00 0.000000e+00 1.143914e+01 6.332200e-01 0.000000e+00 9.770293e+00 2.135162e-01 1.243450e-14 1.365714e+01 2.666916e+00 0.000000e+00 1.353958e+01 2.456395e+00 8.881784e-16 1.819551e+01 5.297738e+00 0.000000e+00 7.057375e+00 2.220446e-16 -2.852158e+00 4.118141e+00 -4.440892e-16 -7.532763e+00 1.031530e+01 1.776357e-15 -3.351332e-01 2.580623e+01 8.673186e+00 0.000000e+00 9.494469e+00 1.776357e-15 -3.069558e-01 5.034447e+00 -8.881784e-16 -6.237478e+00 9.997018e+00 8.881784e-16 -1.341110e+00 4.980432e+00 3.885781e-16 -5.831397e+00 8.085615e+00 -4.440892e-16 -1.915156e+00 1.223054e+00 0.000000e+00 -2.162609e+01 7.419125e+00 8.881784e-16 -4.230650e+00 2.837597e+00 -8.881784e-16 -7.805943e+00 1.005656e+01 -4.440892e-16 -1.366968e+00 1.026184e+01 -1.332268e-15 -1.808476e+00 1.106881e+01 1.145926e+00 8.881784e-16 2.137071e+01 6.268397e+00 1.776357e-15 6.985775e+00 6.661338e-16 -1.082728e+00 1.246060e+01 3.270472e-01 -3.552714e-15 7.514318e+00 -1.332268e-15 -4.371197e+00 7.452749e+00 3.330669e-16 -5.134487e+00 1.763253e+01 4.876444e+00 0.000000e+00 1.939343e+01 4.290401e+00 0.000000e+00 8.555719e+00 2.220446e-16 -4.085159e+00 7.665802e+00 2.220446e-16 -4.359160e+00 3.823227e+00 -6.661338e-16 -7.949358e+00 1.335248e+01 1.738497e+00 8.881784e-16 1.412208e+01 1.291259e+00 -1.776357e-15 9.404886e+00 1.776357e-15 -7.026213e-01 4.247656e+00 0.000000e+00 -7.387570e+00 6.788877e+00 -7.771561e-16 -4.702504e+00 1.578361e+01 3.121502e+00 8.881784e-16 1.075092e+01 -8.881784e-16 -1.300518e+00 6.035790e+00 -5.551115e-16 -3.993153e+00 7.390784e+00 2.220446e-16 -4.357606e+00 8.169612e+00 -6.661338e-16 -3.409872e+00 1.229249e+01 1.598581e-01 -1.243450e-14 1.145417e+01 1.128318e+00 -8.881784e-16 1.733678e+01 4.866536e+00 -1.776357e-15 1.940197e+01 4.388048e+00 -1.776357e-15 1.517800e+01 3.346335e+00 -8.881784e-16 9.213911e+00 3.867297e-01 1.776357e-15 1.707742e+01 4.248042e+00 0.000000e+00 1.564486e+01 3.544871e+00 8.881784e-16 1.755652e+01 3.834250e+00 -8.881784e-16 9.434503e+00 -1.110223e-15 -3.721280e+00 9.401852e+00 -4.440892e-16 -2.499245e+00 7.563419e+00 0.000000e+00 -3.006276e+00 8.557738e+00 -8.881784e-16 -1.944328e+00 1.751508e+01 3.138360e+00 2.664535e-15 1.670734e+01 2.858042e+00 0.000000e+00 8.377535e+00 -1.110223e-15 -3.213114e+00 9.265533e+00 -1.332268e-15 -3.949023e+00 9.774327e+00 -2.220446e-15 -2.862296e+00 1.326072e+01 1.480848e+00 0.000000e+00 1.198363e+01 1.561944e+00 -8.881784e-16 5.324522e+00 -6.036838e-16 -5.242584e+00 8.651852e+00 -1.332268e-15 -1.050804e+00 1.409784e+01 1.714508e+00 -3.552714e-15 1.331397e+01 2.335830e+00 0.000000e+00 1.064235e+01 -2.664535e-15 -2.574227e+00 1.440890e+01 2.706196e+00 -8.881784e-16 7.966540e+00 -1.332268e-15 -3.530148e+00 9.969554e+00 -1.776357e-15 -5.152148e-01 1.181476e+01 3.932614e-01 2.664535e-15 1.959826e+01 6.818658e+00 0.000000e+00 1.671704e+01 2.648796e+00 -8.881784e-16 1.178946e+01 7.286034e-01 1.776357e-15 7.892227e+00 0.000000e+00 -3.885011e+00 1.060345e+01 1.554312e-14 -1.096080e-01 9.249303e+00 8.881784e-16 -1.914659e+00 1.291454e+01 6.217249e-14 -3.671776e-02 1.070964e+01 -4.440892e-16 -2.653788e+00 1.530228e+01 2.312344e+00 -8.881784e-16 1.225437e+01 -3.108624e-15 -1.009311e+00 3.911849e+00 -3.330669e-16 -6.444331e+00 7.995189e+00 -4.440892e-16 -3.375376e+00 1.423961e+01 1.852909e+00 8.881784e-16   </DataArray>
  <DataArray type="Float64" Name="IST_StrainTensor" NumberOfComponents="9" format="ascii">1.637207e-05 -6.105306e-06 0.000000e+00 -6.105306e-06 -9.046333e-05 0.000000e+00 0.000000e+00 0.000000e+00 0.000000e+00 2.139029e-05 -2.770374e-06 0.000000e+00 -2.770374e-06 -8.287577e-05 0.000000e+00 0.000000e+00 0.000000e+00 0.000000e+00 2.284473e-05 -2.022934e-06 0.000000e+00 -2.022934e-06 -7.503317e-05 0.000000e+00 0.000000e+00 0.000000e+00 0.000000e+00 2.300468e-05 -1.802870e-06 0.000000e+00 -1.802870e-06 -6.724000e-05 0.000000e+00 0.000000e+00 0.000000e+00 0.000000e+00 2.321825e-05 -1.788240e-06 0.000000e+00 -1.788240e-06 -6.011495e-05 0.000000e+00 0.000000e+00 0.000000e+00 0.000000e+00 2.359870e-05 -1.827467e-06 0.000000e+00 -1.827467e-06 -5.321674e-05 0.000000e+00 0.000000e+00 0.000000e+00 0.000000e+00 2.449880e-05 -1.725994e-06 0.000000e+00 -1.725994e-06 -4.710274e-05 0.000000e+00 0.000000e+00 0.000000e+00 0.000000e+00 2.572053e-05 -1.792185e-06 0.000000e+00 -1.792185e-06 -4.138420e-05 0.000000e+00 0.000000e+00 0.000000e+00 0.000000e+00 2.736931e-05 -1.878951e-06 0.000000e+00 -1.878951e-06 -3.607590e-05 0.000000e+00 0.000000e+00 0.000000e+00 0.000000e+00 2.937208e-05 -1.999078e-06 0.000000e+00 -1.999078e-06 -3.109772e-05 0.000000e+00 0.000000e+00 0.000000e+00 0.000000e+00 3.156968e-05 -2.155455e-06 0.000000e+00 -2.155455e-06 -2.603961e-05 0.000000e+00 0.000000e+00 0.000000e+00 0.000000e+00 3.434927e-05 -2.189729e-06 0.000000e+00 -2.189729e-06 -2.150710e-05 0.000000e+00 0.000000e+00 0.000000e+00 0.000000e+00 3.749289e-05 -2.385845e-06 0.000000e+00 -2.385845e-06 -1.710826e-05 0.000000e+00 0.000000e+00 0.000000e+00 0.000000e+00 4.080291e-05 -2.530893e-06 0.000000e+00 -2.530893e-06 -1.228382e-05 0.000000e+00 0.000000e+00 0.000000e+00 0.000000e+00 4.474265e-05 -2.657601e-06 0.000000e+00 -2.657601e-06 -7.719692e-06 0.000000e+00 0.000000e+00 0.000000e+00 0.000000e+00 4.881802e-05 -2.988339e-06 0.000000e+00 -2.988339e-06 -2.391580e-06 0.000000e+00 0.000000e+00 0.000000e+00 0.000000e+00 5.343768e-05 -3.412555e-06 0.000000e+00 -3.412555e-06 3.275357e-06 0.000000e+00 0.000000e+00 0.000000e+00 0.000000e+00 5.912133e-05 -3.834224e-06 0.000000e+00 -3.834224e-06 8.816695e-06 0.000000e+00 0.000000e+00 0.000000e+00 0.000000e+00 6.523893e-05 -3.920344e-06 0.000000e+00 -3.920344e-06 1.604937e-05 0.000000e+00 0.000000e+00 0.000000e+00 0.000000e+00 7.273152e-05 -5.216196e-06 0.000000e+00 -5.216196e-06 2.391878e-05 0.000000e+00 0.000000e+00 0.000000e+00 0.000000e+00 8.233372e-05 -6.757732e-06 0.000000e+00 -6.757732e-06 3.329827e-05 0.000000e+00 0.000000e+00 0.000000e+00 0.000000e+00 9.555380e-05 -8.903719e-06 0.000000e+00 -8.903719e-06 4.586714e-05 0.000000e+00 0.000000e+00 0.000000e+00 0.000000e+00 1.163015e-04 -1.546909e-05 0.000000e+00 -1.546909e-05 6.314946e-05 0.000000e+00 0.000000e+00 0.000000e+00 0.000000e+00 1.558692e-04 -3.760445e-05 0.000000e+00 -3.760445e-05 9.627664e-05 0.000000e+00 0.000000e+00 0.000000e+00 0.000000e+00 2.134263e-04 -1.197862e-04 0.000000e+00 -1.197862e-04 2.241066e-04 0.000000e+00 0.000000e+00 0.000000e+00 0.000000e+00 3.388523e-05 2.297976e-06 0.000000e+00 2.297976e-06 -9.104488e-06 0.000000e+00 0.000000e+00 0.000000e+00 0.000000e+00 3.015884e-05 2.634164e-06 0.000000e+00 2.634164e-06 -9.499386e-06 0.000000e+00 0.000000e+00 0.000000e+00 0.000000e+00 2.325642e-05 3.547000e-06 0.000000e+00 3.547000e-06 -7.257254e-06 0.000000e+00 0.000000e+00 0.000000e+00 0.000000e+00 1.177012e-05 4.747119e-06 0.000000e+00 4.747119e-06 -2.990413e-06 0.000000e+00 0.000000e+00 0.000000e+00 0.000000e+00 1.411246e-05 5.546737e-06 0.000000e+00 5.546737e-06 -2.722089e-06 0.000000e+00 0.000000e+00 0.000000e+00 0.000000e+00 2.417278e-05 1.236468e-05 0.000000e+00 1.236468e-05 -3.042917e-06 0.000000e+00 0.000000e+00 0.000000e+00 0.000000e+00 2.891537e-05 8.635865e-06 0.000000e+00 8.635865e-06 -5.579148e-06 0.000000e+00 0.000000e+00 0.000000e+00 0.000000e+00 7.132521e-06 4.601195e-06 0.000000e+00 4.601195e-06 -1.586328e-06 0.000000e+00 0.000000e+00 0.000000e+00 0.000000e+00 -6.313124e-06 2.465462e-06 0.000000e+00 2.465462e-06 3.806093e-06 0.000000e+00 0.000000e+00 0.000000e+00 0.000000e+00 -5.307494e-06 -1.425982e-06 0.000000e+00 -1.425982e-06 2.205355e-06 0.000000e+00 0.000000e+00 0.000000e+00 0.000000e+00 -3.123283e-07 -6.142643e-07 0.000000e+00 -6.142643e-07 -3.494897e-07 0.000000e+00 0.000000e+00 0.000000e+00 0.000000e+00 4.487726e-07 -6.713727e-07 0.000000e+00 -6.713727e-07 -1.884865e-06 0.000000e+00 0.000000e+00 0.000000e+00 0.000000e+00 1.370675e-06 6.042554e-07 0.000000e+00 6.042554e-07 -3.042943e-06 0.000000e+00 0.000000e+00 0.000000e+00 0.000000e+00 -1.333534e-07 1.176321e-06 0.000000e+00 1.176321e-06 3.323953e-07 0.000000e+00 0.000000e+00 0.000000e+00 0.000000e+00 -1.260998e-06 4.281764e-07 0.000000e+00 4.281764e-07 3.038721e-06 0.000000e+00 0.000000e+00 0.000000e+00 0.000000e+00 -7.087464e-07 -6.610985e-07 0.000000e+00 -6.610985e-07 1.758218e-06 0.000000e+00 0.000000e+00 0.000000e+00 0.000000e+00 3.610430e-08 -5.644299e-07 0.000000e+00 -5.644299e-07 4.060560e-07 0.000000e+00 0.000000e+00 0.000000e+00 0.000000e+00 -3.529380e-08 -7.156337e-07 0.000000e+00 -7.156337e-07 2.489180e-07 0.000000e+00 0.000000e+00 0.000000e+00 0.000000e+00 5.254788e-07 -6.703071e-07 0.000000e+00 -6.703071e-07 -3.092141e-07 0.000000e+00 0.000000e+00 0.000000e+00 0.000000e+00 1.469814e-06 -3.729911e-07 0.000000e+00 -3.729911e-07 -4.286919e-07 0.000000e+00 0.000000e+00 0.000000e+00 0.000000e+00 2.514856e-06 1.162632e-07 0.000000e+00 1.162632e-07 -1.553956e-06 0.000000e+00 0.000000e+00 0.000000e+00 0.000000e+00 -2.167352e-06 2.785646e-06 0.000000e+00 2.785646e-06 -3.157884e-07 0.000000e+00 0.000000e+00 0.000000e+00 0.000000e+00 -1.887110e-05 5.775213e-06 0.000000e+00 5.775213e-06 5.187686e-06 0.000000e+00 0.000000e+00 0.000000e+00 0.000000e+00 -4.110868e-05 6.261796e-06 0.000000e+00 6.261796e-06 1.311011e-05 0.000000e+00 0.000000e+00 0.000000e+00 0.000000e+00 -5.731245e-05 3.125297e-06 0.000000e+00 3.125297e-06 2.010247e-05 0.000000e+00 0.000000e+00 0.000000e+00 0.000000e+00 -4.448829e-05 -7.023109e-06 0.000000e+00 -7.023109e-06 1.729790e-05 0.000000e+00 0.000000e+00 0.000000e+00 0.000000e+00 -2.038924e-05 -1.064974e-05 0.000000e+00 -1.064974e-05 6.971164e-06 0.000000e+00 0.000000e+00 0.000000e+00 0.000000e+00 -2.476005e-06 -4.009260e-06 0.000000e+00 -4.009260e-06 -1.711261e-06 0.000000e+00 0.000000e+00 0.000000e+00 0.000000e+00 -1.429487e-05 -9.464818e-06 0.000000e+00 -9.464818e-06 2.254383e-06 0.000000e+00 0.000000e+00 0.000000e+00 0.000000e+00 -1.801108e-06 -3.844749e-06 0.000000e+00 -3.844749e-06 -2.137492e-06 0.000000e+00 0.000000e+00 0.000000e+00 0.000000e+00 4.556186e-06 -1.034048e-05 0.000000e+00 -1.034048e-05 -1.763401e-05 0.000000e+00 0.000000e+00 0.000000e+00 0.000000e+00 1.972699e-06 3.113788e-06 0.000000e+00 3.113788e-06 -2.318780e-06 0.000000e+00 0.000000e+00 0.000000e+00 0.000000e+00 3.541324e-06 1.579652e-06 0.000000e+00 1.579652e-06 -2.784975e-06 0.000000e+00 0.000000e+00 0.000000e+00 0.000000e+00 4.006300e-06 -4.406898e-07 0.000000e+00 -4.406898e-07 -2.110854e-06 0.000000e+00 0.000000e+00 0.000000e+00 0.000000e+00 3.095836e-06 -1.776144e-06 0.000000e+00 -1.776144e-06 -2.430793e-07 0.000000e+00 0.000000e+00 0.000000e+00 0.000000e+00 8.798263e-07 -1.590551e-06 0.000000e+00 -1.590551e-06 2.365363e-06 0.000000e+00 0.000000e+00 0.000000e+00 0.000000e+00 -1.402589e-06 1.214588e-06 0.000000e+00 1.214588e-06 4.845516e-06 0.000000e+00 0.000000e+00 0.000000e+00 0.000000e+00 -1.638986e-06 5.085602e-06 0.000000e+00 5.085602e-06 5.591446e-06 0.000000e+00 0.000000e+00 0.000000e+00 0.000000e+00 -1.171979e-06 1.052101e-05 0.000000e+00 1.052101e-05 5.194151e-06 0.000000e+00 0.000000e+00 0.000000e+00 0.000000e+00 4.862640e-07 1.574175e-05 0.000000e+00 1.574175e-05 4.081110e-06 0.000000e+00 0.000000e+00 0.000000e+00 0.000000e+00 5.824086e-06 2.055369e-05 0.000000e+00 2.055369e-05 1.420781e-06 0.000000e+00 0.000000e+00 0.000000e+00 0.000000e+00 8.970541e-06 2.268927e-05 0.000000e+00 2.268927e-05 -1.182909e-06 0.000000e+00 0.000000e+00 0.000000e+00 0.000000e+00 1.041180e-05 2.333101e-05 0.000000e+00 2.333101e-05 -3.048943e-06 0.000000e+00 0.000000e+00 0.000000e+00 0.000000e+00 9.752622e-06 2.293184e-05 0.000000e+00 2.293184e-05 -3.525405e-06 0.000000e+00 0.000000e+00 0.000000e+00 0.000000e+00 6.754938e-06 2.229266e-05 0.000000e+00 2.229266e-05 -2.787586e-06 0.000000e+00 0.000000e+00 0.000000e+00 0.000000e+00 2.458318e-06 2.223310e-05 0.000000e+00 2.223310e-05 -1.404371e-06 0.000000e+00 0.000000e+00 0.000000e+00 0.000000e+00 -1.953582e-06 2.338543e-05 0.000000e+00 2.338543e-05 1.084746e-07 0.000000e+00 0.000000e+00 0.000000e+00 0.000000e+00 -3.809703e-06 2.527475e-05 0.000000e+00 2.527475e-05 -3.256152e-07 0.000000e+00 0.000000e+00 0.000000e+00 0.000000e+00 -2.945040e-06 2.578836e-05 0.000000e+00 2.578836e-05 -2.850997e-06 0.000000e+00 0.000000e+00 0.000000e+00 0.000000e+00 -1.241305e-07 2.387077e-05 0.000000e+00 2.387077e-05 -6.235079e-06 0.000000e+00 0.000000e+00 0.000000e+00 0.000000e+00 2.684331e-06 1.989718e-05 0.000000e+00 1.989718e-05 -8.829533e-06 0.000000e+00 0.000000e+00 0.000000e+00 0.000000e+00 4.467394e-06 1.549291e-05 0.000000e+00 1.549291e-05 -1.039734e-05 0.000000e+00 0.000000e+00 0.000000e+00 0.000000e+00 5.338396e-06 1.020055e-05 0.000000e+00 1.020055e-05 -1.114774e-05 0.000000e+00 0.000000e+00 0.000000e+00 0.000000e+00 4.572403e-06 5.079244e-06 0.000000e+00 5.079244e-06 -1.005139e-05 0.000000e+00 0.000000e+00 0.000000e+00 0.000000e+00 2.555061e-06 1.395765e-06 0.000000e+00 1.395765e-06 -7.759411e-06 0.000000e+00 0.000000e+00 0.000000e+00 0.000000e+00 -3.228954e-07 6.571021e-07 0.000000e+00 6.571021e-07 -4.116519e-06 0.000000e+00 0.000000e+00 0.000000e+00 0.000000e+00 -1.343179e-06 1.661333e-06 0.000000e+00 1.661333e-06 -2.144928e-06 0.000000e+00 0.000000e+00 0.000000e+00 0.000000e+00 -8.737004e-07 2.818514e-06 0.000000e+00 2.818514e-06 -1.494292e-06 0.000000e+00 0.000000e+00 0.000000e+00 0.000000e+00 3.287082e-07 3.427352e-06 0.000000e+00 3.427352e-06 -1.736882e-06 0.000000e+00 0.000000e+00 0.000000e+00 0.000000e+00 1.557535e-07 -7.669024e-07 0.000000e+00 -7.669024e-07 -4.939158e-07 0.000000e+00 0.000000e+00 0.000000e+00 0.000000e+00 9.164107e-06 -5.274916e-06 0.000000e+00 -5.274916e-06 -9.046333e-05 0.000000e+00 0.000000e+00 0.000000e+00 0.000000e+00 1.979026e-05 -3.898032e-06 0.000000e+00 -3.898032e-06 -8.710401e-05 0.000000e+00 0.000000e+00 0.000000e+00 0.000000e+00 2.166964e-05 -2.735886e-06 0.000000e+00 -2.735886e-06 -8.833641e-05 0.000000e+00 0.000000e+00 0.000000e+00 0.000000e+00 2.261964e-05 -1.118113e-06 0.000000e+00 -1.118113e-06 -8.483033e-05 0.000000e+00 0.000000e+00 0.000000e+00 0.000000e+00 2.240364e-05 -2.258605e-06 0.000000e+00 -2.258605e-06 -7.898539e-05 0.000000e+00 0.000000e+00 0.000000e+00 0.000000e+00 2.307345e-05 -1.389113e-07 0.000000e+00 -1.389113e-07 -7.689121e-05 0.000000e+00 0.000000e+00 0.000000e+00 0.000000e+00 2.290453e-05 -1.913872e-06 0.000000e+00 -1.913872e-06 -7.095656e-05 0.000000e+00 0.000000e+00 0.000000e+00 0.000000e+00 2.303233e-05 -1.769540e-06 0.000000e+00 -1.769540e-06 -6.353270e-05 0.000000e+00 0.000000e+00 0.000000e+00 0.000000e+00 2.333392e-05 -1.878366e-06 0.000000e+00 -1.878366e-06 -5.656213e-05 0.000000e+00 0.000000e+00 0.000000e+00 0.000000e+00 2.308662e-05 1.500000e-08 0.000000e+00 1.500000e-08 -5.824367e-05 0.000000e+00 0.000000e+00 0.000000e+00 0.000000e+00 2.357370e-05 -7.433005e-08 0.000000e+00 -7.433005e-08 -5.490293e-05 0.000000e+00 0.000000e+00 0.000000e+00 0.000000e+00 2.393477e-05 -1.755821e-06 0.000000e+00 -1.755821e-06 -4.996959e-05 0.000000e+00 0.000000e+00 0.000000e+00 0.000000e+00 2.518534e-05 -1.747775e-06 0.000000e+00 -1.747775e-06 -4.440688e-05 0.000000e+00 0.000000e+00 0.000000e+00 0.000000e+00 2.643758e-05 -1.843739e-06 0.000000e+00 -1.843739e-06 -3.858448e-05 0.000000e+00 0.000000e+00 0.000000e+00 0.000000e+00 2.826363e-05 -1.958944e-06 0.000000e+00 -1.958944e-06 -3.345171e-05 0.000000e+00 0.000000e+00 0.000000e+00 0.000000e+00 2.763100e-05 -5.123030e-07 0.000000e+00 -5.123030e-07 -3.468342e-05 0.000000e+00 0.000000e+00 0.000000e+00 0.000000e+00 2.870617e-05 -6.398232e-07 0.000000e+00 -6.398232e-07 -3.221210e-05 0.000000e+00 0.000000e+00 0.000000e+00 0.000000e+00 3.048745e-05 -2.087323e-06 0.000000e+00 -2.087323e-06 -2.865368e-05 0.000000e+00 0.000000e+00 0.000000e+00 0.000000e+00 3.287123e-05 -2.158921e-06 0.000000e+00 -2.158921e-06 -2.367853e-05 0.000000e+00 0.000000e+00 0.000000e+00 0.000000e+00 3.588448e-05 -2.270206e-06 0.000000e+00 -2.270206e-06 -1.932359e-05 0.000000e+00 0.000000e+00 0.000000e+00 0.000000e+00 3.492347e-05 -9.204061e-07 0.000000e+00 -9.204061e-07 -2.037617e-05 0.000000e+00 0.000000e+00 0.000000e+00 0.000000e+00 3.638671e-05 -9.837215e-07 0.000000e+00 -9.837215e-07 -1.813282e-05 0.000000e+00 0.000000e+00 0.000000e+00 0.000000e+00 3.918227e-05 -2.454226e-06 0.000000e+00 -2.454226e-06 -1.484490e-05 0.000000e+00 0.000000e+00 0.000000e+00 0.000000e+00 4.263514e-05 -2.559114e-06 0.000000e+00 -2.559114e-06 -9.869536e-06 0.000000e+00 0.000000e+00 0.000000e+00 0.000000e+00 4.680498e-05 -2.825596e-06 0.000000e+00 -2.825596e-06 -5.243794e-06 0.000000e+00 0.000000e+00 0.000000e+00 0.000000e+00 4.539053e-05 -1.295451e-06 0.000000e+00 -1.295451e-06 -6.406822e-06 0.000000e+00 0.000000e+00 0.000000e+00 0.000000e+00 4.750966e-05 -1.271547e-06 0.000000e+00 -1.271547e-06 -3.834084e-06 0.000000e+00 0.000000e+00 0.000000e+00 0.000000e+00 5.101079e-05 -3.188660e-06 0.000000e+00 -3.188660e-06 4.735247e-07 0.000000e+00 0.000000e+00 0.000000e+00 0.000000e+00 5.181517e-05 -1.562697e-06 0.000000e+00 -1.562697e-06 1.815945e-06 0.000000e+00 0.000000e+00 0.000000e+00 0.000000e+00 5.626133e-05 -3.644244e-06 0.000000e+00 -3.644244e-06 5.837094e-06 0.000000e+00 0.000000e+00 0.000000e+00 0.000000e+00 6.194255e-05 -3.894442e-06 0.000000e+00 -3.894442e-06 1.246047e-05 0.000000e+00 0.000000e+00 0.000000e+00 0.000000e+00 6.905268e-05 -4.261146e-06 0.000000e+00 -4.261146e-06 1.952864e-05 0.000000e+00 0.000000e+00 0.000000e+00 0.000000e+00 6.646629e-05 -2.051014e-06 0.000000e+00 -2.051014e-06 1.787469e-05 0.000000e+00 0.000000e+00 0.000000e+00 0.000000e+00 6.911571e-05 -2.294537e-06 0.000000e+00 -2.294537e-06 2.182064e-05 0.000000e+00 0.000000e+00 0.000000e+00 0.000000e+00 7.725128e-05 -5.926335e-06 0.000000e+00 -5.926335e-06 2.830921e-05 0.000000e+00 0.000000e+00 0.000000e+00 0.000000e+00 8.850084e-05 -7.806388e-06 0.000000e+00 -7.806388e-06 3.873268e-05 0.000000e+00 0.000000e+00 0.000000e+00 0.000000e+00 1.046517e-04 -1.100777e-05 0.000000e+00 -1.100777e-05 5.371560e-05 0.000000e+00 0.000000e+00 0.000000e+00 0.000000e+00 1.322135e-04 -2.319727e-05 0.000000e+00 -2.319727e-05 7.662765e-05 0.000000e+00 0.000000e+00 0.000000e+00 0.000000e+00 1.087674e-04 -1.083450e-05 0.000000e+00 -1.083450e-05 7.014225e-05 0.000000e+00 0.000000e+00 0.000000e+00 0.000000e+00 1.140201e-04 -1.723112e-05 0.000000e+00 -1.723112e-05 8.635904e-05 0.000000e+00 0.000000e+00 0.000000e+00 0.000000e+00 1.883198e-04 -6.666466e-05 0.000000e+00 -6.666466e-05 1.338994e-04 0.000000e+00 0.000000e+00 0.000000e+00 0.000000e+00 5.379590e-05 1.661665e-06 0.000000e+00 1.661665e-06 -1.633878e-05 0.000000e+00 0.000000e+00 0.000000e+00 0.000000e+00 3.269207e-05 3.023100e-07 0.000000e+00 3.023100e-07 -1.154971e-05 0.000000e+00 0.000000e+00 0.000000e+00 0.000000e+00 3.235808e-05 2.089037e-06 0.000000e+00 2.089037e-06 -9.913261e-06 0.000000e+00 0.000000e+00 0.000000e+00 0.000000e+00 2.702165e-05 3.114847e-06 0.000000e+00 3.114847e-06 -8.386503e-06 0.000000e+00 0.000000e+00 0.000000e+00 0.000000e+00 1.856121e-05 4.154190e-06 0.000000e+00 4.154190e-06 -5.968013e-06 0.000000e+00 0.000000e+00 0.000000e+00 0.000000e+00 1.615465e-05 9.210389e-06 0.000000e+00 9.210389e-06 -4.253915e-06 0.000000e+00 0.000000e+00 0.000000e+00 0.000000e+00 2.023206e-05 7.836571e-06 0.000000e+00 7.836571e-06 -2.934486e-06 0.000000e+00 0.000000e+00 0.000000e+00 0.000000e+00 1.806732e-05 1.038394e-05 0.000000e+00 1.038394e-05 -1.758493e-06 0.000000e+00 0.000000e+00 0.000000e+00 0.000000e+00 1.622756e-05 5.472839e-06 0.000000e+00 5.472839e-06 -4.253570e-06 0.000000e+00 0.000000e+00 0.000000e+00 0.000000e+00 -5.712876e-07 3.894615e-06 0.000000e+00 3.894615e-06 1.673723e-06 0.000000e+00 0.000000e+00 0.000000e+00 0.000000e+00 -8.382120e-07 1.669096e-06 0.000000e+00 1.669096e-06 -4.907486e-07 0.000000e+00 0.000000e+00 0.000000e+00 0.000000e+00 -3.144545e-06 -7.975047e-07 0.000000e+00 -7.975047e-07 4.384257e-07 0.000000e+00 0.000000e+00 0.000000e+00 0.000000e+00 -7.623752e-06 4.713035e-08 0.000000e+00 4.713035e-08 3.603366e-06 0.000000e+00 0.000000e+00 0.000000e+00 0.000000e+00 -2.139763e-06 -1.395030e-06 0.000000e+00 -1.395030e-06 5.580758e-07 0.000000e+00 0.000000e+00 0.000000e+00 0.000000e+00 5.528609e-07 -7.980603e-07 0.000000e+00 -7.980603e-07 -1.731594e-06 0.000000e+00 0.000000e+00 0.000000e+00 0.000000e+00 1.402555e-06 -2.263480e-07 0.000000e+00 -2.263480e-07 -3.209830e-06 0.000000e+00 0.000000e+00 0.000000e+00 0.000000e+00 7.182103e-07 -6.193997e-08 0.000000e+00 -6.193997e-08 -2.314460e-06 0.000000e+00 0.000000e+00 0.000000e+00 0.000000e+00 7.637455e-07 1.044891e-06 0.000000e+00 1.044891e-06 -1.670508e-06 0.000000e+00 0.000000e+00 0.000000e+00 0.000000e+00 -8.690591e-07 8.563691e-07 0.000000e+00 8.563691e-07 1.960869e-06 0.000000e+00 0.000000e+00 0.000000e+00 0.000000e+00 -1.115962e-06 -1.557377e-07 0.000000e+00 -1.557377e-07 2.815912e-06 0.000000e+00 0.000000e+00 0.000000e+00 0.000000e+00 -1.885871e-05 6.114993e-06 0.000000e+00 6.114993e-06 5.659691e-06 0.000000e+00 0.000000e+00 0.000000e+00 0.000000e+00 -2.992464e-05 6.270408e-06 0.000000e+00 6.270408e-06 8.877084e-06 0.000000e+00 0.000000e+00 0.000000e+00 0.000000e+00 4.605829e-07 -5.639289e-07 0.000000e+00 -5.639289e-07 2.182331e-08 0.000000e+00 0.000000e+00 0.000000e+00 0.000000e+00 -3.565598e-08 4.152182e-07 0.000000e+00 4.152182e-07 2.420258e-07 0.000000e+00 0.000000e+00 0.000000e+00 0.000000e+00 1.507446e-06 1.334579e-06 0.000000e+00 1.334579e-06 -1.492025e-06 0.000000e+00 0.000000e+00 0.000000e+00 0.000000e+00 -2.424971e-06 1.876879e-06 0.000000e+00 1.876879e-06 8.847169e-07 0.000000e+00 0.000000e+00 0.000000e+00 0.000000e+00 -8.925803e-06 4.427384e-06 0.000000e+00 4.427384e-06 1.745604e-06 0.000000e+00 0.000000e+00 0.000000e+00 0.000000e+00 -2.685560e-05 6.205470e-06 0.000000e+00 6.205470e-06 7.716511e-06 0.000000e+00 0.000000e+00 0.000000e+00 0.000000e+00 -5.104528e-05 5.201510e-06 0.000000e+00 5.201510e-06 1.703324e-05 0.000000e+00 0.000000e+00 0.000000e+00 0.000000e+00 -3.503309e-05 -7.576154e-06 0.000000e+00 -7.576154e-06 9.543449e-06 0.000000e+00 0.000000e+00 0.000000e+00 0.000000e+00 -5.597578e-05 -1.555178e-06 0.000000e+00 -1.555178e-06 2.072788e-05 0.000000e+00 0.000000e+00 0.000000e+00 0.000000e+00 -2.521730e-05 -8.274843e-06 0.000000e+00 -8.274843e-06 5.978418e-06 0.000000e+00 0.000000e+00 0.000000e+00 0.000000e+00 3.069329e-06 1.672993e-06 0.000000e+00 1.672993e-06 -2.200526e-06 0.000000e+00 0.000000e+00 0.000000e+00 0.000000e+00 1.284558e-06 2.754059e-06 0.000000e+00 2.754059e-06 -1.738969e-06 0.000000e+00 0.000000e+00 0.000000e+00 0.000000e+00 4.029555e-06 -3.302998e-07 0.000000e+00 -3.302998e-07 -1.987773e-06 0.000000e+00 0.000000e+00 0.000000e+00 0.000000e+00 3.511220e-06 -2.224697e-06 0.000000e+00 -2.224697e-06 -5.033392e-07 0.000000e+00 0.000000e+00 0.000000e+00 0.000000e+00 2.104494e-06 -3.129658e-06 0.000000e+00 -3.129658e-06 2.275936e-06 0.000000e+00 0.000000e+00 0.000000e+00 0.000000e+00 -3.200620e-07 -1.465063e-06 0.000000e+00 -1.465063e-06 5.907431e-06 0.000000e+00 0.000000e+00 0.000000e+00 0.000000e+00 -1.214715e-06 2.646354e-06 0.000000e+00 2.646354e-06 7.651473e-06 0.000000e+00 0.000000e+00 0.000000e+00 0.000000e+00 -6.520163e-07 8.004210e-06 0.000000e+00 8.004210e-06 8.886578e-06 0.000000e+00 0.000000e+00 0.000000e+00 0.000000e+00 1.985119e-06 1.358573e-05 0.000000e+00 1.358573e-05 7.136024e-06 0.000000e+00 0.000000e+00 0.000000e+00 0.000000e+00 6.333877e-06 1.895785e-05 0.000000e+00 1.895785e-05 5.218545e-06 0.000000e+00 0.000000e+00 0.000000e+00 0.000000e+00 9.442990e-06 2.155045e-05 0.000000e+00 2.155045e-05 1.369835e-06 0.000000e+00 0.000000e+00 0.000000e+00 0.000000e+00 1.056253e-05 2.244372e-05 0.000000e+00 2.244372e-05 -1.191662e-06 0.000000e+00 0.000000e+00 0.000000e+00 0.000000e+00 9.778414e-06 2.308938e-05 0.000000e+00 2.308938e-05 -2.576049e-06 0.000000e+00 0.000000e+00 0.000000e+00 0.000000e+00 7.551430e-06 2.339550e-05 0.000000e+00 2.339550e-05 -2.451637e-06 0.000000e+00 0.000000e+00 0.000000e+00 0.000000e+00 4.330403e-06 2.372049e-05 0.000000e+00 2.372049e-05 -1.500384e-06 0.000000e+00 0.000000e+00 0.000000e+00 0.000000e+00 5.276745e-07 2.441066e-05 0.000000e+00 2.441066e-05 -3.022465e-07 0.000000e+00 0.000000e+00 0.000000e+00 0.000000e+00 -2.455313e-06 2.547485e-05 0.000000e+00 2.547485e-05 -4.868974e-07 0.000000e+00 0.000000e+00 0.000000e+00 0.000000e+00 -3.649851e-06 2.596185e-05 0.000000e+00 2.596185e-05 -2.706449e-06 0.000000e+00 0.000000e+00 0.000000e+00 0.000000e+00 -3.140828e-06 2.495710e-05 0.000000e+00 2.495710e-05 -6.109665e-06 0.000000e+00 0.000000e+00 0.000000e+00 0.000000e+00 -1.369152e-06 2.190134e-05 0.000000e+00 2.190134e-05 -9.291330e-06 0.000000e+00 0.000000e+00 0.000000e+00 0.000000e+00 6.835767e-07 1.758881e-05 0.000000e+00 1.758881e-05 -1.148629e-05 0.000000e+00 0.000000e+00 0.000000e+00 0.000000e+00 2.761048e-06 1.270963e-05 0.000000e+00 1.270963e-05 -1.336072e-05 0.000000e+00 0.000000e+00 0.000000e+00 0.000000e+00 3.469593e-06 7.126715e-06 0.000000e+00 7.126715e-06 -1.339721e-05 0.000000e+00 0.000000e+00 0.000000e+00 0.000000e+00 2.434068e-06 2.432503e-06 0.000000e+00 2.432503e-06 -1.107209e-05 0.000000e+00 0.000000e+00 0.000000e+00 0.000000e+00 2.530173e-07 -2.075419e-07 0.000000e+00 -2.075419e-07 -7.263771e-06 0.000000e+00 0.000000e+00 0.000000e+00 0.000000e+00 -1.242502e-06 6.115669e-08 0.000000e+00 6.115669e-08 -3.649186e-06 0.000000e+00 0.000000e+00 0.000000e+00 0.000000e+00 -1.319230e-06 1.392377e-06 0.000000e+00 1.392377e-06 -1.865500e-06 0.000000e+00 0.000000e+00 0.000000e+00 0.000000e+00 -4.276677e-07 2.516250e-06 0.000000e+00 2.516250e-06 -1.339029e-06 0.000000e+00 0.000000e+00 0.000000e+00 0.000000e+00 -1.004226e-05 5.171541e-06 0.000000e+00 5.171541e-06 6.004358e-05 0.000000e+00 0.000000e+00 0.000000e+00 0.000000e+00 2.286458e-05 -4.877826e-07 0.000000e+00 -4.877826e-07 -8.083909e-05 0.000000e+00 0.000000e+00 0.000000e+00 0.000000e+00 2.309088e-05 7.097575e-08 0.000000e+00 7.097575e-08 -7.292731e-05 0.000000e+00 0.000000e+00 0.000000e+00 0.000000e+00 2.308505e-05 8.532925e-08 0.000000e+00 8.532925e-08 -6.530426e-05 0.000000e+00 0.000000e+00 0.000000e+00 0.000000e+00 2.428219e-05 -2.538516e-07 0.000000e+00 -2.538516e-07 -4.856906e-05 0.000000e+00 0.000000e+00 0.000000e+00 0.000000e+00 2.391496e-05 -1.293759e-07 0.000000e+00 -1.293759e-07 -5.164277e-05 0.000000e+00 0.000000e+00 0.000000e+00 0.000000e+00 2.479456e-05 -3.024281e-07 0.000000e+00 -3.024281e-07 -4.573940e-05 0.000000e+00 0.000000e+00 0.000000e+00 0.000000e+00 2.597614e-05 -3.796902e-07 0.000000e+00 -3.796902e-07 -3.996942e-05 0.000000e+00 0.000000e+00 0.000000e+00 0.000000e+00 3.082798e-05 -6.717171e-07 0.000000e+00 -6.717171e-07 -2.719496e-05 0.000000e+00 0.000000e+00 0.000000e+00 0.000000e+00 2.967736e-05 -6.095043e-07 0.000000e+00 -6.095043e-07 -2.973731e-05 0.000000e+00 0.000000e+00 0.000000e+00 0.000000e+00 3.218699e-05 -8.295688e-07 0.000000e+00 -8.295688e-07 -2.481076e-05 0.000000e+00 0.000000e+00 0.000000e+00 0.000000e+00 3.979627e-05 -1.041807e-06 0.000000e+00 -1.041807e-06 -1.348977e-05 0.000000e+00 0.000000e+00 0.000000e+00 0.000000e+00 3.811210e-05 -1.037880e-06 0.000000e+00 -1.037880e-06 -1.586649e-05 0.000000e+00 0.000000e+00 0.000000e+00 0.000000e+00 4.163646e-05 -1.095142e-06 0.000000e+00 -1.095142e-06 -1.104333e-05 0.000000e+00 0.000000e+00 0.000000e+00 0.000000e+00 4.954986e-05 -1.347220e-06 0.000000e+00 -1.347220e-06 -1.020041e-06 0.000000e+00 0.000000e+00 0.000000e+00 0.000000e+00 5.437290e-05 -1.807932e-06 0.000000e+00 -1.807932e-06 4.531089e-06 0.000000e+00 0.000000e+00 0.000000e+00 0.000000e+00 6.052329e-05 -1.714026e-06 0.000000e+00 -1.714026e-06 1.049680e-05 0.000000e+00 0.000000e+00 0.000000e+00 0.000000e+00 7.825650e-05 -3.208931e-06 0.000000e+00 -3.208931e-06 3.069170e-05 0.000000e+00 0.000000e+00 0.000000e+00 0.000000e+00 7.361835e-05 -2.773596e-06 0.000000e+00 -2.773596e-06 2.604545e-05 0.000000e+00 0.000000e+00 0.000000e+00 0.000000e+00 8.338460e-05 -3.716864e-06 0.000000e+00 -3.716864e-06 3.590498e-05 0.000000e+00 0.000000e+00 0.000000e+00 0.000000e+00 9.628462e-05 -5.167311e-06 0.000000e+00 -5.167311e-06 4.981775e-05 0.000000e+00 0.000000e+00 0.000000e+00 0.000000e+00 9.165601e-05 -3.613978e-05 0.000000e+00 -3.613978e-05 1.677797e-04 0.000000e+00 0.000000e+00 0.000000e+00 0.000000e+00 1.117172e-04 -2.725022e-05 0.000000e+00 -2.725022e-05 1.136225e-04 0.000000e+00 0.000000e+00 0.000000e+00 0.000000e+00 4.269190e-05 2.982741e-06 0.000000e+00 2.982741e-06 -1.299572e-05 0.000000e+00 0.000000e+00 0.000000e+00 0.000000e+00 3.091284e-05 3.142910e-06 0.000000e+00 3.142910e-06 -9.157067e-06 0.000000e+00 0.000000e+00 0.000000e+00 0.000000e+00 2.289843e-05 3.868660e-06 0.000000e+00 3.868660e-06 -6.813386e-06 0.000000e+00 0.000000e+00 0.000000e+00 0.000000e+00 1.765252e-05 6.104381e-06 0.000000e+00 6.104381e-06 -5.700245e-06 0.000000e+00 0.000000e+00 0.000000e+00 0.000000e+00 6.065554e-06 3.693806e-06 0.000000e+00 3.693806e-06 -2.297533e-06 0.000000e+00 0.000000e+00 0.000000e+00 0.000000e+00 -3.251693e-06 -1.743186e-07 0.000000e+00 -1.743186e-07 1.530661e-07 0.000000e+00 0.000000e+00 0.000000e+00 0.000000e+00 -2.024490e-06 -1.204556e-06 0.000000e+00 -1.204556e-06 3.730378e-07 0.000000e+00 0.000000e+00 0.000000e+00 0.000000e+00 5.406018e-07 7.282928e-07 0.000000e+00 7.282928e-07 -1.913691e-06 0.000000e+00 0.000000e+00 0.000000e+00 0.000000e+00 -6.923062e-08 1.231316e-06 0.000000e+00 1.231316e-06 -6.966952e-08 0.000000e+00 0.000000e+00 0.000000e+00 0.000000e+00 -3.055912e-07 -4.135688e-09 0.000000e+00 -4.135688e-09 9.186747e-07 0.000000e+00 0.000000e+00 0.000000e+00 0.000000e+00 -6.400628e-06 3.475264e-06 0.000000e+00 3.475264e-06 1.933864e-06 0.000000e+00 0.000000e+00 0.000000e+00 0.000000e+00 -3.345703e-05 5.378574e-06 0.000000e+00 5.378574e-06 9.393293e-06 0.000000e+00 0.000000e+00 0.000000e+00 0.000000e+00 -3.957519e-05 -1.374743e-07 0.000000e+00 -1.374743e-07 1.122821e-05 0.000000e+00 0.000000e+00 0.000000e+00 0.000000e+00 7.925881e-06 -9.091159e-06 0.000000e+00 -9.091159e-06 -2.347175e-05 0.000000e+00 0.000000e+00 0.000000e+00 0.000000e+00 2.681286e-05 -4.612471e-07 0.000000e+00 -4.612471e-07 -3.728093e-05 0.000000e+00 0.000000e+00 0.000000e+00 0.000000e+00 1.013837e-04 -7.263027e-06 0.000000e+00 -7.263027e-06 5.870890e-05 0.000000e+00 0.000000e+00 0.000000e+00 0.000000e+00 2.660218e-05 3.414500e-06 0.000000e+00 3.414500e-06 -7.874612e-06 0.000000e+00 0.000000e+00 0.000000e+00 0.000000e+00 1.920158e-05 4.366930e-06 0.000000e+00 4.366930e-06 -5.910207e-06 0.000000e+00 0.000000e+00 0.000000e+00 0.000000e+00 -2.823855e-07 -4.400552e-07 0.000000e+00 -4.400552e-07 6.541110e-07 0.000000e+00 0.000000e+00 0.000000e+00 0.000000e+00 2.308183e-05 2.087784e-08 0.000000e+00 2.087784e-08 -6.174015e-05 0.000000e+00 0.000000e+00 0.000000e+00 0.000000e+00 2.318952e-05 1.336460e-07 0.000000e+00 1.336460e-07 -6.904373e-05 0.000000e+00 0.000000e+00 0.000000e+00 0.000000e+00 2.535766e-05 -2.453980e-07 0.000000e+00 -2.453980e-07 -4.284075e-05 0.000000e+00 0.000000e+00 0.000000e+00 0.000000e+00 3.353684e-05 -8.971937e-07 0.000000e+00 -8.971937e-07 -2.257620e-05 0.000000e+00 0.000000e+00 0.000000e+00 0.000000e+00 4.340773e-05 -1.256994e-06 0.000000e+00 -1.256994e-06 -8.713205e-06 0.000000e+00 0.000000e+00 0.000000e+00 0.000000e+00 6.358871e-05 -1.713809e-06 0.000000e+00 -1.713809e-06 1.420126e-05 0.000000e+00 0.000000e+00 0.000000e+00 0.000000e+00 5.734481e-05 -1.872624e-06 0.000000e+00 -1.872624e-06 7.286148e-06 0.000000e+00 0.000000e+00 0.000000e+00 0.000000e+00 8.993516e-05 -3.955063e-06 0.000000e+00 -3.955063e-06 4.224390e-05 0.000000e+00 0.000000e+00 0.000000e+00 0.000000e+00 3.625618e-05 3.096571e-06 0.000000e+00 3.096571e-06 -1.070803e-05 0.000000e+00 0.000000e+00 0.000000e+00 0.000000e+00 1.244094e-05 4.799280e-06 0.000000e+00 4.799280e-06 -3.865056e-06 0.000000e+00 0.000000e+00 0.000000e+00 0.000000e+00 -2.666115e-07 4.570718e-07 0.000000e+00 4.570718e-07 8.531221e-07 0.000000e+00 0.000000e+00 0.000000e+00 0.000000e+00 2.978923e-07 1.223911e-06 0.000000e+00 1.223911e-06 -9.934820e-07 0.000000e+00 0.000000e+00 0.000000e+00 0.000000e+00 -1.184024e-05 4.928365e-06 0.000000e+00 4.928365e-06 3.512702e-06 0.000000e+00 0.000000e+00 0.000000e+00 0.000000e+00 -3.835220e-05 3.476784e-06 0.000000e+00 3.476784e-06 1.048280e-05 0.000000e+00 0.000000e+00 0.000000e+00 0.000000e+00 2.332103e-05 -3.828317e-06 0.000000e+00 -3.828317e-06 -7.335274e-05 0.000000e+00 0.000000e+00 0.000000e+00 0.000000e+00 2.305198e-05 -3.602633e-06 0.000000e+00 -3.602633e-06 -6.552560e-05 0.000000e+00 0.000000e+00 0.000000e+00 0.000000e+00 2.539798e-05 -3.985103e-06 0.000000e+00 -3.985103e-06 -4.285731e-05 0.000000e+00 0.000000e+00 0.000000e+00 0.000000e+00 2.419498e-05 -3.810858e-06 0.000000e+00 -3.810858e-06 -4.860290e-05 0.000000e+00 0.000000e+00 0.000000e+00 0.000000e+00 2.314432e-05 -3.722527e-06 0.000000e+00 -3.722527e-06 -6.949497e-05 0.000000e+00 0.000000e+00 0.000000e+00 0.000000e+00 2.361403e-05 -1.451429e-06 0.000000e+00 -1.451429e-06 -6.748549e-05 0.000000e+00 0.000000e+00 0.000000e+00 0.000000e+00 2.473505e-05 -3.838451e-06 0.000000e+00 -3.838451e-06 -4.556790e-05 0.000000e+00 0.000000e+00 0.000000e+00 0.000000e+00 2.453744e-05 -2.290180e-06 0.000000e+00 -2.290180e-06 -4.710695e-05 0.000000e+00 0.000000e+00 0.000000e+00 0.000000e+00 2.450969e-05 -2.379028e-06 0.000000e+00 -2.379028e-06 -4.411964e-05 0.000000e+00 0.000000e+00 0.000000e+00 0.000000e+00 2.359099e-05 -3.894227e-06 0.000000e+00 -3.894227e-06 -5.145551e-05 0.000000e+00 0.000000e+00 0.000000e+00 0.000000e+00 2.456281e-05 -2.207446e-06 0.000000e+00 -2.207446e-06 -5.020005e-05 0.000000e+00 0.000000e+00 0.000000e+00 0.000000e+00 3.353166e-05 -5.300355e-06 0.000000e+00 -5.300355e-06 -2.257735e-05 0.000000e+00 0.000000e+00 0.000000e+00 0.000000e+00 3.082663e-05 -5.166606e-06 0.000000e+00 -5.166606e-06 -2.731807e-05 0.000000e+00 0.000000e+00 0.000000e+00 0.000000e+00 1.046173e-04 -2.804170e-05 0.000000e+00 -2.804170e-05 6.216609e-05 0.000000e+00 0.000000e+00 0.000000e+00 0.000000e+00 3.196449e-05 -5.224530e-06 0.000000e+00 -5.224530e-06 -2.475459e-05 0.000000e+00 0.000000e+00 0.000000e+00 0.000000e+00 3.160423e-05 -3.660430e-06 0.000000e+00 -3.660430e-06 -2.608450e-05 0.000000e+00 0.000000e+00 0.000000e+00 0.000000e+00 3.268432e-05 -3.919665e-06 0.000000e+00 -3.919665e-06 -2.362878e-05 0.000000e+00 0.000000e+00 0.000000e+00 0.000000e+00 2.983063e-05 -4.944888e-06 0.000000e+00 -4.944888e-06 -2.981477e-05 0.000000e+00 0.000000e+00 0.000000e+00 0.000000e+00 2.975143e-05 -3.533280e-06 0.000000e+00 -3.533280e-06 -2.844524e-05 0.000000e+00 0.000000e+00 0.000000e+00 0.000000e+00 3.962948e-05 -6.366162e-06 0.000000e+00 -6.366162e-06 -1.335071e-05 0.000000e+00 0.000000e+00 0.000000e+00 0.000000e+00 4.338746e-05 -6.476278e-06 0.000000e+00 -6.476278e-06 -8.658751e-06 0.000000e+00 0.000000e+00 0.000000e+00 0.000000e+00 4.147631e-05 -6.437167e-06 0.000000e+00 -6.437167e-06 -1.106261e-05 0.000000e+00 0.000000e+00 0.000000e+00 0.000000e+00 4.042889e-05 -4.939862e-06 0.000000e+00 -4.939862e-06 -1.219596e-05 0.000000e+00 0.000000e+00 0.000000e+00 0.000000e+00 4.263526e-05 -4.895793e-06 0.000000e+00 -4.895793e-06 -9.928205e-06 0.000000e+00 0.000000e+00 0.000000e+00 0.000000e+00 3.801780e-05 -6.137454e-06 0.000000e+00 -6.137454e-06 -1.589305e-05 0.000000e+00 0.000000e+00 0.000000e+00 0.000000e+00 3.811711e-05 -4.647592e-06 0.000000e+00 -4.647592e-06 -1.451372e-05 0.000000e+00 0.000000e+00 0.000000e+00 0.000000e+00 4.978296e-05 -7.894343e-06 0.000000e+00 -7.894343e-06 -5.623313e-07 0.000000e+00 0.000000e+00 0.000000e+00 0.000000e+00 6.218012e-05 -9.967807e-06 0.000000e+00 -9.967807e-06 1.520680e-05 0.000000e+00 0.000000e+00 0.000000e+00 0.000000e+00 5.454030e-05 -9.035104e-06 0.000000e+00 -9.035104e-06 5.177132e-06 0.000000e+00 0.000000e+00 0.000000e+00 0.000000e+00 5.949893e-05 -1.002464e-05 0.000000e+00 -1.002464e-05 1.161905e-05 0.000000e+00 0.000000e+00 0.000000e+00 0.000000e+00 6.132455e-05 -7.724503e-06 0.000000e+00 -7.724503e-06 1.294796e-05 0.000000e+00 0.000000e+00 0.000000e+00 0.000000e+00 8.782097e-05 -2.004980e-05 0.000000e+00 -2.004980e-05 4.495563e-05 0.000000e+00 0.000000e+00 0.000000e+00 0.000000e+00 7.814883e-05 -1.617219e-05 0.000000e+00 -1.617219e-05 3.260839e-05 0.000000e+00 0.000000e+00 0.000000e+00 0.000000e+00 5.689347e-05 -9.650235e-06 0.000000e+00 -9.650235e-06 8.262524e-06 0.000000e+00 0.000000e+00 0.000000e+00 0.000000e+00 5.425689e-05 -7.377838e-06 0.000000e+00 -7.377838e-06 6.603134e-06 0.000000e+00 0.000000e+00 0.000000e+00 0.000000e+00 5.691101e-05 -7.591283e-06 0.000000e+00 -7.591283e-06 9.780507e-06 0.000000e+00 0.000000e+00 0.000000e+00 0.000000e+00 8.290287e-05 -1.832515e-05 0.000000e+00 -1.832515e-05 3.860669e-05 0.000000e+00 0.000000e+00 0.000000e+00 0.000000e+00 7.537033e-05 -1.351747e-05 0.000000e+00 -1.351747e-05 3.570663e-05 0.000000e+00 0.000000e+00 0.000000e+00 0.000000e+00 8.045226e-05 -1.489778e-05 0.000000e+00 -1.489778e-05 4.151718e-05 0.000000e+00 0.000000e+00 0.000000e+00 0.000000e+00 7.422709e-05 -1.407415e-05 0.000000e+00 -1.407415e-05 2.714398e-05 0.000000e+00 0.000000e+00 0.000000e+00 0.000000e+00 7.084301e-05 -1.188151e-05 0.000000e+00 -1.188151e-05 3.032824e-05 0.000000e+00 0.000000e+00 0.000000e+00 0.000000e+00 9.590407e-05 -2.255669e-05 0.000000e+00 -2.255669e-05 5.301425e-05 0.000000e+00 0.000000e+00 0.000000e+00 0.000000e+00 8.756374e-05 -1.593340e-05 0.000000e+00 -1.593340e-05 4.812878e-05 0.000000e+00 0.000000e+00 0.000000e+00 0.000000e+00 8.582920e-05 -2.060338e-05 0.000000e+00 -2.060338e-05 5.925515e-05 0.000000e+00 0.000000e+00 0.000000e+00 0.000000e+00 3.545911e-05 9.237432e-06 0.000000e+00 9.237432e-06 -9.972778e-06 0.000000e+00 0.000000e+00 0.000000e+00 0.000000e+00 9.542698e-05 -5.465313e-05 0.000000e+00 -5.465313e-05 1.784982e-04 0.000000e+00 0.000000e+00 0.000000e+00 0.000000e+00 2.688950e-05 8.184363e-06 0.000000e+00 8.184363e-06 -8.304818e-06 0.000000e+00 0.000000e+00 0.000000e+00 0.000000e+00 4.190933e-05 1.196044e-05 0.000000e+00 1.196044e-05 -9.952083e-06 0.000000e+00 0.000000e+00 0.000000e+00 0.000000e+00 4.102867e-05 1.006254e-05 0.000000e+00 1.006254e-05 -1.204301e-05 0.000000e+00 0.000000e+00 0.000000e+00 0.000000e+00 5.073585e-05 1.886570e-05 0.000000e+00 1.886570e-05 -8.323713e-06 0.000000e+00 0.000000e+00 0.000000e+00 0.000000e+00 4.844579e-05 1.360209e-05 0.000000e+00 1.360209e-05 -1.364355e-05 0.000000e+00 0.000000e+00 0.000000e+00 0.000000e+00 1.156810e-04 -5.873201e-05 0.000000e+00 -5.873201e-05 1.321520e-04 0.000000e+00 0.000000e+00 0.000000e+00 0.000000e+00 5.277651e-05 -3.198420e-05 0.000000e+00 -3.198420e-05 1.665629e-04 0.000000e+00 0.000000e+00 0.000000e+00 0.000000e+00 3.091284e-05 8.487514e-06 0.000000e+00 8.487514e-06 -9.113723e-06 0.000000e+00 0.000000e+00 0.000000e+00 0.000000e+00 2.927676e-05 8.135630e-06 0.000000e+00 8.135630e-06 -8.950894e-06 0.000000e+00 0.000000e+00 0.000000e+00 0.000000e+00 7.344889e-05 -6.243937e-06 0.000000e+00 -6.243937e-06 -4.385429e-05 0.000000e+00 0.000000e+00 0.000000e+00 0.000000e+00 1.048770e-05 1.152345e-05 0.000000e+00 1.152345e-05 -2.167581e-06 0.000000e+00 0.000000e+00 0.000000e+00 0.000000e+00 2.022998e-05 8.491016e-06 0.000000e+00 8.491016e-06 -6.673360e-06 0.000000e+00 0.000000e+00 0.000000e+00 0.000000e+00 1.530532e-05 1.212477e-05 0.000000e+00 1.212477e-05 -2.323002e-06 0.000000e+00 0.000000e+00 0.000000e+00 0.000000e+00 1.426961e-05 1.156213e-05 0.000000e+00 1.156213e-05 -2.416175e-06 0.000000e+00 0.000000e+00 0.000000e+00 0.000000e+00 -7.379508e-07 -6.625822e-07 0.000000e+00 -6.625822e-07 5.851123e-07 0.000000e+00 0.000000e+00 0.000000e+00 0.000000e+00 2.173370e-05 8.345497e-06 0.000000e+00 8.345497e-06 -6.946333e-06 0.000000e+00 0.000000e+00 0.000000e+00 0.000000e+00 4.810360e-06 1.005273e-05 0.000000e+00 1.005273e-05 6.364510e-08 0.000000e+00 0.000000e+00 0.000000e+00 0.000000e+00 -1.098222e-06 1.268881e-06 0.000000e+00 1.268881e-06 6.893214e-07 0.000000e+00 0.000000e+00 0.000000e+00 0.000000e+00 1.732674e-06 1.298581e-06 0.000000e+00 1.298581e-06 -1.979496e-06 0.000000e+00 0.000000e+00 0.000000e+00 0.000000e+00 -3.051390e-06 -1.404580e-06 0.000000e+00 -1.404580e-06 2.651781e-06 0.000000e+00 0.000000e+00 0.000000e+00 0.000000e+00 -1.549837e-06 -2.502137e-06 0.000000e+00 -2.502137e-06 7.641056e-07 0.000000e+00 0.000000e+00 0.000000e+00 0.000000e+00 -7.013123e-07 -1.442027e-06 0.000000e+00 -1.442027e-06 -2.092595e-07 0.000000e+00 0.000000e+00 0.000000e+00 0.000000e+00 2.292396e-05 -4.787471e-06 0.000000e+00 -4.787471e-06 -8.185767e-05 0.000000e+00 0.000000e+00 0.000000e+00 0.000000e+00 1.341181e-06 -1.355320e-06 0.000000e+00 -1.355320e-06 -1.673643e-06 0.000000e+00 0.000000e+00 0.000000e+00 0.000000e+00 2.212050e-06 -9.213833e-08 0.000000e+00 -9.213833e-08 -2.314693e-06 0.000000e+00 0.000000e+00 0.000000e+00 0.000000e+00 9.903601e-07 -1.087027e-06 0.000000e+00 -1.087027e-06 -1.750582e-06 0.000000e+00 0.000000e+00 0.000000e+00 0.000000e+00 1.167148e-06 8.335101e-07 0.000000e+00 8.335101e-07 -2.168939e-06 0.000000e+00 0.000000e+00 0.000000e+00 0.000000e+00 -1.325846e-05 1.180699e-05 0.000000e+00 1.180699e-05 1.797595e-06 0.000000e+00 0.000000e+00 0.000000e+00 0.000000e+00 -1.041758e-06 -1.128232e-08 0.000000e+00 -1.128232e-08 9.347382e-07 0.000000e+00 0.000000e+00 0.000000e+00 0.000000e+00 -2.364458e-07 5.822757e-07 0.000000e+00 5.822757e-07 -3.513159e-07 0.000000e+00 0.000000e+00 0.000000e+00 0.000000e+00 -1.941575e-07 7.747591e-08 0.000000e+00 7.747591e-08 -8.367911e-07 0.000000e+00 0.000000e+00 0.000000e+00 0.000000e+00 5.815992e-07 2.125623e-06 0.000000e+00 2.125623e-06 -9.269050e-07 0.000000e+00 0.000000e+00 0.000000e+00 0.000000e+00 -6.813454e-06 8.731057e-06 0.000000e+00 8.731057e-06 -4.806335e-07 0.000000e+00 0.000000e+00 0.000000e+00 0.000000e+00 -2.010153e-05 1.360166e-05 0.000000e+00 1.360166e-05 5.391515e-06 0.000000e+00 0.000000e+00 0.000000e+00 0.000000e+00 -2.147679e-07 -7.319227e-07 0.000000e+00 -7.319227e-07 2.571976e-07 0.000000e+00 0.000000e+00 0.000000e+00 0.000000e+00 4.855557e-08 -3.798473e-07 0.000000e+00 -3.798473e-07 -1.153299e-06 0.000000e+00 0.000000e+00 0.000000e+00 0.000000e+00 5.065243e-07 -2.809377e-07 0.000000e+00 -2.809377e-07 -1.501662e-06 0.000000e+00 0.000000e+00 0.000000e+00 0.000000e+00 -3.422028e-05 1.191126e-05 0.000000e+00 1.191126e-05 1.332449e-05 0.000000e+00 0.000000e+00 0.000000e+00 0.000000e+00 -3.557478e-05 -1.114074e-05 0.000000e+00 -1.114074e-05 1.841086e-05 0.000000e+00 0.000000e+00 0.000000e+00 0.000000e+00 -2.274431e-06 5.177515e-06 0.000000e+00 5.177515e-06 -2.101107e-06 0.000000e+00 0.000000e+00 0.000000e+00 0.000000e+00 -3.574706e-06 6.878034e-06 0.000000e+00 6.878034e-06 5.770995e-07 0.000000e+00 0.000000e+00 0.000000e+00 0.000000e+00 -2.750569e-05 1.408418e-05 0.000000e+00 1.408418e-05 9.598470e-06 0.000000e+00 0.000000e+00 0.000000e+00 0.000000e+00 -1.731503e-05 1.440472e-05 0.000000e+00 1.440472e-05 4.898511e-06 0.000000e+00 0.000000e+00 0.000000e+00 0.000000e+00 -2.211518e-05 1.359671e-05 0.000000e+00 1.359671e-05 6.788107e-06 0.000000e+00 0.000000e+00 0.000000e+00 0.000000e+00 -2.509339e-05 -1.955896e-05 0.000000e+00 -1.955896e-05 1.124392e-05 0.000000e+00 0.000000e+00 0.000000e+00 0.000000e+00 5.029849e-06 -2.137181e-05 0.000000e+00 -2.137181e-05 -2.318492e-05 0.000000e+00 0.000000e+00 0.000000e+00 0.000000e+00 -9.693523e-06 -1.956707e-05 0.000000e+00 -1.956707e-05 1.223823e-06 0.000000e+00 0.000000e+00 0.000000e+00 0.000000e+00 2.116360e-06 -9.790596e-06 0.000000e+00 -9.790596e-06 -1.390429e-05 0.000000e+00 0.000000e+00 0.000000e+00 0.000000e+00 2.333590e-05 -4.098083e-06 0.000000e+00 -4.098083e-06 -7.763824e-05 0.000000e+00 0.000000e+00 0.000000e+00 0.000000e+00 2.434757e-05 -2.288446e-06 0.000000e+00 -2.288446e-06 -7.954678e-05 0.000000e+00 0.000000e+00 0.000000e+00 0.000000e+00 2.374191e-05 -1.564377e-06 0.000000e+00 -1.564377e-06 -7.521503e-05 0.000000e+00 0.000000e+00 0.000000e+00 0.000000e+00 5.205966e-05 -8.426473e-06 0.000000e+00 -8.426473e-06 2.404859e-06 0.000000e+00 0.000000e+00 0.000000e+00 0.000000e+00 4.989183e-05 -6.258605e-06 0.000000e+00 -6.258605e-06 8.194270e-07 0.000000e+00 0.000000e+00 0.000000e+00 0.000000e+00 5.203408e-05 -6.841551e-06 0.000000e+00 -6.841551e-06 3.716070e-06 0.000000e+00 0.000000e+00 0.000000e+00 0.000000e+00 3.756895e-05 2.617848e-05 0.000000e+00 2.617848e-05 2.859797e-04 0.000000e+00 0.000000e+00 0.000000e+00 0.000000e+00 4.599136e-08 1.972551e-06 0.000000e+00 1.972551e-06 -2.621536e-06 0.000000e+00 0.000000e+00 0.000000e+00 0.000000e+00 -1.430233e-07 5.352243e-07 0.000000e+00 5.352243e-07 -1.279734e-07 0.000000e+00 0.000000e+00 0.000000e+00 0.000000e+00 -1.328879e-06 3.605826e-06 0.000000e+00 3.605826e-06 -1.203989e-07 0.000000e+00 0.000000e+00 0.000000e+00 0.000000e+00 1.019624e-05 -7.114758e-06 0.000000e+00 -7.114758e-06 -4.321479e-05 0.000000e+00 0.000000e+00 0.000000e+00 0.000000e+00 1.753474e-06 2.064464e-06 0.000000e+00 2.064464e-06 -2.296831e-06 0.000000e+00 0.000000e+00 0.000000e+00 0.000000e+00 2.693381e-05 -4.205603e-06 0.000000e+00 -4.205603e-06 -3.744224e-05 0.000000e+00 0.000000e+00 0.000000e+00 0.000000e+00 2.981400e-06 -1.446804e-06 0.000000e+00 -1.446804e-06 -1.520741e-06 0.000000e+00 0.000000e+00 0.000000e+00 0.000000e+00 1.445441e-06 -1.932777e-06 0.000000e+00 -1.932777e-06 3.188899e-07 0.000000e+00 0.000000e+00 0.000000e+00 0.000000e+00 -4.393834e-07 -3.042523e-07 0.000000e+00 -3.042523e-07 1.999036e-06 0.000000e+00 0.000000e+00 0.000000e+00 0.000000e+00 -8.825044e-07 2.199196e-06 0.000000e+00 2.199196e-06 2.237680e-06 0.000000e+00 0.000000e+00 0.000000e+00 0.000000e+00 1.320768e-06 1.132766e-05 0.000000e+00 1.132766e-05 1.768268e-06 0.000000e+00 0.000000e+00 0.000000e+00 0.000000e+00 4.432985e-06 1.567269e-05 0.000000e+00 1.567269e-05 6.453778e-07 0.000000e+00 0.000000e+00 0.000000e+00 0.000000e+00 8.153476e-06 1.975754e-05 0.000000e+00 1.975754e-05 -1.095971e-06 0.000000e+00 0.000000e+00 0.000000e+00 0.000000e+00 1.187012e-05 2.246666e-05 0.000000e+00 2.246666e-05 -3.612185e-06 0.000000e+00 0.000000e+00 0.000000e+00 0.000000e+00 4.791695e-06 2.230330e-05 0.000000e+00 2.230330e-05 -1.503400e-06 0.000000e+00 0.000000e+00 0.000000e+00 0.000000e+00 -4.330237e-06 2.410029e-05 0.000000e+00 2.410029e-05 1.235496e-06 0.000000e+00 0.000000e+00 0.000000e+00 0.000000e+00 -5.372660e-06 2.477113e-05 0.000000e+00 2.477113e-05 2.723461e-07 0.000000e+00 0.000000e+00 0.000000e+00 0.000000e+00 -3.734524e-06 2.379435e-05 0.000000e+00 2.379435e-05 -2.142177e-06 0.000000e+00 0.000000e+00 0.000000e+00 0.000000e+00 -1.188129e-06 2.064494e-05 0.000000e+00 2.064494e-05 -4.511160e-06 0.000000e+00 0.000000e+00 0.000000e+00 0.000000e+00 2.724271e-06 1.171758e-05 0.000000e+00 1.171758e-05 -7.594625e-06 0.000000e+00 0.000000e+00 0.000000e+00 0.000000e+00 3.112003e-06 6.836541e-06 0.000000e+00 6.836541e-06 -7.469067e-06 0.000000e+00 0.000000e+00 0.000000e+00 0.000000e+00 2.060493e-06 2.973274e-06 0.000000e+00 2.973274e-06 -5.994250e-06 0.000000e+00 0.000000e+00 0.000000e+00 0.000000e+00 -7.913239e-07 1.293218e-06 0.000000e+00 1.293218e-06 -2.098100e-06 0.000000e+00 0.000000e+00 0.000000e+00 0.000000e+00 -9.264818e-07 2.216988e-06 0.000000e+00 2.216988e-06 -1.160658e-06 0.000000e+00 0.000000e+00 0.000000e+00 0.000000e+00 1.278383e-04 5.932189e-05 0.000000e+00 5.932189e-05 -5.810258e-05 0.000000e+00 0.000000e+00 0.000000e+00 0.000000e+00 7.193072e-05 4.074644e-05 0.000000e+00 4.074644e-05 -2.603709e-06 0.000000e+00 0.000000e+00 0.000000e+00 0.000000e+00 5.732031e-05 2.445919e-05 0.000000e+00 2.445919e-05 -1.622727e-05 0.000000e+00 0.000000e+00 0.000000e+00 0.000000e+00 1.698507e-07 -1.974330e-06 0.000000e+00 -1.974330e-06 -7.784270e-07 0.000000e+00 0.000000e+00 0.000000e+00 0.000000e+00 1.268551e-05 -1.764082e-05 0.000000e+00 -1.764082e-05 -3.241224e-05 0.000000e+00 0.000000e+00 0.000000e+00 0.000000e+00 7.030721e-05 7.827568e-05 0.000000e+00 7.827568e-05 3.879814e-05 0.000000e+00 0.000000e+00 0.000000e+00 0.000000e+00 2.094227e-05 -9.261803e-06 0.000000e+00 -9.261803e-06 -9.171493e-05 0.000000e+00 0.000000e+00 0.000000e+00 0.000000e+00 1.055412e-05 1.184594e-05 0.000000e+00 1.184594e-05 -1.664005e-06 0.000000e+00 0.000000e+00 0.000000e+00 0.000000e+00 2.363331e-05 -1.505412e-06 0.000000e+00 -1.505412e-06 -7.118168e-05 0.000000e+00 0.000000e+00 0.000000e+00 0.000000e+00 2.336923e-05 -3.814246e-06 0.000000e+00 -3.814246e-06 -5.826345e-05 0.000000e+00 0.000000e+00 0.000000e+00 0.000000e+00 3.353458e-05 -4.017895e-06 0.000000e+00 -4.017895e-06 -2.125751e-05 0.000000e+00 0.000000e+00 0.000000e+00 0.000000e+00 3.501022e-05 -5.561274e-06 0.000000e+00 -5.561274e-06 -2.026672e-05 0.000000e+00 0.000000e+00 0.000000e+00 0.000000e+00 2.601154e-05 -4.123930e-06 0.000000e+00 -4.123930e-06 -3.980577e-05 0.000000e+00 0.000000e+00 0.000000e+00 0.000000e+00 4.759230e-07 -2.167233e-06 0.000000e+00 -2.167233e-06 -7.095764e-07 0.000000e+00 0.000000e+00 0.000000e+00 0.000000e+00 4.353208e-05 -5.181036e-06 0.000000e+00 -5.181036e-06 -7.330032e-06 0.000000e+00 0.000000e+00 0.000000e+00 0.000000e+00 4.541296e-05 -6.836577e-06 0.000000e+00 -6.836577e-06 -6.127677e-06 0.000000e+00 0.000000e+00 0.000000e+00 0.000000e+00 2.564748e-05 -2.378455e-06 0.000000e+00 -2.378455e-06 -4.138850e-05 0.000000e+00 0.000000e+00 0.000000e+00 0.000000e+00 6.497012e-05 -7.971300e-06 0.000000e+00 -7.971300e-06 1.620240e-05 0.000000e+00 0.000000e+00 0.000000e+00 0.000000e+00 6.632836e-05 -1.025495e-05 0.000000e+00 -1.025495e-05 1.847592e-05 0.000000e+00 0.000000e+00 0.000000e+00 0.000000e+00 2.678411e-05 5.861699e-05 0.000000e+00 5.861699e-05 1.884345e-04 0.000000e+00 0.000000e+00 0.000000e+00 0.000000e+00 3.442722e-05 8.672106e-06 0.000000e+00 8.672106e-06 -1.027440e-05 0.000000e+00 0.000000e+00 0.000000e+00 0.000000e+00 1.955756e-05 3.053311e-06 0.000000e+00 3.053311e-06 2.452786e-04 0.000000e+00 0.000000e+00 0.000000e+00 0.000000e+00 2.571249e-05 8.072096e-06 0.000000e+00 8.072096e-06 -8.128713e-06 0.000000e+00 0.000000e+00 0.000000e+00 0.000000e+00 2.341311e-05 8.293118e-06 0.000000e+00 8.293118e-06 -7.634089e-06 0.000000e+00 0.000000e+00 0.000000e+00 0.000000e+00 7.392204e-05 5.475911e-05 0.000000e+00 5.475911e-05 -1.232475e-05 0.000000e+00 0.000000e+00 0.000000e+00 0.000000e+00 8.641659e-05 -2.548488e-05 0.000000e+00 -2.548488e-05 7.199078e-05 0.000000e+00 0.000000e+00 0.000000e+00 0.000000e+00 1.110578e-04 -3.670064e-05 0.000000e+00 -3.670064e-05 7.705524e-05 0.000000e+00 0.000000e+00 0.000000e+00 0.000000e+00 2.312860e-05 8.155911e-06 0.000000e+00 8.155911e-06 -7.699329e-06 0.000000e+00 0.000000e+00 0.000000e+00 0.000000e+00 1.770325e-05 9.962520e-06 0.000000e+00 9.962520e-06 -1.922898e-06 0.000000e+00 0.000000e+00 0.000000e+00 0.000000e+00 -2.589927e-05 1.094912e-05 0.000000e+00 1.094912e-05 8.168769e-06 0.000000e+00 0.000000e+00 0.000000e+00 0.000000e+00 -3.891919e-05 6.990605e-06 0.000000e+00 6.990605e-06 1.714038e-05 0.000000e+00 0.000000e+00 0.000000e+00 0.000000e+00 2.195561e-05 8.925459e-06 0.000000e+00 8.925459e-06 -5.513287e-06 0.000000e+00 0.000000e+00 0.000000e+00 0.000000e+00 1.878325e-05 9.566047e-06 0.000000e+00 9.566047e-06 -4.957429e-06 0.000000e+00 0.000000e+00 0.000000e+00 0.000000e+00 4.526290e-06 1.014449e-05 0.000000e+00 1.014449e-05 4.907424e-07 0.000000e+00 0.000000e+00 0.000000e+00 0.000000e+00 -6.972137e-06 1.018520e-05 0.000000e+00 1.018520e-05 1.881646e-06 0.000000e+00 0.000000e+00 0.000000e+00 0.000000e+00 -3.422555e-06 1.389115e-06 0.000000e+00 1.389115e-06 4.098839e-06 0.000000e+00 0.000000e+00 0.000000e+00 0.000000e+00 -1.238299e-06 -4.875231e-08 0.000000e+00 -4.875231e-08 4.537296e-07 0.000000e+00 0.000000e+00 0.000000e+00 0.000000e+00 -3.882052e-07 -2.178164e-06 0.000000e+00 -2.178164e-06 6.398932e-08 0.000000e+00 0.000000e+00 0.000000e+00 0.000000e+00 1.378241e-05 -1.532537e-05 0.000000e+00 -1.532537e-05 -4.802471e-05 0.000000e+00 0.000000e+00 0.000000e+00 0.000000e+00 8.416616e-06 -2.142569e-05 0.000000e+00 -2.142569e-05 -3.406175e-05 0.000000e+00 0.000000e+00 0.000000e+00 0.000000e+00 -1.132059e-05 1.365189e-05 0.000000e+00 1.365189e-05 3.552675e-06 0.000000e+00 0.000000e+00 0.000000e+00 0.000000e+00 2.317571e-05 -3.629390e-06 0.000000e+00 -3.629390e-06 -6.182522e-05 0.000000e+00 0.000000e+00 0.000000e+00 0.000000e+00 -2.886042e-05 -1.275104e-05 0.000000e+00 -1.275104e-05 1.394275e-05 0.000000e+00 0.000000e+00 0.000000e+00 0.000000e+00 6.554464e-05 7.182392e-05 0.000000e+00 7.182392e-05 4.222650e-05 0.000000e+00 0.000000e+00 0.000000e+00 0.000000e+00 2.324259e-05 -1.607287e-06 0.000000e+00 -1.607287e-06 -6.360238e-05 0.000000e+00 0.000000e+00 0.000000e+00 0.000000e+00 5.544841e-06 -2.244330e-05 0.000000e+00 -2.244330e-05 -2.121725e-05 0.000000e+00 0.000000e+00 0.000000e+00 0.000000e+00 2.272272e-05 -1.721260e-06 0.000000e+00 -1.721260e-06 -5.990751e-05 0.000000e+00 0.000000e+00 0.000000e+00 0.000000e+00 -1.601818e-05 -2.049611e-05 0.000000e+00 -2.049611e-05 2.814468e-06 0.000000e+00 0.000000e+00 0.000000e+00 0.000000e+00 -1.685034e-06 -1.733819e-05 0.000000e+00 -1.733819e-05 -5.118737e-06 0.000000e+00 0.000000e+00 0.000000e+00 0.000000e+00 1.756007e-05 -1.077457e-05 0.000000e+00 -1.077457e-05 -4.946087e-05 0.000000e+00 0.000000e+00 0.000000e+00 0.000000e+00 7.714479e-07 3.010063e-06 0.000000e+00 3.010063e-06 -1.726317e-06 0.000000e+00 0.000000e+00 0.000000e+00 0.000000e+00 2.699639e-05 -2.735047e-06 0.000000e+00 -2.735047e-06 -3.599909e-05 0.000000e+00 0.000000e+00 0.000000e+00 0.000000e+00 2.775147e-05 -4.366514e-06 0.000000e+00 -4.366514e-06 -3.459295e-05 0.000000e+00 0.000000e+00 0.000000e+00 0.000000e+00 -8.374372e-07 1.895238e-06 0.000000e+00 1.895238e-06 -7.117591e-07 0.000000e+00 0.000000e+00 0.000000e+00 0.000000e+00 -3.208396e-07 2.970618e-06 0.000000e+00 2.970618e-06 -1.131307e-06 0.000000e+00 0.000000e+00 0.000000e+00 0.000000e+00 -1.354450e-06 7.864172e-07 0.000000e+00 7.864172e-07 -1.455003e-06 0.000000e+00 0.000000e+00 0.000000e+00 0.000000e+00 7.570240e-07 9.817358e-07 0.000000e+00 9.817358e-07 -6.538186e-06 0.000000e+00 0.000000e+00 0.000000e+00 0.000000e+00 2.413274e-07 1.020662e-06 0.000000e+00 1.020662e-06 -3.849922e-06 0.000000e+00 0.000000e+00 0.000000e+00 0.000000e+00 1.746988e-06 4.372883e-06 0.000000e+00 4.372883e-06 -9.184921e-06 0.000000e+00 0.000000e+00 0.000000e+00 0.000000e+00 1.468569e-06 9.020086e-06 0.000000e+00 9.020086e-06 -1.011930e-05 0.000000e+00 0.000000e+00 0.000000e+00 0.000000e+00 -3.117180e-06 1.837926e-05 0.000000e+00 1.837926e-05 -7.144872e-06 0.000000e+00 0.000000e+00 0.000000e+00 0.000000e+00 1.020499e-06 1.624668e-05 0.000000e+00 1.624668e-05 -6.206115e-06 0.000000e+00 0.000000e+00 0.000000e+00 0.000000e+00 -5.100049e-06 2.174184e-05 0.000000e+00 2.174184e-05 -4.666719e-06 0.000000e+00 0.000000e+00 0.000000e+00 0.000000e+00 -5.134607e-06 2.066546e-05 0.000000e+00 2.066546e-05 -7.918366e-07 0.000000e+00 0.000000e+00 0.000000e+00 0.000000e+00 -5.580326e-06 2.394937e-05 0.000000e+00 2.394937e-05 -2.071088e-06 0.000000e+00 0.000000e+00 0.000000e+00 0.000000e+00 -4.481188e-06 2.502421e-05 0.000000e+00 2.502421e-05 3.239285e-07 0.000000e+00 0.000000e+00 0.000000e+00 0.000000e+00 2.171796e-06 2.441280e-05 0.000000e+00 2.441280e-05 1.531972e-07 0.000000e+00 0.000000e+00 0.000000e+00 0.000000e+00 -4.362467e-07 2.291958e-05 0.000000e+00 2.291958e-05 3.158648e-07 0.000000e+00 0.000000e+00 0.000000e+00 0.000000e+00 9.394094e-06 2.264226e-05 0.000000e+00 2.264226e-05 -2.615351e-06 0.000000e+00 0.000000e+00 0.000000e+00 0.000000e+00 9.258507e-06 2.235937e-05 0.000000e+00 2.235937e-05 -3.042721e-06 0.000000e+00 0.000000e+00 0.000000e+00 0.000000e+00 1.187776e-05 1.985555e-05 0.000000e+00 1.985555e-05 -1.137298e-06 0.000000e+00 0.000000e+00 0.000000e+00 0.000000e+00 1.117849e-05 2.170576e-05 0.000000e+00 2.170576e-05 -2.836917e-06 0.000000e+00 0.000000e+00 0.000000e+00 0.000000e+00 9.501977e-06 1.769112e-05 0.000000e+00 1.769112e-05 1.064721e-06 0.000000e+00 0.000000e+00 0.000000e+00 0.000000e+00 4.821505e-06 1.410296e-05 0.000000e+00 1.410296e-05 3.531225e-06 0.000000e+00 0.000000e+00 0.000000e+00 0.000000e+00 -1.078477e-06 4.604894e-06 0.000000e+00 4.604894e-06 5.799855e-06 0.000000e+00 0.000000e+00 0.000000e+00 0.000000e+00 -8.583775e-07 2.648308e-06 0.000000e+00 2.648308e-06 2.713740e-07 0.000000e+00 0.000000e+00 0.000000e+00 0.000000e+00 -7.636952e-07 6.373249e-06 0.000000e+00 6.373249e-06 2.995935e-06 0.000000e+00 0.000000e+00 0.000000e+00 0.000000e+00 -1.404786e-06 -1.360562e-07 0.000000e+00 -1.360562e-07 4.563794e-06 0.000000e+00 0.000000e+00 0.000000e+00 0.000000e+00 1.897820e-06 -2.761797e-06 0.000000e+00 -2.761797e-06 2.500202e-07 0.000000e+00 0.000000e+00 0.000000e+00 0.000000e+00 -7.859067e-06 -2.013102e-05 0.000000e+00 -2.013102e-05 -6.183657e-06 0.000000e+00 0.000000e+00 0.000000e+00 0.000000e+00 2.884580e-06 6.394069e-07 0.000000e+00 6.394069e-07 -2.167236e-06 0.000000e+00 0.000000e+00 0.000000e+00 0.000000e+00 2.641477e-05 -2.837721e-06 0.000000e+00 -2.837721e-06 -3.863763e-05 0.000000e+00 0.000000e+00 0.000000e+00 0.000000e+00 1.570825e-06 9.534411e-06 0.000000e+00 9.534411e-06 5.211381e-06 0.000000e+00 0.000000e+00 0.000000e+00 0.000000e+00 1.150911e-05 2.126255e-05 0.000000e+00 2.126255e-05 -2.520049e-06 0.000000e+00 0.000000e+00 0.000000e+00 0.000000e+00 6.132357e-06 2.353873e-05 0.000000e+00 2.353873e-05 -1.488996e-06 0.000000e+00 0.000000e+00 0.000000e+00 0.000000e+00 -1.721986e-06 2.500695e-05 0.000000e+00 2.500695e-05 1.051148e-06 0.000000e+00 0.000000e+00 0.000000e+00 0.000000e+00 -5.814286e-07 1.392177e-05 0.000000e+00 1.392177e-05 -9.039442e-06 0.000000e+00 0.000000e+00 0.000000e+00 0.000000e+00 -7.132595e-07 -1.043226e-07 0.000000e+00 -1.043226e-07 -3.122606e-06 0.000000e+00 0.000000e+00 0.000000e+00 0.000000e+00 2.801875e-06 4.216374e-07 0.000000e+00 4.216374e-07 -2.439189e-06 0.000000e+00 0.000000e+00 0.000000e+00 0.000000e+00 2.208781e-05 -6.125353e-06 0.000000e+00 -6.125353e-06 -8.634511e-05 0.000000e+00 0.000000e+00 0.000000e+00 0.000000e+00 2.741159e-05 -4.865278e-06 0.000000e+00 -4.865278e-06 -8.935035e-05 0.000000e+00 0.000000e+00 0.000000e+00 0.000000e+00 2.516912e-05 -3.149544e-06 0.000000e+00 -3.149544e-06 -8.408144e-05 0.000000e+00 0.000000e+00 0.000000e+00 0.000000e+00 2.327374e-05 -3.927647e-06 0.000000e+00 -3.927647e-06 -5.468033e-05 0.000000e+00 0.000000e+00 0.000000e+00 0.000000e+00 2.325952e-05 -1.874731e-06 0.000000e+00 -1.874731e-06 -5.650620e-05 0.000000e+00 0.000000e+00 0.000000e+00 0.000000e+00 2.380638e-05 -2.043032e-06 0.000000e+00 -2.043032e-06 -5.322068e-05 0.000000e+00 0.000000e+00 0.000000e+00 0.000000e+00 2.877174e-05 -4.634783e-06 0.000000e+00 -4.634783e-06 -3.215214e-05 0.000000e+00 0.000000e+00 0.000000e+00 0.000000e+00 2.786523e-05 -3.166012e-06 0.000000e+00 -3.166012e-06 -3.331312e-05 0.000000e+00 0.000000e+00 0.000000e+00 0.000000e+00 2.823852e-05 -3.368881e-06 0.000000e+00 -3.368881e-06 -3.072788e-05 0.000000e+00 0.000000e+00 0.000000e+00 0.000000e+00 3.655576e-05 -5.893567e-06 0.000000e+00 -5.893567e-06 -1.809749e-05 0.000000e+00 0.000000e+00 0.000000e+00 0.000000e+00 3.486496e-05 -4.367096e-06 0.000000e+00 -4.367096e-06 -1.902793e-05 0.000000e+00 0.000000e+00 0.000000e+00 0.000000e+00 3.655045e-05 -4.559178e-06 0.000000e+00 -4.559178e-06 -1.685995e-05 0.000000e+00 0.000000e+00 0.000000e+00 0.000000e+00 4.766797e-05 -7.329512e-06 0.000000e+00 -7.329512e-06 -3.633037e-06 0.000000e+00 0.000000e+00 0.000000e+00 0.000000e+00 4.490987e-05 -5.479478e-06 0.000000e+00 -5.479478e-06 -4.680564e-06 0.000000e+00 0.000000e+00 0.000000e+00 0.000000e+00 4.725087e-05 -5.781901e-06 0.000000e+00 -5.781901e-06 -1.922395e-06 0.000000e+00 0.000000e+00 0.000000e+00 0.000000e+00 7.110277e-05 -1.182172e-05 0.000000e+00 -1.182172e-05 2.200684e-05 0.000000e+00 0.000000e+00 0.000000e+00 0.000000e+00 6.402587e-05 -8.991815e-06 0.000000e+00 -8.991815e-06 2.088219e-05 0.000000e+00 0.000000e+00 0.000000e+00 0.000000e+00 6.705154e-05 -1.035483e-05 0.000000e+00 -1.035483e-05 2.541166e-05 0.000000e+00 0.000000e+00 0.000000e+00 0.000000e+00 1.170893e-04 -4.767209e-05 0.000000e+00 -4.767209e-05 9.896719e-05 0.000000e+00 0.000000e+00 0.000000e+00 0.000000e+00 8.424135e-05 -3.147532e-05 0.000000e+00 -3.147532e-05 9.112496e-05 0.000000e+00 0.000000e+00 0.000000e+00 0.000000e+00 7.355921e-05 -3.645509e-05 0.000000e+00 -3.645509e-05 1.205532e-04 0.000000e+00 0.000000e+00 0.000000e+00 0.000000e+00 -2.732237e-07 6.187429e-06 0.000000e+00 6.187429e-06 3.227252e-06 0.000000e+00 0.000000e+00 0.000000e+00 0.000000e+00 -4.642875e-07 1.877870e-06 0.000000e+00 1.877870e-06 1.454123e-07 0.000000e+00 0.000000e+00 0.000000e+00 0.000000e+00 -3.918352e-05 -2.187180e-06 0.000000e+00 -2.187180e-06 1.902746e-05 0.000000e+00 0.000000e+00 0.000000e+00 0.000000e+00 1.451617e-05 -1.229498e-05 0.000000e+00 -1.229498e-05 -4.652866e-05 0.000000e+00 0.000000e+00 0.000000e+00 0.000000e+00 9.643373e-06 -1.498905e-06 0.000000e+00 -1.498905e-06 -5.852533e-05 0.000000e+00 0.000000e+00 0.000000e+00 0.000000e+00 1.382978e-05 -1.635558e-05 0.000000e+00 -1.635558e-05 -4.937378e-05 0.000000e+00 0.000000e+00 0.000000e+00 0.000000e+00 3.157359e-05 4.688027e-05 0.000000e+00 4.688027e-05 1.588059e-04 0.000000e+00 0.000000e+00 0.000000e+00 0.000000e+00 -2.891581e-05 6.573982e-06 0.000000e+00 6.573982e-06 1.009287e-05 0.000000e+00 0.000000e+00 0.000000e+00 0.000000e+00 1.963450e-07 2.612390e-06 0.000000e+00 2.612390e-06 -9.754803e-07 0.000000e+00 0.000000e+00 0.000000e+00 0.000000e+00 3.426540e-07 -2.046068e-05 0.000000e+00 -2.046068e-05 -1.416225e-05 0.000000e+00 0.000000e+00 0.000000e+00 0.000000e+00 1.769426e-05 -1.694127e-05 0.000000e+00 -1.694127e-05 -5.123794e-05 0.000000e+00 0.000000e+00 0.000000e+00 0.000000e+00 2.629169e-06 -1.557070e-06 0.000000e+00 -1.557070e-06 -1.552320e-06 0.000000e+00 0.000000e+00 0.000000e+00 0.000000e+00 1.253608e-05 -2.251732e-05 0.000000e+00 -2.251732e-05 -3.698456e-05 0.000000e+00 0.000000e+00 0.000000e+00 0.000000e+00 1.359457e-05 -2.087169e-05 0.000000e+00 -2.087169e-05 -4.180554e-05 0.000000e+00 0.000000e+00 0.000000e+00 0.000000e+00 1.946100e-05 -1.901160e-05 0.000000e+00 -1.901160e-05 -5.349676e-05 0.000000e+00 0.000000e+00 0.000000e+00 0.000000e+00 1.372349e-05 -1.204268e-05 0.000000e+00 -1.204268e-05 -5.391572e-05 0.000000e+00 0.000000e+00 0.000000e+00 0.000000e+00 7.977969e-06 1.589008e-05 0.000000e+00 1.589008e-05 -1.003132e-06 0.000000e+00 0.000000e+00 0.000000e+00 0.000000e+00 2.374714e-05 -5.397925e-06 0.000000e+00 -5.397925e-06 -7.178858e-05 0.000000e+00 0.000000e+00 0.000000e+00 0.000000e+00 3.016442e-05 -8.409221e-06 0.000000e+00 -8.409221e-06 -2.846579e-05 0.000000e+00 0.000000e+00 0.000000e+00 0.000000e+00 7.685506e-07 -2.458320e-06 0.000000e+00 -2.458320e-06 -5.910672e-07 0.000000e+00 0.000000e+00 0.000000e+00 0.000000e+00 7.179297e-05 -2.320799e-05 0.000000e+00 -2.320799e-05 3.207164e-05 0.000000e+00 0.000000e+00 0.000000e+00 0.000000e+00 3.819695e-05 -1.043332e-05 0.000000e+00 -1.043332e-05 -1.415844e-05 0.000000e+00 0.000000e+00 0.000000e+00 0.000000e+00 -2.896441e-05 6.189658e-06 0.000000e+00 6.189658e-06 1.997397e-05 0.000000e+00 0.000000e+00 0.000000e+00 0.000000e+00 5.774791e-05 -1.648785e-05 0.000000e+00 -1.648785e-05 1.634510e-05 0.000000e+00 0.000000e+00 0.000000e+00 0.000000e+00 3.398401e-05 1.573578e-05 0.000000e+00 1.573578e-05 -7.969371e-06 0.000000e+00 0.000000e+00 0.000000e+00 0.000000e+00 2.530232e-05 -6.931967e-06 0.000000e+00 -6.931967e-06 -4.084276e-05 0.000000e+00 0.000000e+00 0.000000e+00 0.000000e+00 3.933917e-05 1.966795e-05 0.000000e+00 1.966795e-05 -6.801455e-06 0.000000e+00 0.000000e+00 0.000000e+00 0.000000e+00 3.361858e-05 1.646308e-05 0.000000e+00 1.646308e-05 -8.596205e-06 0.000000e+00 0.000000e+00 0.000000e+00 0.000000e+00 1.486255e-05 1.246642e-05 0.000000e+00 1.246642e-05 -2.985453e-06 0.000000e+00 0.000000e+00 0.000000e+00 0.000000e+00 2.650521e-05 1.203160e-05 0.000000e+00 1.203160e-05 -7.916143e-06 0.000000e+00 0.000000e+00 0.000000e+00 0.000000e+00 1.682605e-05 2.130348e-05 0.000000e+00 2.130348e-05 1.589558e-04 0.000000e+00 0.000000e+00 0.000000e+00 0.000000e+00 2.395898e-05 1.074200e-05 0.000000e+00 1.074200e-05 -7.219807e-06 0.000000e+00 0.000000e+00 0.000000e+00 0.000000e+00 2.333207e-05 1.144686e-05 0.000000e+00 1.144686e-05 -7.925912e-06 0.000000e+00 0.000000e+00 0.000000e+00 0.000000e+00 2.093540e-05 1.035085e-05 0.000000e+00 1.035085e-05 -7.174136e-06 0.000000e+00 0.000000e+00 0.000000e+00 0.000000e+00 4.689179e-05 2.731109e-05 0.000000e+00 2.731109e-05 -3.022359e-06 0.000000e+00 0.000000e+00 0.000000e+00 0.000000e+00 3.837714e-05 2.083583e-05 0.000000e+00 2.083583e-05 -7.669477e-06 0.000000e+00 0.000000e+00 0.000000e+00 0.000000e+00 5.350498e-05 -3.341144e-05 0.000000e+00 -3.341144e-05 1.510176e-04 0.000000e+00 0.000000e+00 0.000000e+00 0.000000e+00 1.253287e-05 -1.659851e-06 0.000000e+00 -1.659851e-06 1.883006e-04 0.000000e+00 0.000000e+00 0.000000e+00 0.000000e+00 2.973997e-05 1.352750e-05 0.000000e+00 1.352750e-05 -7.976030e-06 0.000000e+00 0.000000e+00 0.000000e+00 0.000000e+00 2.594059e-05 1.242113e-05 0.000000e+00 1.242113e-05 -8.184130e-06 0.000000e+00 0.000000e+00 0.000000e+00 0.000000e+00 1.052153e-04 8.806209e-05 0.000000e+00 8.806209e-05 5.393644e-05 0.000000e+00 0.000000e+00 0.000000e+00 0.000000e+00 3.892279e-05 8.400975e-05 0.000000e+00 8.400975e-05 9.332379e-05 0.000000e+00 0.000000e+00 0.000000e+00 0.000000e+00 -2.884303e-05 -1.209219e-05 0.000000e+00 -1.209219e-05 2.440280e-05 0.000000e+00 0.000000e+00 0.000000e+00 0.000000e+00 -8.126196e-06 1.398778e-05 0.000000e+00 1.398778e-05 -1.464833e-06 0.000000e+00 0.000000e+00 0.000000e+00 0.000000e+00 -2.655677e-05 1.325085e-05 0.000000e+00 1.325085e-05 1.486859e-05 0.000000e+00 0.000000e+00 0.000000e+00 0.000000e+00 9.908646e-06 -2.808142e-05 0.000000e+00 -2.808142e-05 -2.460405e-05 0.000000e+00 0.000000e+00 0.000000e+00 0.000000e+00 1.279853e-05 5.272500e-05 0.000000e+00 5.272500e-05 1.776323e-04 0.000000e+00 0.000000e+00 0.000000e+00 0.000000e+00 2.364515e-05 -5.762186e-06 0.000000e+00 -5.762186e-06 -6.001880e-05 0.000000e+00 0.000000e+00 0.000000e+00 0.000000e+00 -1.294741e-05 1.694254e-05 0.000000e+00 1.694254e-05 1.252231e-06 0.000000e+00 0.000000e+00 0.000000e+00 0.000000e+00 2.383231e-06 -1.328737e-06 0.000000e+00 -1.328737e-06 -1.762725e-06 0.000000e+00 0.000000e+00 0.000000e+00 0.000000e+00 2.316685e-05 -6.160567e-06 0.000000e+00 -6.160567e-06 -4.978290e-05 0.000000e+00 0.000000e+00 0.000000e+00 0.000000e+00 -1.536425e-05 -2.686130e-05 0.000000e+00 -2.686130e-05 7.241137e-06 0.000000e+00 0.000000e+00 0.000000e+00 0.000000e+00 -3.537248e-07 2.970558e-08 0.000000e+00 2.970558e-08 -7.419783e-07 0.000000e+00 0.000000e+00 0.000000e+00 0.000000e+00 -2.323809e-05 -1.751938e-05 0.000000e+00 -1.751938e-05 7.819772e-06 0.000000e+00 0.000000e+00 0.000000e+00 0.000000e+00 1.295253e-05 1.632751e-05 0.000000e+00 1.632751e-05 -1.084533e-06 0.000000e+00 0.000000e+00 0.000000e+00 0.000000e+00 1.181836e-05 1.523852e-05 0.000000e+00 1.523852e-05 -2.008126e-06 0.000000e+00 0.000000e+00 0.000000e+00 0.000000e+00 1.109599e-05 1.883542e-05 0.000000e+00 1.883542e-05 -2.456038e-06 0.000000e+00 0.000000e+00 0.000000e+00 0.000000e+00 1.711698e-06 2.239553e-06 0.000000e+00 2.239553e-06 -1.763287e-06 0.000000e+00 0.000000e+00 0.000000e+00 0.000000e+00 5.558554e-05 4.404666e-05 0.000000e+00 4.404666e-05 7.570850e-06 0.000000e+00 0.000000e+00 0.000000e+00 0.000000e+00 4.080839e-05 2.912080e-05 0.000000e+00 2.912080e-05 -3.376460e-06 0.000000e+00 0.000000e+00 0.000000e+00 0.000000e+00 8.686738e-06 -3.504066e-05 0.000000e+00 -3.504066e-05 3.771545e-05 0.000000e+00 0.000000e+00 0.000000e+00 0.000000e+00 -3.922809e-07 1.223938e-05 0.000000e+00 1.223938e-05 -3.898857e-06 0.000000e+00 0.000000e+00 0.000000e+00 0.000000e+00 -3.971638e-06 2.344385e-05 0.000000e+00 2.344385e-05 2.178092e-06 0.000000e+00 0.000000e+00 0.000000e+00 0.000000e+00 7.972711e-06 2.230175e-05 0.000000e+00 2.230175e-05 -1.782470e-06 0.000000e+00 0.000000e+00 0.000000e+00 0.000000e+00 6.657978e-07 -2.969572e-06 0.000000e+00 -2.969572e-06 1.819157e-06 0.000000e+00 0.000000e+00 0.000000e+00 0.000000e+00 4.956824e-06 -2.897907e-05 0.000000e+00 -2.897907e-05 -1.933938e-05 0.000000e+00 0.000000e+00 0.000000e+00 0.000000e+00 1.151264e-05 -2.415658e-05 0.000000e+00 -2.415658e-05 -3.771039e-05 0.000000e+00 0.000000e+00 0.000000e+00 0.000000e+00 -4.392276e-06 -2.515297e-05 0.000000e+00 -2.515297e-05 -3.291168e-06 0.000000e+00 0.000000e+00 0.000000e+00 0.000000e+00 -8.996155e-06 -2.844141e-05 0.000000e+00 -2.844141e-05 -8.565468e-07 0.000000e+00 0.000000e+00 0.000000e+00 0.000000e+00 -1.866963e-06 -2.693534e-05 0.000000e+00 -2.693534e-05 -1.035857e-05 0.000000e+00 0.000000e+00 0.000000e+00 0.000000e+00 1.384535e-05 2.070131e-05 0.000000e+00 2.070131e-05 -3.740410e-06 0.000000e+00 0.000000e+00 0.000000e+00 0.000000e+00 1.264980e-05 2.224855e-05 0.000000e+00 2.224855e-05 -3.461810e-06 0.000000e+00 0.000000e+00 0.000000e+00 0.000000e+00 1.658342e-06 2.282976e-05 0.000000e+00 2.282976e-05 3.752546e-07 0.000000e+00 0.000000e+00 0.000000e+00 0.000000e+00 4.155256e-06 2.452739e-05 0.000000e+00 2.452739e-05 3.616093e-07 0.000000e+00 0.000000e+00 0.000000e+00 0.000000e+00 -6.298885e-07 2.503419e-05 0.000000e+00 2.503419e-05 2.092117e-06 0.000000e+00 0.000000e+00 0.000000e+00 0.000000e+00 -7.531247e-06 2.407607e-05 0.000000e+00 2.407607e-05 2.737441e-06 0.000000e+00 0.000000e+00 0.000000e+00 0.000000e+00 -7.510001e-06 2.333548e-05 0.000000e+00 2.333548e-05 1.378171e-06 0.000000e+00 0.000000e+00 0.000000e+00 0.000000e+00 -7.505031e-06 2.332277e-05 0.000000e+00 2.332277e-05 1.370373e-06 0.000000e+00 0.000000e+00 0.000000e+00 0.000000e+00 -8.794801e-06 2.071829e-05 0.000000e+00 2.071829e-05 -7.924988e-07 0.000000e+00 0.000000e+00 0.000000e+00 0.000000e+00 -2.479737e-06 1.659670e-05 0.000000e+00 1.659670e-05 -2.349502e-06 0.000000e+00 0.000000e+00 0.000000e+00 0.000000e+00 1.063839e-06 7.984284e-06 0.000000e+00 7.984284e-06 -5.118278e-06 0.000000e+00 0.000000e+00 0.000000e+00 0.000000e+00 1.379841e-06 4.135528e-06 0.000000e+00 4.135528e-06 -4.481942e-06 0.000000e+00 0.000000e+00 0.000000e+00 0.000000e+00 8.818705e-06 -3.436047e-05 0.000000e+00 -3.436047e-05 2.758719e-05 0.000000e+00 0.000000e+00 0.000000e+00 0.000000e+00 1.513648e-05 -1.729184e-05 0.000000e+00 -1.729184e-05 -4.943106e-05 0.000000e+00 0.000000e+00 0.000000e+00 0.000000e+00 -5.060177e-07 2.224177e-06 0.000000e+00 2.224177e-06 -5.048917e-07 0.000000e+00 0.000000e+00 0.000000e+00 0.000000e+00 1.652948e-05 -2.451649e-05 0.000000e+00 -2.451649e-05 -4.240079e-05 0.000000e+00 0.000000e+00 0.000000e+00 0.000000e+00 -2.380629e-05 -2.150084e-05 0.000000e+00 -2.150084e-05 1.794473e-05 0.000000e+00 0.000000e+00 0.000000e+00 0.000000e+00 -2.191403e-05 -1.843121e-05 0.000000e+00 -1.843121e-05 1.409286e-05 0.000000e+00 0.000000e+00 0.000000e+00 0.000000e+00 -1.541423e-05 -2.717323e-05 0.000000e+00 -2.717323e-05 7.633746e-06 0.000000e+00 0.000000e+00 0.000000e+00 0.000000e+00 2.400936e-05 -2.897210e-06 0.000000e+00 -2.897210e-06 -6.978539e-05 0.000000e+00 0.000000e+00 0.000000e+00 0.000000e+00 2.308688e-05 -5.288355e-06 0.000000e+00 -5.288355e-06 -6.748082e-05 0.000000e+00 0.000000e+00 0.000000e+00 0.000000e+00 4.770207e-05 -1.288177e-05 0.000000e+00 -1.288177e-05 -1.407288e-06 0.000000e+00 0.000000e+00 0.000000e+00 0.000000e+00 2.962270e-05 -7.837704e-06 0.000000e+00 -7.837704e-06 -3.104346e-05 0.000000e+00 0.000000e+00 0.000000e+00 0.000000e+00 2.821272e-05 -6.582552e-06 0.000000e+00 -6.582552e-06 -2.951069e-05 0.000000e+00 0.000000e+00 0.000000e+00 0.000000e+00 2.545344e-05 -6.476203e-06 0.000000e+00 -6.476203e-06 -4.403265e-05 0.000000e+00 0.000000e+00 0.000000e+00 0.000000e+00 2.404528e-05 -5.012716e-06 0.000000e+00 -5.012716e-06 -4.220637e-05 0.000000e+00 0.000000e+00 0.000000e+00 0.000000e+00 3.401459e-05 -8.707495e-06 0.000000e+00 -8.707495e-06 -2.115971e-05 0.000000e+00 0.000000e+00 0.000000e+00 0.000000e+00 5.675614e-05 -1.637458e-05 0.000000e+00 -1.637458e-05 1.194842e-05 0.000000e+00 0.000000e+00 0.000000e+00 0.000000e+00 5.606418e-05 -1.375107e-05 0.000000e+00 -1.375107e-05 1.333850e-05 0.000000e+00 0.000000e+00 0.000000e+00 0.000000e+00 6.941781e-05 -1.983727e-05 0.000000e+00 -1.983727e-05 2.541693e-05 0.000000e+00 0.000000e+00 0.000000e+00 0.000000e+00 6.212535e-05 -1.882020e-05 0.000000e+00 -1.882020e-05 3.032327e-05 0.000000e+00 0.000000e+00 0.000000e+00 0.000000e+00 -1.958581e-05 1.341555e-05 0.000000e+00 1.341555e-05 1.030737e-05 0.000000e+00 0.000000e+00 0.000000e+00 0.000000e+00 7.650862e-05 -4.802302e-05 0.000000e+00 -4.802302e-05 1.225468e-04 0.000000e+00 0.000000e+00 0.000000e+00 0.000000e+00 3.348296e-05 -2.890888e-05 0.000000e+00 -2.890888e-05 1.506387e-04 0.000000e+00 0.000000e+00 0.000000e+00 0.000000e+00 1.949675e-05 1.083242e-05 0.000000e+00 1.083242e-05 -3.163353e-06 0.000000e+00 0.000000e+00 0.000000e+00 0.000000e+00 7.715330e-05 -2.971112e-05 0.000000e+00 -2.971112e-05 4.812107e-05 0.000000e+00 0.000000e+00 0.000000e+00 0.000000e+00 4.112550e-05 -1.054900e-05 0.000000e+00 -1.054900e-05 -9.372181e-06 0.000000e+00 0.000000e+00 0.000000e+00 0.000000e+00 5.457139e-05 -1.512101e-05 0.000000e+00 -1.512101e-05 8.323977e-06 0.000000e+00 0.000000e+00 0.000000e+00 0.000000e+00 5.210742e-05 -1.332901e-05 0.000000e+00 -1.332901e-05 9.996548e-06 0.000000e+00 0.000000e+00 0.000000e+00 0.000000e+00 1.613047e-05 1.388409e-05 0.000000e+00 1.388409e-05 -1.915636e-06 0.000000e+00 0.000000e+00 0.000000e+00 0.000000e+00 3.216625e-05 -8.371961e-06 0.000000e+00 -8.371961e-06 -2.358335e-05 0.000000e+00 0.000000e+00 0.000000e+00 0.000000e+00 3.189233e-05 -7.024382e-06 0.000000e+00 -7.024382e-06 -2.202868e-05 0.000000e+00 0.000000e+00 0.000000e+00 0.000000e+00 9.037167e-05 -3.075031e-05 0.000000e+00 -3.075031e-05 5.742366e-05 0.000000e+00 0.000000e+00 0.000000e+00 0.000000e+00 2.957240e-05 1.402188e-05 0.000000e+00 1.402188e-05 -8.497801e-06 0.000000e+00 0.000000e+00 0.000000e+00 0.000000e+00 -3.079270e-05 4.807125e-07 0.000000e+00 4.807125e-07 1.413552e-05 0.000000e+00 0.000000e+00 0.000000e+00 0.000000e+00 2.365519e-07 6.382091e-06 0.000000e+00 6.382091e-06 1.604664e-06 0.000000e+00 0.000000e+00 0.000000e+00 0.000000e+00 2.379666e-05 -3.013388e-06 0.000000e+00 -3.013388e-06 -6.581058e-05 0.000000e+00 0.000000e+00 0.000000e+00 0.000000e+00 2.315842e-05 -5.331308e-06 0.000000e+00 -5.331308e-06 -6.361147e-05 0.000000e+00 0.000000e+00 0.000000e+00 0.000000e+00 4.361416e-05 6.197936e-05 0.000000e+00 6.197936e-05 4.383917e-05 0.000000e+00 0.000000e+00 0.000000e+00 0.000000e+00 6.489811e-05 -2.114735e-05 0.000000e+00 -2.114735e-05 3.686577e-05 0.000000e+00 0.000000e+00 0.000000e+00 0.000000e+00 7.424013e-05 -2.661337e-05 0.000000e+00 -2.661337e-05 3.983753e-05 0.000000e+00 0.000000e+00 0.000000e+00 0.000000e+00 -1.633432e-05 1.802879e-05 0.000000e+00 1.802879e-05 7.353465e-06 0.000000e+00 0.000000e+00 0.000000e+00 0.000000e+00 3.943691e-06 -2.690887e-05 0.000000e+00 -2.690887e-05 -2.229146e-05 0.000000e+00 0.000000e+00 0.000000e+00 0.000000e+00 -7.485805e-07 9.415567e-07 0.000000e+00 9.415567e-07 -1.404022e-07 0.000000e+00 0.000000e+00 0.000000e+00 0.000000e+00 2.232647e-05 -3.822569e-06 0.000000e+00 -3.822569e-06 -5.782408e-05 0.000000e+00 0.000000e+00 0.000000e+00 0.000000e+00 2.327892e-05 -6.243256e-06 0.000000e+00 -6.243256e-06 -5.629487e-05 0.000000e+00 0.000000e+00 0.000000e+00 0.000000e+00 5.210492e-05 -1.403060e-05 0.000000e+00 -1.403060e-05 4.864234e-06 0.000000e+00 0.000000e+00 0.000000e+00 0.000000e+00 5.109475e-05 -1.239695e-05 0.000000e+00 -1.239695e-05 6.384432e-06 0.000000e+00 0.000000e+00 0.000000e+00 0.000000e+00 9.170634e-08 6.918345e-07 0.000000e+00 6.918345e-07 -3.312373e-06 0.000000e+00 0.000000e+00 0.000000e+00 0.000000e+00 1.233943e-05 2.054876e-05 0.000000e+00 2.054876e-05 -2.926415e-06 0.000000e+00 0.000000e+00 0.000000e+00 0.000000e+00 6.013767e-05 -1.530038e-05 0.000000e+00 -1.530038e-05 1.950390e-05 0.000000e+00 0.000000e+00 0.000000e+00 0.000000e+00 6.248398e-05 -1.506371e-05 0.000000e+00 -1.506371e-05 1.661386e-05 0.000000e+00 0.000000e+00 0.000000e+00 0.000000e+00 6.810140e-05 -1.561139e-05 0.000000e+00 -1.561139e-05 1.951464e-05 0.000000e+00 0.000000e+00 0.000000e+00 0.000000e+00 -7.750154e-07 -9.531388e-08 0.000000e+00 -9.531388e-08 -8.873906e-07 0.000000e+00 0.000000e+00 0.000000e+00 0.000000e+00 1.486837e-05 1.768504e-05 0.000000e+00 1.768504e-05 -2.438491e-06 0.000000e+00 0.000000e+00 0.000000e+00 0.000000e+00 1.367288e-05 1.633051e-05 0.000000e+00 1.633051e-05 -3.480633e-06 0.000000e+00 0.000000e+00 0.000000e+00 0.000000e+00 1.301397e-05 1.931758e-05 0.000000e+00 1.931758e-05 -3.449661e-06 0.000000e+00 0.000000e+00 0.000000e+00 0.000000e+00 3.937826e-05 6.485326e-05 0.000000e+00 6.485326e-05 4.381447e-05 0.000000e+00 0.000000e+00 0.000000e+00 0.000000e+00 -2.308274e-05 1.749192e-05 0.000000e+00 1.749192e-05 1.030607e-05 0.000000e+00 0.000000e+00 0.000000e+00 0.000000e+00 3.677839e-05 -9.935887e-06 0.000000e+00 -9.935887e-06 -1.667167e-05 0.000000e+00 0.000000e+00 0.000000e+00 0.000000e+00 3.586510e-05 -8.551733e-06 0.000000e+00 -8.551733e-06 -1.527463e-05 0.000000e+00 0.000000e+00 0.000000e+00 0.000000e+00 4.986640e-05 -1.343800e-05 0.000000e+00 -1.343800e-05 1.484588e-06 0.000000e+00 0.000000e+00 0.000000e+00 0.000000e+00 4.728487e-05 -1.117781e-05 0.000000e+00 -1.117781e-05 6.195949e-08 0.000000e+00 0.000000e+00 0.000000e+00 0.000000e+00 4.978548e-05 -1.150965e-05 0.000000e+00 -1.150965e-05 3.077449e-06 0.000000e+00 0.000000e+00 0.000000e+00 0.000000e+00 -4.635482e-06 2.480906e-05 0.000000e+00 2.480906e-05 2.508379e-06 0.000000e+00 0.000000e+00 0.000000e+00 0.000000e+00 -8.542818e-06 2.308693e-05 0.000000e+00 2.308693e-05 4.409014e-06 0.000000e+00 0.000000e+00 0.000000e+00 0.000000e+00 2.497772e-05 -4.455716e-06 0.000000e+00 -4.455716e-06 -4.883327e-05 0.000000e+00 0.000000e+00 0.000000e+00 0.000000e+00 2.432301e-05 -5.973206e-06 0.000000e+00 -5.973206e-06 -4.703310e-05 0.000000e+00 0.000000e+00 0.000000e+00 0.000000e+00 2.494378e-05 -5.292855e-06 0.000000e+00 -5.292855e-06 -7.673358e-05 0.000000e+00 0.000000e+00 0.000000e+00 0.000000e+00 2.711732e-05 -6.872251e-06 0.000000e+00 -6.872251e-06 -3.574117e-05 0.000000e+00 0.000000e+00 0.000000e+00 0.000000e+00 2.312979e-05 -6.404172e-06 0.000000e+00 -6.404172e-06 -5.267666e-05 0.000000e+00 0.000000e+00 0.000000e+00 0.000000e+00 2.473614e-05 -4.619445e-06 0.000000e+00 -4.619445e-06 -5.168467e-05 0.000000e+00 0.000000e+00 0.000000e+00 0.000000e+00 3.080568e-05 -7.508109e-06 0.000000e+00 -7.508109e-06 -9.868631e-05 0.000000e+00 0.000000e+00 0.000000e+00 0.000000e+00 -4.033492e-06 1.440489e-05 0.000000e+00 1.440489e-05 -5.184120e-06 0.000000e+00 0.000000e+00 0.000000e+00 0.000000e+00 -7.294858e-06 1.827260e-05 0.000000e+00 1.827260e-05 -2.930339e-06 0.000000e+00 0.000000e+00 0.000000e+00 0.000000e+00 8.648350e-06 2.301258e-05 0.000000e+00 2.301258e-05 -1.707063e-06 0.000000e+00 0.000000e+00 0.000000e+00 0.000000e+00 -4.684535e-08 1.384768e-06 0.000000e+00 1.384768e-06 -2.992585e-06 0.000000e+00 0.000000e+00 0.000000e+00 0.000000e+00 1.095289e-07 2.451096e-06 0.000000e+00 2.451096e-06 -1.016533e-06 0.000000e+00 0.000000e+00 0.000000e+00 0.000000e+00 -2.917547e-05 -3.817675e-06 0.000000e+00 -3.817675e-06 2.324292e-05 0.000000e+00 0.000000e+00 0.000000e+00 0.000000e+00 -2.308138e-05 5.243879e-06 0.000000e+00 5.243879e-06 1.475198e-05 0.000000e+00 0.000000e+00 0.000000e+00 0.000000e+00 -2.431787e-05 -6.584781e-06 0.000000e+00 -6.584781e-06 1.620604e-05 0.000000e+00 0.000000e+00 0.000000e+00 0.000000e+00 2.231832e-05 -3.367498e-06 0.000000e+00 -3.367498e-06 -6.131689e-05 0.000000e+00 0.000000e+00 0.000000e+00 0.000000e+00 4.256651e-05 -8.847660e-06 0.000000e+00 -8.847660e-06 -8.364145e-06 0.000000e+00 0.000000e+00 0.000000e+00 0.000000e+00 4.402274e-05 -1.084286e-05 0.000000e+00 -1.084286e-05 -6.812230e-06 0.000000e+00 0.000000e+00 0.000000e+00 0.000000e+00 6.908206e-05 -3.235332e-05 0.000000e+00 -3.235332e-05 7.261795e-05 0.000000e+00 0.000000e+00 0.000000e+00 0.000000e+00 8.930927e-05 -3.963280e-05 0.000000e+00 -3.963280e-05 7.504823e-05 0.000000e+00 0.000000e+00 0.000000e+00 0.000000e+00 4.276331e-05 5.694076e-05 0.000000e+00 5.694076e-05 2.756374e-05 0.000000e+00 0.000000e+00 0.000000e+00 0.000000e+00 3.260930e-05 3.906076e-05 0.000000e+00 3.906076e-05 1.942077e-05 0.000000e+00 0.000000e+00 0.000000e+00 0.000000e+00 2.471791e-05 -2.620938e-06 0.000000e+00 -2.620938e-06 -7.383841e-05 0.000000e+00 0.000000e+00 0.000000e+00 0.000000e+00 3.187654e-05 -4.543563e-06 0.000000e+00 -4.543563e-06 -9.539840e-05 0.000000e+00 0.000000e+00 0.000000e+00 0.000000e+00 2.630414e-05 -8.127004e-06 0.000000e+00 -8.127004e-06 -9.148514e-05 0.000000e+00 0.000000e+00 0.000000e+00 0.000000e+00 -8.194335e-07 1.542885e-06 0.000000e+00 1.542885e-06 -7.506265e-07 0.000000e+00 0.000000e+00 0.000000e+00 0.000000e+00 -3.874748e-06 1.000419e-05 0.000000e+00 1.000419e-05 -3.319290e-06 0.000000e+00 0.000000e+00 0.000000e+00 0.000000e+00 2.597743e-05 -6.821512e-06 0.000000e+00 -6.821512e-06 -3.844395e-05 0.000000e+00 0.000000e+00 0.000000e+00 0.000000e+00 -9.796992e-06 2.033939e-05 0.000000e+00 2.033939e-05 2.666959e-06 0.000000e+00 0.000000e+00 0.000000e+00 0.000000e+00 -1.349214e-06 -2.774983e-05 0.000000e+00 -2.774983e-05 -1.085262e-05 0.000000e+00 0.000000e+00 0.000000e+00 0.000000e+00 2.512896e-05 -5.661469e-06 0.000000e+00 -5.661469e-06 -8.131602e-05 0.000000e+00 0.000000e+00 0.000000e+00 0.000000e+00 2.499046e-05 -2.920433e-06 0.000000e+00 -2.920433e-06 -7.786038e-05 0.000000e+00 0.000000e+00 0.000000e+00 0.000000e+00 7.168155e-07 5.650292e-06 0.000000e+00 5.650292e-06 -6.965332e-06 0.000000e+00 0.000000e+00 0.000000e+00 0.000000e+00 3.063457e-07 1.052623e-06 0.000000e+00 1.052623e-06 -3.083560e-06 0.000000e+00 0.000000e+00 0.000000e+00 0.000000e+00 2.346933e-05 -1.737612e-05 0.000000e+00 -1.737612e-05 -6.086874e-05 0.000000e+00 0.000000e+00 0.000000e+00 0.000000e+00 2.462674e-05 -6.688916e-06 0.000000e+00 -6.688916e-06 -8.508237e-05 0.000000e+00 0.000000e+00 0.000000e+00 0.000000e+00 2.924286e-05 -4.404199e-06 0.000000e+00 -4.404199e-06 -8.936101e-05 0.000000e+00 0.000000e+00 0.000000e+00 0.000000e+00 2.708663e-05 -3.987199e-06 0.000000e+00 -3.987199e-06 -8.312890e-05 0.000000e+00 0.000000e+00 0.000000e+00 0.000000e+00 2.713219e-05 -5.591480e-06 0.000000e+00 -5.591480e-06 -4.023647e-05 0.000000e+00 0.000000e+00 0.000000e+00 0.000000e+00 3.865680e-05 -8.814092e-06 0.000000e+00 -8.814092e-06 -1.295130e-05 0.000000e+00 0.000000e+00 0.000000e+00 0.000000e+00 3.938478e-05 -1.063781e-05 0.000000e+00 -1.063781e-05 -1.144684e-05 0.000000e+00 0.000000e+00 0.000000e+00 0.000000e+00 3.029555e-05 -6.742725e-06 0.000000e+00 -6.742725e-06 -2.710835e-05 0.000000e+00 0.000000e+00 0.000000e+00 0.000000e+00 3.059675e-05 -8.518559e-06 0.000000e+00 -8.518559e-06 -2.557462e-05 0.000000e+00 0.000000e+00 0.000000e+00 0.000000e+00 2.596348e-05 -5.195761e-06 0.000000e+00 -5.195761e-06 -3.698708e-05 0.000000e+00 0.000000e+00 0.000000e+00 0.000000e+00 -3.389143e-06 1.197854e-05 0.000000e+00 1.197854e-05 -6.548543e-07 0.000000e+00 0.000000e+00 0.000000e+00 0.000000e+00 -1.185979e-05 1.954547e-05 0.000000e+00 1.954547e-05 2.461260e-06 0.000000e+00 0.000000e+00 0.000000e+00 0.000000e+00 -1.174539e-05 2.294581e-05 0.000000e+00 2.294581e-05 4.547565e-06 0.000000e+00 0.000000e+00 0.000000e+00 0.000000e+00 -1.794372e-05 1.979670e-05 0.000000e+00 1.979670e-05 6.838066e-06 0.000000e+00 0.000000e+00 0.000000e+00 0.000000e+00 2.176692e-05 -1.219461e-05 0.000000e+00 -1.219461e-05 -6.190995e-05 0.000000e+00 0.000000e+00 0.000000e+00 0.000000e+00 -1.308692e-06 3.029651e-07 0.000000e+00 3.029651e-07 -4.197855e-07 0.000000e+00 0.000000e+00 0.000000e+00 0.000000e+00 1.234953e-05 -2.360763e-05 0.000000e+00 -2.360763e-05 -3.702818e-05 0.000000e+00 0.000000e+00 0.000000e+00 0.000000e+00 2.055113e-05 -2.317710e-05 0.000000e+00 -2.317710e-05 -4.792159e-05 0.000000e+00 0.000000e+00 0.000000e+00 0.000000e+00 2.351719e-05 -1.059035e-05 0.000000e+00 -1.059035e-05 -6.895220e-05 0.000000e+00 0.000000e+00 0.000000e+00 0.000000e+00 -4.633775e-07 8.547524e-07 0.000000e+00 8.547524e-07 -1.919778e-06 0.000000e+00 0.000000e+00 0.000000e+00 0.000000e+00 2.501496e-05 -1.536348e-05 0.000000e+00 -1.536348e-05 -7.214447e-05 0.000000e+00 0.000000e+00 0.000000e+00 0.000000e+00 2.622214e-05 -8.628165e-06 0.000000e+00 -8.628165e-06 -7.636635e-05 0.000000e+00 0.000000e+00 0.000000e+00 0.000000e+00 1.740063e-05 -1.132503e-05 0.000000e+00 -1.132503e-05 -6.568651e-05 0.000000e+00 0.000000e+00 0.000000e+00 0.000000e+00 1.039368e-05 5.597446e-06 0.000000e+00 5.597446e-06 -8.220858e-05 0.000000e+00 0.000000e+00 0.000000e+00 0.000000e+00 2.406753e-05 -5.943107e-06 0.000000e+00 -5.943107e-06 -7.615848e-05 0.000000e+00 0.000000e+00 0.000000e+00 0.000000e+00 2.183130e-05 -7.440074e-06 0.000000e+00 -7.440074e-06 -6.937732e-05 0.000000e+00 0.000000e+00 0.000000e+00 0.000000e+00 2.625404e-05 -7.004294e-06 0.000000e+00 -7.004294e-06 -7.768635e-05 0.000000e+00 0.000000e+00 0.000000e+00 0.000000e+00 2.515644e-05 -1.054529e-05 0.000000e+00 -1.054529e-05 -6.914464e-05 0.000000e+00 0.000000e+00 0.000000e+00 0.000000e+00 2.136708e-05 -4.447589e-06 0.000000e+00 -4.447589e-06 -7.276315e-05 0.000000e+00 0.000000e+00 0.000000e+00 0.000000e+00 1.998089e-05 -8.887764e-07 0.000000e+00 -8.887764e-07 -7.830713e-05 0.000000e+00 0.000000e+00 0.000000e+00 0.000000e+00 2.451835e-05 -6.056677e-06 0.000000e+00 -6.056677e-06 -7.629203e-05 0.000000e+00 0.000000e+00 0.000000e+00 0.000000e+00 2.952257e-05 1.930925e-06 0.000000e+00 1.930925e-06 -9.400632e-05 0.000000e+00 0.000000e+00 0.000000e+00 0.000000e+00 2.446907e-05 -1.529431e-05 0.000000e+00 -1.529431e-05 -6.485118e-05 0.000000e+00 0.000000e+00 0.000000e+00 0.000000e+00 1.832756e-05 -1.478832e-05 0.000000e+00 -1.478832e-05 -5.625127e-05 0.000000e+00 0.000000e+00 0.000000e+00 0.000000e+00 1.847600e-05 -1.116894e-05 0.000000e+00 -1.116894e-05 -6.076532e-05 0.000000e+00 0.000000e+00 0.000000e+00 0.000000e+00 2.889684e-05 -2.797437e-06 0.000000e+00 -2.797437e-06 -8.307021e-05 0.000000e+00 0.000000e+00 0.000000e+00 0.000000e+00 2.821249e-05 -4.486477e-06 0.000000e+00 -4.486477e-06 -8.296021e-05 0.000000e+00 0.000000e+00 0.000000e+00 0.000000e+00 2.828209e-05 -7.207298e-06 0.000000e+00 -7.207298e-06 -3.327940e-05 0.000000e+00 0.000000e+00 0.000000e+00 0.000000e+00 2.757426e-05 -5.446207e-06 0.000000e+00 -5.446207e-06 -3.465097e-05 0.000000e+00 0.000000e+00 0.000000e+00 0.000000e+00 2.682577e-05 -6.285417e-06 0.000000e+00 -6.285417e-06 -3.166018e-05 0.000000e+00 0.000000e+00 0.000000e+00 0.000000e+00 3.559049e-05 -9.353249e-06 0.000000e+00 -9.353249e-06 -1.901808e-05 0.000000e+00 0.000000e+00 0.000000e+00 0.000000e+00 3.322648e-05 -7.747697e-06 0.000000e+00 -7.747697e-06 -1.984433e-05 0.000000e+00 0.000000e+00 0.000000e+00 0.000000e+00 3.430953e-05 -8.198707e-06 0.000000e+00 -8.198707e-06 -1.753248e-05 0.000000e+00 0.000000e+00 0.000000e+00 0.000000e+00 1.705182e-06 -2.309798e-06 0.000000e+00 -2.309798e-06 -6.878780e-07 0.000000e+00 0.000000e+00 0.000000e+00 0.000000e+00 -1.985847e-05 1.390153e-05 0.000000e+00 1.390153e-05 1.868515e-05 0.000000e+00 0.000000e+00 0.000000e+00 0.000000e+00 2.720652e-05 -9.250985e-06 0.000000e+00 -9.250985e-06 -3.710752e-05 0.000000e+00 0.000000e+00 0.000000e+00 0.000000e+00 9.782126e-06 -2.701243e-05 0.000000e+00 -2.701243e-05 -2.921130e-05 0.000000e+00 0.000000e+00 0.000000e+00 0.000000e+00 4.618791e-05 -1.189186e-05 0.000000e+00 -1.189186e-05 -4.399120e-06 0.000000e+00 0.000000e+00 0.000000e+00 0.000000e+00 4.153691e-05 -9.975003e-06 0.000000e+00 -9.975003e-06 -5.118760e-06 0.000000e+00 0.000000e+00 0.000000e+00 0.000000e+00 4.364953e-05 -1.055662e-05 0.000000e+00 -1.055662e-05 -2.585257e-06 0.000000e+00 0.000000e+00 0.000000e+00 0.000000e+00 7.368817e-05 -2.491167e-05 0.000000e+00 -2.491167e-05 5.128576e-05 0.000000e+00 0.000000e+00 0.000000e+00 0.000000e+00 8.667867e-05 -4.594930e-05 0.000000e+00 -4.594930e-05 9.515417e-05 0.000000e+00 0.000000e+00 0.000000e+00 0.000000e+00 6.234419e-05 -3.608404e-05 0.000000e+00 -3.608404e-05 9.128964e-05 0.000000e+00 0.000000e+00 0.000000e+00 0.000000e+00 5.238293e-05 -3.676482e-05 0.000000e+00 -3.676482e-05 1.173804e-04 0.000000e+00 0.000000e+00 0.000000e+00 0.000000e+00 1.733704e-05 1.295165e-05 0.000000e+00 1.295165e-05 -5.065516e-06 0.000000e+00 0.000000e+00 0.000000e+00 0.000000e+00 1.875482e-05 1.499718e-05 0.000000e+00 1.499718e-05 -3.715840e-06 0.000000e+00 0.000000e+00 0.000000e+00 0.000000e+00 1.260229e-05 -3.236052e-05 0.000000e+00 -3.236052e-05 -2.816577e-05 0.000000e+00 0.000000e+00 0.000000e+00 0.000000e+00 -4.041342e-07 -2.163049e-06 0.000000e+00 -2.163049e-06 1.238516e-06 0.000000e+00 0.000000e+00 0.000000e+00 0.000000e+00 4.045070e-05 -9.170387e-06 0.000000e+00 -9.170387e-06 -1.045318e-05 0.000000e+00 0.000000e+00 0.000000e+00 0.000000e+00 3.105634e-05 -4.249728e-06 0.000000e+00 -4.249728e-06 -9.278161e-05 0.000000e+00 0.000000e+00 0.000000e+00 0.000000e+00 2.980619e-05 2.010650e-05 0.000000e+00 2.010650e-05 -5.211914e-06 0.000000e+00 0.000000e+00 0.000000e+00 0.000000e+00 -6.347778e-06 1.617017e-05 0.000000e+00 1.617017e-05 1.194673e-06 0.000000e+00 0.000000e+00 0.000000e+00 0.000000e+00 1.079711e-05 1.051924e-05 0.000000e+00 1.051924e-05 1.410027e-04 0.000000e+00 0.000000e+00 0.000000e+00 0.000000e+00 -1.417304e-05 1.954188e-05 0.000000e+00 1.954188e-05 5.120746e-06 0.000000e+00 0.000000e+00 0.000000e+00 0.000000e+00 -1.671045e-05 1.870174e-05 0.000000e+00 1.870174e-05 1.121026e-05 0.000000e+00 0.000000e+00 0.000000e+00 0.000000e+00 6.696850e-05 -2.341309e-05 0.000000e+00 -2.341309e-05 4.434100e-05 0.000000e+00 0.000000e+00 0.000000e+00 0.000000e+00 5.813306e-06 -3.457066e-05 0.000000e+00 -3.457066e-05 -1.604257e-05 0.000000e+00 0.000000e+00 0.000000e+00 0.000000e+00 6.628002e-05 -3.842660e-05 0.000000e+00 -3.842660e-05 6.011678e-05 0.000000e+00 0.000000e+00 0.000000e+00 0.000000e+00 1.435140e-05 5.828376e-05 0.000000e+00 5.828376e-05 1.232110e-04 0.000000e+00 0.000000e+00 0.000000e+00 0.000000e+00 1.429842e-05 2.066295e-05 0.000000e+00 2.066295e-05 -4.245378e-06 0.000000e+00 0.000000e+00 0.000000e+00 0.000000e+00 2.327029e-05 -6.645698e-06 0.000000e+00 -6.645698e-06 -6.854797e-05 0.000000e+00 0.000000e+00 0.000000e+00 0.000000e+00 6.275993e-05 1.165824e-04 0.000000e+00 1.165824e-04 1.098355e-04 0.000000e+00 0.000000e+00 0.000000e+00 0.000000e+00 2.600368e-05 -1.092536e-05 0.000000e+00 -1.092536e-05 -6.911324e-05 0.000000e+00 0.000000e+00 0.000000e+00 0.000000e+00 2.710683e-05 -4.555968e-07 0.000000e+00 -4.555968e-07 -7.916841e-05 0.000000e+00 0.000000e+00 0.000000e+00 0.000000e+00 3.450685e-05 -4.375108e-06 0.000000e+00 -4.375108e-06 -9.725280e-05 0.000000e+00 0.000000e+00 0.000000e+00 0.000000e+00 4.083537e-05 3.894682e-05 0.000000e+00 3.894682e-05 1.042746e-05 0.000000e+00 0.000000e+00 0.000000e+00 0.000000e+00 1.863801e-05 5.379646e-05 0.000000e+00 5.379646e-05 8.751085e-05 0.000000e+00 0.000000e+00 0.000000e+00 0.000000e+00 -8.119981e-07 5.569703e-06 0.000000e+00 5.569703e-06 -4.100814e-06 0.000000e+00 0.000000e+00 0.000000e+00 0.000000e+00 2.590601e-05 -7.780783e-06 0.000000e+00 -7.780783e-06 -7.216299e-05 0.000000e+00 0.000000e+00 0.000000e+00 0.000000e+00 5.031438e-07 2.457420e-06 0.000000e+00 2.457420e-06 -5.810429e-06 0.000000e+00 0.000000e+00 0.000000e+00 0.000000e+00 2.054866e-05 -7.877422e-06 0.000000e+00 -7.877422e-06 -6.475814e-05 0.000000e+00 0.000000e+00 0.000000e+00 0.000000e+00 2.334122e-05 -8.092537e-06 0.000000e+00 -8.092537e-06 -3.743195e-05 0.000000e+00 0.000000e+00 0.000000e+00 0.000000e+00 -8.367168e-06 -3.122920e-05 0.000000e+00 -3.122920e-05 8.383317e-07 0.000000e+00 0.000000e+00 0.000000e+00 0.000000e+00 -2.134231e-06 -3.307809e-05 0.000000e+00 -3.307809e-05 -6.797440e-06 0.000000e+00 0.000000e+00 0.000000e+00 0.000000e+00 3.166608e-05 -5.418711e-06 0.000000e+00 -5.418711e-06 -9.249771e-05 0.000000e+00 0.000000e+00 0.000000e+00 0.000000e+00 -1.348892e-06 8.031558e-06 0.000000e+00 8.031558e-06 -1.782167e-06 0.000000e+00 0.000000e+00 0.000000e+00 0.000000e+00 2.189803e-05 -6.404455e-06 0.000000e+00 -6.404455e-06 -6.750439e-05 0.000000e+00 0.000000e+00 0.000000e+00 0.000000e+00 1.992601e-05 4.812954e-05 0.000000e+00 4.812954e-05 1.053180e-04 0.000000e+00 0.000000e+00 0.000000e+00 0.000000e+00 5.807691e-06 2.786881e-05 0.000000e+00 2.786881e-05 1.618410e-04 0.000000e+00 0.000000e+00 0.000000e+00 0.000000e+00 -1.248708e-06 9.851617e-06 0.000000e+00 9.851617e-06 -6.623252e-06 0.000000e+00 0.000000e+00 0.000000e+00 0.000000e+00 1.121086e-05 2.200963e-05 0.000000e+00 2.200963e-05 -2.032802e-06 0.000000e+00 0.000000e+00 0.000000e+00 0.000000e+00 2.483839e-05 -1.202256e-05 0.000000e+00 -1.202256e-05 -6.328704e-05 0.000000e+00 0.000000e+00 0.000000e+00 0.000000e+00 3.271869e-05 2.428786e-05 0.000000e+00 2.428786e-05 -2.708949e-06 0.000000e+00 0.000000e+00 0.000000e+00 0.000000e+00 2.486555e-05 2.056933e-05 0.000000e+00 2.056933e-05 -4.451907e-06 0.000000e+00 0.000000e+00 0.000000e+00 0.000000e+00 2.280951e-05 -1.190018e-05 0.000000e+00 -1.190018e-05 -7.806265e-05 0.000000e+00 0.000000e+00 0.000000e+00 0.000000e+00 -8.601923e-06 2.329008e-05 0.000000e+00 2.329008e-05 3.867142e-06 0.000000e+00 0.000000e+00 0.000000e+00 0.000000e+00 3.444431e-05 -1.235161e-05 0.000000e+00 -1.235161e-05 -2.022290e-05 0.000000e+00 0.000000e+00 0.000000e+00 0.000000e+00 2.478050e-05 -3.401003e-06 0.000000e+00 -3.401003e-06 -7.263257e-05 0.000000e+00 0.000000e+00 0.000000e+00 0.000000e+00 2.359624e-05 -4.562741e-06 0.000000e+00 -4.562741e-06 -4.505286e-05 0.000000e+00 0.000000e+00 0.000000e+00 0.000000e+00 1.715486e-05 4.682595e-05 0.000000e+00 4.682595e-05 5.871865e-05 0.000000e+00 0.000000e+00 0.000000e+00 0.000000e+00 1.494332e-05 4.269652e-05 0.000000e+00 4.269652e-05 5.634343e-05 0.000000e+00 0.000000e+00 0.000000e+00 0.000000e+00 2.641267e-05 -7.930388e-06 0.000000e+00 -7.930388e-06 -3.532827e-05 0.000000e+00 0.000000e+00 0.000000e+00 0.000000e+00 2.647504e-05 -9.524869e-06 0.000000e+00 -9.524869e-06 -3.355748e-05 0.000000e+00 0.000000e+00 0.000000e+00 0.000000e+00 -1.443408e-05 1.410985e-05 0.000000e+00 1.410985e-05 1.569589e-05 0.000000e+00 0.000000e+00 0.000000e+00 0.000000e+00 6.355849e-05 -2.735073e-05 0.000000e+00 -2.735073e-05 3.052348e-05 0.000000e+00 0.000000e+00 0.000000e+00 0.000000e+00 7.903416e-05 -3.072690e-05 0.000000e+00 -3.072690e-05 5.743264e-05 0.000000e+00 0.000000e+00 0.000000e+00 0.000000e+00 1.053288e-05 4.866318e-05 0.000000e+00 4.866318e-05 1.225182e-04 0.000000e+00 0.000000e+00 0.000000e+00 0.000000e+00 6.554456e-06 3.169358e-05 0.000000e+00 3.169358e-05 1.118612e-04 0.000000e+00 0.000000e+00 0.000000e+00 0.000000e+00 1.179658e-05 4.320320e-05 0.000000e+00 4.320320e-05 8.245338e-05 0.000000e+00 0.000000e+00 0.000000e+00 0.000000e+00 5.407971e-05 -2.220621e-05 0.000000e+00 -2.220621e-05 1.255884e-05 0.000000e+00 0.000000e+00 0.000000e+00 0.000000e+00 4.593098e-05 -1.855439e-05 0.000000e+00 -1.855439e-05 1.520800e-06 0.000000e+00 0.000000e+00 0.000000e+00 0.000000e+00 3.232886e-05 -2.404617e-05 0.000000e+00 -2.404617e-05 1.309757e-04 0.000000e+00 0.000000e+00 0.000000e+00 0.000000e+00 1.044080e-05 -7.498028e-06 0.000000e+00 -7.498028e-06 1.558151e-04 0.000000e+00 0.000000e+00 0.000000e+00 0.000000e+00 2.941474e-05 -1.222731e-05 0.000000e+00 -1.222731e-05 -2.613146e-05 0.000000e+00 0.000000e+00 0.000000e+00 0.000000e+00 5.991143e-05 -1.732190e-05 0.000000e+00 -1.732190e-05 2.478482e-05 0.000000e+00 0.000000e+00 0.000000e+00 0.000000e+00 3.001877e-05 2.934975e-05 0.000000e+00 2.934975e-05 2.872357e-06 0.000000e+00 0.000000e+00 0.000000e+00 0.000000e+00 3.605416e-05 2.981238e-05 0.000000e+00 2.981238e-05 1.948036e-06 0.000000e+00 0.000000e+00 0.000000e+00 0.000000e+00 1.727377e-05 1.975071e-05 0.000000e+00 1.975071e-05 -4.133069e-06 0.000000e+00 0.000000e+00 0.000000e+00 0.000000e+00 1.256484e-05 2.301719e-05 0.000000e+00 2.301719e-05 -2.017288e-06 0.000000e+00 0.000000e+00 0.000000e+00 0.000000e+00 3.316495e-05 -1.129258e-05 0.000000e+00 -1.129258e-05 -2.292528e-05 0.000000e+00 0.000000e+00 0.000000e+00 0.000000e+00 3.168703e-05 -1.044294e-05 0.000000e+00 -1.044294e-05 -2.099307e-05 0.000000e+00 0.000000e+00 0.000000e+00 0.000000e+00 6.209190e-05 9.516743e-05 0.000000e+00 9.516743e-05 1.775490e-04 0.000000e+00 0.000000e+00 0.000000e+00 0.000000e+00 3.475773e-05 4.630196e-05 0.000000e+00 4.630196e-05 2.661208e-05 0.000000e+00 0.000000e+00 0.000000e+00 0.000000e+00 2.408082e-05 3.494943e-05 0.000000e+00 3.494943e-05 1.932156e-05 0.000000e+00 0.000000e+00 0.000000e+00 0.000000e+00 2.440076e-05 1.459010e-05 0.000000e+00 1.459010e-05 -6.662686e-06 0.000000e+00 0.000000e+00 0.000000e+00 0.000000e+00 -2.651961e-06 -3.176472e-05 0.000000e+00 -3.176472e-05 -7.960398e-06 0.000000e+00 0.000000e+00 0.000000e+00 0.000000e+00 5.645650e-05 -3.117303e-05 0.000000e+00 -3.117303e-05 6.667733e-05 0.000000e+00 0.000000e+00 0.000000e+00 0.000000e+00 7.158427e-05 -3.990074e-05 0.000000e+00 -3.990074e-05 7.142969e-05 0.000000e+00 0.000000e+00 0.000000e+00 0.000000e+00 -1.479417e-05 2.131073e-05 0.000000e+00 2.131073e-05 7.206992e-06 0.000000e+00 0.000000e+00 0.000000e+00 0.000000e+00 2.710607e-05 1.699604e-05 0.000000e+00 1.699604e-05 -6.611832e-06 0.000000e+00 0.000000e+00 0.000000e+00 0.000000e+00 7.162740e-07 2.035726e-06 0.000000e+00 2.035726e-06 -1.734915e-06 0.000000e+00 0.000000e+00 0.000000e+00 0.000000e+00 -9.836615e-06 2.083646e-05 0.000000e+00 2.083646e-05 9.535672e-06 0.000000e+00 0.000000e+00 0.000000e+00 0.000000e+00 2.458591e-05 -6.404746e-06 0.000000e+00 -6.404746e-06 -6.373882e-05 0.000000e+00 0.000000e+00 0.000000e+00 0.000000e+00 -9.064392e-06 2.353286e-05 0.000000e+00 2.353286e-05 6.381840e-06 0.000000e+00 0.000000e+00 0.000000e+00 0.000000e+00 6.561047e-05 -3.531206e-05 0.000000e+00 -3.531206e-05 4.918157e-05 0.000000e+00 0.000000e+00 0.000000e+00 0.000000e+00 5.398962e-05 -3.085667e-05 0.000000e+00 -3.085667e-05 5.561285e-05 0.000000e+00 0.000000e+00 0.000000e+00 0.000000e+00 3.761632e-06 -3.151972e-05 0.000000e+00 -3.151972e-05 -1.670578e-05 0.000000e+00 0.000000e+00 0.000000e+00 0.000000e+00 2.221956e-05 -6.355710e-06 0.000000e+00 -6.355710e-06 -6.372850e-05 0.000000e+00 0.000000e+00 0.000000e+00 0.000000e+00 2.344098e-05 -4.013128e-06 0.000000e+00 -4.013128e-06 -5.461877e-05 0.000000e+00 0.000000e+00 0.000000e+00 0.000000e+00 3.868599e-05 -1.491084e-05 0.000000e+00 -1.491084e-05 -8.992323e-06 0.000000e+00 0.000000e+00 0.000000e+00 0.000000e+00 1.681947e-05 1.809287e-05 0.000000e+00 1.809287e-05 -3.906443e-06 0.000000e+00 0.000000e+00 0.000000e+00 0.000000e+00 5.163459e-05 -1.988774e-05 0.000000e+00 -1.988774e-05 8.269181e-06 0.000000e+00 0.000000e+00 0.000000e+00 0.000000e+00 4.703970e-05 -1.860247e-05 0.000000e+00 -1.860247e-05 1.076011e-05 0.000000e+00 0.000000e+00 0.000000e+00 0.000000e+00 2.371304e-05 -4.390732e-06 0.000000e+00 -4.390732e-06 -6.706628e-05 0.000000e+00 0.000000e+00 0.000000e+00 0.000000e+00 2.963015e-05 -1.153013e-05 0.000000e+00 -1.153013e-05 -2.978258e-05 0.000000e+00 0.000000e+00 0.000000e+00 0.000000e+00 2.779452e-05 -1.015249e-05 0.000000e+00 -1.015249e-05 -2.763351e-05 0.000000e+00 0.000000e+00 0.000000e+00 0.000000e+00 2.193379e-05 -6.477384e-06 0.000000e+00 -6.477384e-06 -6.250064e-05 0.000000e+00 0.000000e+00 0.000000e+00 0.000000e+00 2.175569e-05 -8.519439e-06 0.000000e+00 -8.519439e-06 -5.007070e-05 0.000000e+00 0.000000e+00 0.000000e+00 0.000000e+00 3.668894e-05 -1.460071e-05 0.000000e+00 -1.460071e-05 -1.473816e-05 0.000000e+00 0.000000e+00 0.000000e+00 0.000000e+00 3.272721e-05 -7.194561e-06 0.000000e+00 -7.194561e-06 -2.488966e-05 0.000000e+00 0.000000e+00 0.000000e+00 0.000000e+00 1.410470e-05 -3.376866e-05 0.000000e+00 -3.376866e-05 1.807203e-05 0.000000e+00 0.000000e+00 0.000000e+00 0.000000e+00 2.134873e-05 1.576638e-05 0.000000e+00 1.576638e-05 -6.732406e-06 0.000000e+00 0.000000e+00 0.000000e+00 0.000000e+00 2.478117e-05 -1.565119e-05 0.000000e+00 -1.565119e-05 -5.936531e-05 0.000000e+00 0.000000e+00 0.000000e+00 0.000000e+00 2.715302e-05 -1.061919e-05 0.000000e+00 -1.061919e-05 -3.972961e-05 0.000000e+00 0.000000e+00 0.000000e+00 0.000000e+00 4.160662e-07 1.712672e-06 0.000000e+00 1.712672e-06 -2.772073e-06 0.000000e+00 0.000000e+00 0.000000e+00 0.000000e+00 2.230398e-05 -7.308030e-06 0.000000e+00 -7.308030e-06 -4.687166e-05 0.000000e+00 0.000000e+00 0.000000e+00 0.000000e+00 2.492205e-05 -7.294883e-06 0.000000e+00 -7.294883e-06 -4.975409e-05 0.000000e+00 0.000000e+00 0.000000e+00 0.000000e+00 2.579480e-05 -7.400846e-06 0.000000e+00 -7.400846e-06 -4.688037e-05 0.000000e+00 0.000000e+00 0.000000e+00 0.000000e+00 2.404458e-05 1.767828e-05 0.000000e+00 1.767828e-05 -6.178082e-06 0.000000e+00 0.000000e+00 0.000000e+00 0.000000e+00 -2.434005e-05 -7.128331e-06 0.000000e+00 -7.128331e-06 3.067604e-05 0.000000e+00 0.000000e+00 0.000000e+00 0.000000e+00 3.718382e-05 -1.502025e-05 0.000000e+00 -1.502025e-05 -1.170796e-05 0.000000e+00 0.000000e+00 0.000000e+00 0.000000e+00 3.555576e-05 -1.301179e-05 0.000000e+00 -1.301179e-05 -1.322673e-05 0.000000e+00 0.000000e+00 0.000000e+00 0.000000e+00 3.927677e-05 -1.346210e-05 0.000000e+00 -1.346210e-05 -1.100111e-05 0.000000e+00 0.000000e+00 0.000000e+00 0.000000e+00 2.523491e-05 -6.472272e-06 0.000000e+00 -6.472272e-06 -7.546682e-05 0.000000e+00 0.000000e+00 0.000000e+00 0.000000e+00 2.220251e-05 1.252077e-05 0.000000e+00 1.252077e-05 -5.350757e-06 0.000000e+00 0.000000e+00 0.000000e+00 0.000000e+00 4.382822e-06 2.290134e-05 0.000000e+00 2.290134e-05 3.760690e-07 0.000000e+00 0.000000e+00 0.000000e+00 0.000000e+00 2.560178e-05 -3.461221e-06 0.000000e+00 -3.461221e-06 -7.680603e-05 0.000000e+00 0.000000e+00 0.000000e+00 0.000000e+00 1.905197e-05 -1.039147e-05 0.000000e+00 -1.039147e-05 -5.699065e-05 0.000000e+00 0.000000e+00 0.000000e+00 0.000000e+00 2.794122e-05 2.412707e-05 0.000000e+00 2.412707e-05 -2.003093e-06 0.000000e+00 0.000000e+00 0.000000e+00 0.000000e+00 2.421512e-05 -9.085084e-06 0.000000e+00 -9.085084e-06 -6.648669e-05 0.000000e+00 0.000000e+00 0.000000e+00 0.000000e+00 5.478151e-05 -2.535281e-05 0.000000e+00 -2.535281e-05 3.657930e-05 0.000000e+00 0.000000e+00 0.000000e+00 0.000000e+00 6.532840e-05 -3.121307e-05 0.000000e+00 -3.121307e-05 3.962443e-05 0.000000e+00 0.000000e+00 0.000000e+00 0.000000e+00 -2.324866e-05 4.864887e-06 0.000000e+00 4.864887e-06 2.637277e-05 0.000000e+00 0.000000e+00 0.000000e+00 0.000000e+00 2.138682e-05 -5.329843e-06 0.000000e+00 -5.329843e-06 -5.953059e-05 0.000000e+00 0.000000e+00 0.000000e+00 0.000000e+00 2.291591e-05 -1.014725e-05 0.000000e+00 -1.014725e-05 -5.920666e-05 0.000000e+00 0.000000e+00 0.000000e+00 0.000000e+00 2.385169e-05 -8.383564e-06 0.000000e+00 -8.383564e-06 -5.820073e-05 0.000000e+00 0.000000e+00 0.000000e+00 0.000000e+00 3.953464e-05 -1.311736e-05 0.000000e+00 -1.311736e-05 -8.120259e-06 0.000000e+00 0.000000e+00 0.000000e+00 0.000000e+00 4.003868e-05 -1.464256e-05 0.000000e+00 -1.464256e-05 -6.305271e-06 0.000000e+00 0.000000e+00 0.000000e+00 0.000000e+00 -8.148593e-08 4.817926e-06 0.000000e+00 4.817926e-06 -3.488112e-06 0.000000e+00 0.000000e+00 0.000000e+00 0.000000e+00 -2.030179e-05 -1.160980e-05 0.000000e+00 -1.160980e-05 2.038727e-05 0.000000e+00 0.000000e+00 0.000000e+00 0.000000e+00 6.577171e-06 2.478429e-05 0.000000e+00 2.478429e-05 1.024397e-06 0.000000e+00 0.000000e+00 0.000000e+00 0.000000e+00 1.827003e-05 -3.959466e-05 0.000000e+00 -3.959466e-05 1.542214e-05 0.000000e+00 0.000000e+00 0.000000e+00 0.000000e+00 2.347696e-05 -1.963338e-05 0.000000e+00 -1.963338e-05 -5.458534e-05 0.000000e+00 0.000000e+00 0.000000e+00 0.000000e+00 1.544028e-05 -1.918651e-05 0.000000e+00 -1.918651e-05 -4.537427e-05 0.000000e+00 0.000000e+00 0.000000e+00 0.000000e+00 3.537374e-05 4.814323e-06 0.000000e+00 4.814323e-06 -1.016711e-04 0.000000e+00 0.000000e+00 0.000000e+00 0.000000e+00 -2.170703e-05 -2.031636e-05 0.000000e+00 -2.031636e-05 2.761011e-05 0.000000e+00 0.000000e+00 0.000000e+00 0.000000e+00 3.166064e-05 -1.191505e-05 0.000000e+00 -1.191505e-05 -1.811783e-05 0.000000e+00 0.000000e+00 0.000000e+00 0.000000e+00 3.564797e-05 -1.345384e-05 0.000000e+00 -1.345384e-05 -1.769630e-05 0.000000e+00 0.000000e+00 0.000000e+00 0.000000e+00 -2.031708e-05 -1.225513e-05 0.000000e+00 -1.225513e-05 3.738249e-05 0.000000e+00 0.000000e+00 0.000000e+00 0.000000e+00 1.958262e-05 1.433648e-05 0.000000e+00 1.433648e-05 -6.452405e-06 0.000000e+00 0.000000e+00 0.000000e+00 0.000000e+00 2.652670e-05 -9.302907e-06 0.000000e+00 -9.302907e-06 -4.335234e-05 0.000000e+00 0.000000e+00 0.000000e+00 0.000000e+00 2.272727e-05 -7.722054e-06 0.000000e+00 -7.722054e-06 -4.363439e-05 0.000000e+00 0.000000e+00 0.000000e+00 0.000000e+00 2.259014e-05 -9.219642e-06 0.000000e+00 -9.219642e-06 -4.001566e-05 0.000000e+00 0.000000e+00 0.000000e+00 0.000000e+00 -8.568798e-06 -3.397239e-05 0.000000e+00 -3.397239e-05 4.351654e-06 0.000000e+00 0.000000e+00 0.000000e+00 0.000000e+00 4.250431e-05 -1.617755e-05 0.000000e+00 -1.617755e-05 1.758034e-07 0.000000e+00 0.000000e+00 0.000000e+00 0.000000e+00 4.551211e-05 -1.733057e-05 0.000000e+00 -1.733057e-05 -2.165250e-06 0.000000e+00 0.000000e+00 0.000000e+00 0.000000e+00 6.342161e-05 -2.222214e-05 0.000000e+00 -2.222214e-05 2.251469e-05 0.000000e+00 0.000000e+00 0.000000e+00 0.000000e+00 5.340327e-05 -2.446239e-05 0.000000e+00 -2.446239e-05 2.971972e-05 0.000000e+00 0.000000e+00 0.000000e+00 0.000000e+00 1.613521e-05 1.718695e-05 0.000000e+00 1.718695e-05 -4.870687e-06 0.000000e+00 0.000000e+00 0.000000e+00 0.000000e+00 8.979406e-06 -2.948307e-05 0.000000e+00 -2.948307e-05 -2.515899e-05 0.000000e+00 0.000000e+00 0.000000e+00 0.000000e+00 1.780898e-05 -1.491638e-05 0.000000e+00 -1.491638e-05 -5.205710e-05 0.000000e+00 0.000000e+00 0.000000e+00 0.000000e+00 -1.937783e-05 1.914190e-06 0.000000e+00 1.914190e-06 2.001223e-05 0.000000e+00 0.000000e+00 0.000000e+00 0.000000e+00 2.359129e-05 -1.057939e-05 0.000000e+00 -1.057939e-05 -3.647060e-05 0.000000e+00 0.000000e+00 0.000000e+00 0.000000e+00 6.756538e-06 -3.740984e-05 0.000000e+00 -3.740984e-05 -1.281390e-05 0.000000e+00 0.000000e+00 0.000000e+00 0.000000e+00 2.279910e-05 -9.158158e-06 0.000000e+00 -9.158158e-06 -5.379161e-05 0.000000e+00 0.000000e+00 0.000000e+00 0.000000e+00 2.195901e-05 -6.599214e-06 0.000000e+00 -6.599214e-06 -5.533110e-05 0.000000e+00 0.000000e+00 0.000000e+00 0.000000e+00 2.477446e-05 -7.427006e-06 0.000000e+00 -7.427006e-06 -5.298945e-05 0.000000e+00 0.000000e+00 0.000000e+00 0.000000e+00 2.567826e-05 2.614752e-05 0.000000e+00 2.614752e-05 2.859338e-07 0.000000e+00 0.000000e+00 0.000000e+00 0.000000e+00 2.445176e-05 3.478193e-05 0.000000e+00 3.478193e-05 1.662450e-05 0.000000e+00 0.000000e+00 0.000000e+00 0.000000e+00 1.795993e-05 -2.897344e-05 0.000000e+00 -2.897344e-05 -3.558903e-05 0.000000e+00 0.000000e+00 0.000000e+00 0.000000e+00 3.299735e-05 -1.249556e-05 0.000000e+00 -1.249556e-05 -1.571689e-05 0.000000e+00 0.000000e+00 0.000000e+00 0.000000e+00 2.926013e-05 -1.107843e-05 0.000000e+00 -1.107843e-05 -2.292241e-05 0.000000e+00 0.000000e+00 0.000000e+00 0.000000e+00 4.777026e-05 -1.886686e-05 0.000000e+00 -1.886686e-05 4.889470e-06 0.000000e+00 0.000000e+00 0.000000e+00 0.000000e+00 4.557487e-05 -1.651002e-05 0.000000e+00 -1.651002e-05 3.161834e-06 0.000000e+00 0.000000e+00 0.000000e+00 0.000000e+00 4.863247e-05 -1.701458e-05 0.000000e+00 -1.701458e-05 5.991364e-06 0.000000e+00 0.000000e+00 0.000000e+00 0.000000e+00 -1.769580e-05 -2.240407e-05 0.000000e+00 -2.240407e-05 1.834964e-05 0.000000e+00 0.000000e+00 0.000000e+00 0.000000e+00 2.255182e-05 1.915808e-05 0.000000e+00 1.915808e-05 -5.201221e-06 0.000000e+00 0.000000e+00 0.000000e+00 0.000000e+00 2.486953e-05 3.073721e-05 0.000000e+00 3.073721e-05 7.937292e-06 0.000000e+00 0.000000e+00 0.000000e+00 0.000000e+00 1.915733e-05 2.838205e-05 0.000000e+00 2.838205e-05 8.900087e-06 0.000000e+00 0.000000e+00 0.000000e+00 0.000000e+00 1.706470e-05 2.461921e-05 0.000000e+00 2.461921e-05 3.162486e-06 0.000000e+00 0.000000e+00 0.000000e+00 0.000000e+00 2.497239e-05 -1.483187e-05 0.000000e+00 -1.483187e-05 -5.526811e-05 0.000000e+00 0.000000e+00 0.000000e+00 0.000000e+00 -4.357693e-06 2.516280e-05 0.000000e+00 2.516280e-05 4.447190e-06 0.000000e+00 0.000000e+00 0.000000e+00 0.000000e+00 2.122890e-05 1.682075e-05 0.000000e+00 1.682075e-05 -5.049963e-06 0.000000e+00 0.000000e+00 0.000000e+00 0.000000e+00 4.254003e-05 -2.303573e-05 0.000000e+00 -2.303573e-05 1.441549e-06 0.000000e+00 0.000000e+00 0.000000e+00 0.000000e+00 3.921000e-05 -1.505208e-05 0.000000e+00 -1.505208e-05 -2.885695e-06 0.000000e+00 0.000000e+00 0.000000e+00 0.000000e+00 2.355771e-05 -2.041532e-05 0.000000e+00 -2.041532e-05 -4.901240e-05 0.000000e+00 0.000000e+00 0.000000e+00 0.000000e+00 1.251085e-05 -2.521465e-05 0.000000e+00 -2.521465e-05 -3.296572e-05 0.000000e+00 0.000000e+00 0.000000e+00 0.000000e+00 -2.514354e-06 2.304843e-05 0.000000e+00 2.304843e-05 2.661412e-06 0.000000e+00 0.000000e+00 0.000000e+00 0.000000e+00 1.669061e-05 1.898023e-05 0.000000e+00 1.898023e-05 -5.013076e-06 0.000000e+00 0.000000e+00 0.000000e+00 0.000000e+00 2.959576e-05 -9.234276e-06 0.000000e+00 -9.234276e-06 -3.353901e-05 0.000000e+00 0.000000e+00 0.000000e+00 0.000000e+00 1.249328e-05 -3.885738e-05 0.000000e+00 -3.885738e-05 4.130719e-05 0.000000e+00 0.000000e+00 0.000000e+00 0.000000e+00 2.616265e-05 -9.811717e-06 0.000000e+00 -9.811717e-06 -3.034800e-05 0.000000e+00 0.000000e+00 0.000000e+00 0.000000e+00 6.663447e-06 2.312647e-05 0.000000e+00 2.312647e-05 9.393350e-07 0.000000e+00 0.000000e+00 0.000000e+00 0.000000e+00 5.425953e-05 -2.380987e-05 0.000000e+00 -2.380987e-05 1.764253e-05 0.000000e+00 0.000000e+00 0.000000e+00 0.000000e+00 -1.480767e-05 1.503606e-05 0.000000e+00 1.503606e-05 2.663791e-05 0.000000e+00 0.000000e+00 0.000000e+00 0.000000e+00 2.762451e-05 -4.101902e-06 0.000000e+00 -4.101902e-06 -8.299559e-05 0.000000e+00 0.000000e+00 0.000000e+00 0.000000e+00 5.486311e-05 -2.193759e-05 0.000000e+00 -2.193759e-05 2.250700e-05 0.000000e+00 0.000000e+00 0.000000e+00 0.000000e+00 8.980192e-07 2.538792e-05 0.000000e+00 2.538792e-05 3.027113e-06 0.000000e+00 0.000000e+00 0.000000e+00 0.000000e+00 -9.856448e-06 2.040091e-05 0.000000e+00 2.040091e-05 1.420037e-05 0.000000e+00 0.000000e+00 0.000000e+00 0.000000e+00 -3.510525e-06 2.272092e-05 0.000000e+00 2.272092e-05 1.349349e-05 0.000000e+00 0.000000e+00 0.000000e+00 0.000000e+00 5.728427e-05 -2.170123e-05 0.000000e+00 -2.170123e-05 1.810346e-05 0.000000e+00 0.000000e+00 0.000000e+00 0.000000e+00 2.713312e-05 -6.193684e-06 0.000000e+00 -6.193684e-06 -8.414241e-05 0.000000e+00 0.000000e+00 0.000000e+00 0.000000e+00 -3.317200e-08 2.278892e-05 0.000000e+00 2.278892e-05 3.065896e-06 0.000000e+00 0.000000e+00 0.000000e+00 0.000000e+00 5.653246e-05 -3.016795e-05 0.000000e+00 -3.016795e-05 2.803708e-05 0.000000e+00 0.000000e+00 0.000000e+00 0.000000e+00 4.846119e-05 -2.002292e-05 0.000000e+00 -2.002292e-05 1.517697e-05 0.000000e+00 0.000000e+00 0.000000e+00 0.000000e+00 1.869138e-05 -3.539718e-05 0.000000e+00 -3.539718e-05 2.491684e-05 0.000000e+00 0.000000e+00 0.000000e+00 0.000000e+00 2.454866e-06 -2.973316e-05 0.000000e+00 -2.973316e-05 6.067472e-05 0.000000e+00 0.000000e+00 0.000000e+00 0.000000e+00 -1.946037e-05 3.256447e-06 0.000000e+00 3.256447e-06 3.644232e-05 0.000000e+00 0.000000e+00 0.000000e+00 0.000000e+00 -1.155199e-05 1.262020e-05 0.000000e+00 1.262020e-05 2.209077e-05 0.000000e+00 0.000000e+00 0.000000e+00 0.000000e+00 -1.727534e-05 -1.943388e-06 0.000000e+00 -1.943388e-06 2.750730e-05 0.000000e+00 0.000000e+00 0.000000e+00 0.000000e+00 2.186015e-05 -2.543094e-05 0.000000e+00 -2.543094e-05 -4.228786e-05 0.000000e+00 0.000000e+00 0.000000e+00 0.000000e+00 2.467007e-05 -1.052322e-05 0.000000e+00 -1.052322e-05 -9.895040e-05 0.000000e+00 0.000000e+00 0.000000e+00 0.000000e+00 -1.703888e-05 -1.637812e-05 0.000000e+00 -1.637812e-05 2.706184e-05 0.000000e+00 0.000000e+00 0.000000e+00 0.000000e+00 4.051454e-05 -2.076623e-05 0.000000e+00 -2.076623e-05 3.472152e-06 0.000000e+00 0.000000e+00 0.000000e+00 0.000000e+00 4.310640e-05 -2.363833e-05 0.000000e+00 -2.363833e-05 6.186367e-06 0.000000e+00 0.000000e+00 0.000000e+00 0.000000e+00 2.641107e-05 -1.195400e-05 0.000000e+00 -1.195400e-05 -4.289076e-05 0.000000e+00 0.000000e+00 0.000000e+00 0.000000e+00 1.507180e-05 4.538106e-05 0.000000e+00 4.538106e-05 5.320166e-05 0.000000e+00 0.000000e+00 0.000000e+00 0.000000e+00 1.171756e-05 3.436526e-05 0.000000e+00 3.436526e-05 4.146293e-05 0.000000e+00 0.000000e+00 0.000000e+00 0.000000e+00 2.929402e-06 2.599012e-05 0.000000e+00 2.599012e-05 5.608917e-06 0.000000e+00 0.000000e+00 0.000000e+00 0.000000e+00 8.586815e-06 2.396535e-06 0.000000e+00 2.396535e-06 1.182318e-04 0.000000e+00 0.000000e+00 0.000000e+00 0.000000e+00 1.674560e-05 -1.855096e-05 0.000000e+00 -1.855096e-05 -4.234298e-05 0.000000e+00 0.000000e+00 0.000000e+00 0.000000e+00 5.094458e-05 -2.752238e-05 0.000000e+00 -2.752238e-05 1.603037e-05 0.000000e+00 0.000000e+00 0.000000e+00 0.000000e+00 3.193133e-05 -1.081747e-05 0.000000e+00 -1.081747e-05 -2.551725e-05 0.000000e+00 0.000000e+00 0.000000e+00 0.000000e+00 5.301298e-05 -3.814366e-05 0.000000e+00 -3.814366e-05 1.090977e-04 0.000000e+00 0.000000e+00 0.000000e+00 0.000000e+00 2.588371e-05 -2.955873e-05 0.000000e+00 -2.955873e-05 1.341508e-04 0.000000e+00 0.000000e+00 0.000000e+00 0.000000e+00 3.491841e-05 -1.804690e-05 0.000000e+00 -1.804690e-05 -1.600420e-05 0.000000e+00 0.000000e+00 0.000000e+00 0.000000e+00 6.358167e-05 -4.212324e-05 0.000000e+00 -4.212324e-05 9.009577e-05 0.000000e+00 0.000000e+00 0.000000e+00 0.000000e+00 3.729775e-05 -3.310523e-05 0.000000e+00 -3.310523e-05 1.075037e-04 0.000000e+00 0.000000e+00 0.000000e+00 0.000000e+00 1.412280e-05 2.185368e-05 0.000000e+00 2.185368e-05 -2.070049e-06 0.000000e+00 0.000000e+00 0.000000e+00 0.000000e+00 9.604250e-06 2.585182e-05 0.000000e+00 2.585182e-05 2.311938e-06 0.000000e+00 0.000000e+00 0.000000e+00 0.000000e+00 1.761087e-06 1.287016e-05 0.000000e+00 1.287016e-05 1.345618e-04 0.000000e+00 0.000000e+00 0.000000e+00 0.000000e+00 1.903109e-05 -3.039582e-05 0.000000e+00 -3.039582e-05 -3.086019e-05 0.000000e+00 0.000000e+00 0.000000e+00 0.000000e+00 2.867563e-06 2.825067e-05 0.000000e+00 2.825067e-05 1.109723e-04 0.000000e+00 0.000000e+00 0.000000e+00 0.000000e+00 -9.119965e-07 -3.710474e-05 0.000000e+00 -3.710474e-05 -2.547398e-06 0.000000e+00 0.000000e+00 0.000000e+00 0.000000e+00 4.857221e-05 -3.562295e-05 0.000000e+00 -3.562295e-05 8.756036e-05 0.000000e+00 0.000000e+00 0.000000e+00 0.000000e+00 4.509871e-06 -3.406205e-05 0.000000e+00 -3.406205e-05 -1.074456e-05 0.000000e+00 0.000000e+00 0.000000e+00 0.000000e+00 2.704493e-05 -1.260823e-05 0.000000e+00 -1.260823e-05 -3.564168e-05 0.000000e+00 0.000000e+00 0.000000e+00 0.000000e+00 5.143873e-05 -4.049054e-05 0.000000e+00 -4.049054e-05 6.044478e-05 0.000000e+00 0.000000e+00 0.000000e+00 0.000000e+00 -1.613918e-06 -3.472001e-05 0.000000e+00 -3.472001e-05 -2.639984e-06 0.000000e+00 0.000000e+00 0.000000e+00 0.000000e+00 1.343793e-05 -3.527598e-05 0.000000e+00 -3.527598e-05 -2.181149e-05 0.000000e+00 0.000000e+00 0.000000e+00 0.000000e+00 3.503772e-05 -1.883170e-05 0.000000e+00 -1.883170e-05 -7.879758e-06 0.000000e+00 0.000000e+00 0.000000e+00 0.000000e+00 2.421507e-05 3.483369e-05 0.000000e+00 3.483369e-05 1.663050e-05 0.000000e+00 0.000000e+00 0.000000e+00 0.000000e+00 2.510316e-05 2.202679e-05 0.000000e+00 2.202679e-05 -3.644258e-06 0.000000e+00 0.000000e+00 0.000000e+00 0.000000e+00 -7.617097e-07 2.455917e-05 0.000000e+00 2.455917e-05 6.294458e-06 0.000000e+00 0.000000e+00 0.000000e+00 0.000000e+00 1.840734e-05 2.273398e-05 0.000000e+00 2.273398e-05 -1.307449e-06 0.000000e+00 0.000000e+00 0.000000e+00 0.000000e+00 2.890621e-05 -1.590477e-05 0.000000e+00 -1.590477e-05 -2.765686e-05 0.000000e+00 0.000000e+00 0.000000e+00 0.000000e+00 4.188994e-05 -2.128538e-05 0.000000e+00 -2.128538e-05 -3.050759e-06 0.000000e+00 0.000000e+00 0.000000e+00 0.000000e+00 3.810847e-05 -2.012644e-05 0.000000e+00 -2.012644e-05 -3.489440e-07 0.000000e+00 0.000000e+00 0.000000e+00 0.000000e+00 -1.727546e-05 -2.504132e-05 0.000000e+00 -2.504132e-05 3.262329e-05 0.000000e+00 0.000000e+00 0.000000e+00 0.000000e+00 5.283347e-05 -3.495823e-05 0.000000e+00 -3.495823e-05 4.164131e-05 0.000000e+00 0.000000e+00 0.000000e+00 0.000000e+00 1.843098e-05 -1.361052e-05 0.000000e+00 -1.361052e-05 -4.923890e-05 0.000000e+00 0.000000e+00 0.000000e+00 0.000000e+00 5.411164e-05 -2.956074e-05 0.000000e+00 -2.956074e-05 4.655755e-05 0.000000e+00 0.000000e+00 0.000000e+00 0.000000e+00 -1.608925e-05 -2.849398e-05 0.000000e+00 -2.849398e-05 1.241211e-05 0.000000e+00 0.000000e+00 0.000000e+00 0.000000e+00 -8.478394e-06 -3.289525e-05 0.000000e+00 -3.289525e-05 5.006996e-06 0.000000e+00 0.000000e+00 0.000000e+00 0.000000e+00 3.515168e-05 -1.957297e-05 0.000000e+00 -1.957297e-05 -1.183541e-05 0.000000e+00 0.000000e+00 0.000000e+00 0.000000e+00 3.596909e-05 -1.773565e-05 0.000000e+00 -1.773565e-05 -1.062473e-05 0.000000e+00 0.000000e+00 0.000000e+00 0.000000e+00 4.694904e-05 -2.800516e-05 0.000000e+00 -2.800516e-05 2.754942e-05 0.000000e+00 0.000000e+00 0.000000e+00 0.000000e+00 2.138747e-05 -9.358513e-06 0.000000e+00 -9.358513e-06 -4.651495e-05 0.000000e+00 0.000000e+00 0.000000e+00 0.000000e+00 2.548718e-05 -9.571565e-06 0.000000e+00 -9.571565e-06 -4.653478e-05 0.000000e+00 0.000000e+00 0.000000e+00 0.000000e+00 -7.245588e-06 -3.669125e-05 0.000000e+00 -3.669125e-05 1.049603e-05 0.000000e+00 0.000000e+00 0.000000e+00 0.000000e+00 4.422511e-05 -2.921825e-05 0.000000e+00 -2.921825e-05 3.781467e-05 0.000000e+00 0.000000e+00 0.000000e+00 0.000000e+00 2.213728e-05 -1.310633e-05 0.000000e+00 -1.310633e-05 -3.858132e-05 0.000000e+00 0.000000e+00 0.000000e+00 0.000000e+00 2.630520e-05 -1.484404e-05 0.000000e+00 -1.484404e-05 -3.828404e-05 0.000000e+00 0.000000e+00 0.000000e+00 0.000000e+00 1.077657e-05 -2.987498e-05 0.000000e+00 -2.987498e-05 -2.143618e-05 0.000000e+00 0.000000e+00 0.000000e+00 0.000000e+00 2.450961e-05 -1.137694e-05 0.000000e+00 -1.137694e-05 -4.885622e-05 0.000000e+00 0.000000e+00 0.000000e+00 0.000000e+00 2.811116e-05 -1.594854e-05 0.000000e+00 -1.594854e-05 -2.297372e-05 0.000000e+00 0.000000e+00 0.000000e+00 0.000000e+00 3.168131e-05 -1.716982e-05 0.000000e+00 -1.716982e-05 -1.323117e-05 0.000000e+00 0.000000e+00 0.000000e+00 0.000000e+00 2.821781e-06 2.639237e-05 0.000000e+00 2.639237e-05 7.928930e-05 0.000000e+00 0.000000e+00 0.000000e+00 0.000000e+00 4.381048e-06 3.459195e-05 0.000000e+00 3.459195e-05 8.499467e-05 0.000000e+00 0.000000e+00 0.000000e+00 0.000000e+00 3.810803e-05 -3.209687e-05 0.000000e+00 -3.209687e-05 6.855305e-05 0.000000e+00 0.000000e+00 0.000000e+00 0.000000e+00 4.808045e-05 -4.167049e-05 0.000000e+00 -4.167049e-05 7.774355e-05 0.000000e+00 0.000000e+00 0.000000e+00 0.000000e+00 1.348477e-05 -3.411825e-05 0.000000e+00 -3.411825e-05 9.702832e-06 0.000000e+00 0.000000e+00 0.000000e+00 0.000000e+00 3.993138e-05 -1.941938e-05 0.000000e+00 -1.941938e-05 -7.847182e-06 0.000000e+00 0.000000e+00 0.000000e+00 0.000000e+00 2.882342e-05 -1.399496e-05 0.000000e+00 -1.399496e-05 -2.573588e-05 0.000000e+00 0.000000e+00 0.000000e+00 0.000000e+00 -1.524027e-05 -3.145571e-05 0.000000e+00 -3.145571e-05 1.900714e-05 0.000000e+00 0.000000e+00 0.000000e+00 0.000000e+00 1.991214e-05 -1.036067e-05 0.000000e+00 -1.036067e-05 -4.904767e-05 0.000000e+00 0.000000e+00 0.000000e+00 0.000000e+00 3.442463e-05 -1.515507e-05 0.000000e+00 -1.515507e-05 -1.988877e-05 0.000000e+00 0.000000e+00 0.000000e+00 0.000000e+00 3.036575e-05 -1.552292e-05 0.000000e+00 -1.552292e-05 -1.992100e-05 0.000000e+00 0.000000e+00 0.000000e+00 0.000000e+00 2.963710e-05 -1.633035e-05 0.000000e+00 -1.633035e-05 -1.640188e-05 0.000000e+00 0.000000e+00 0.000000e+00 0.000000e+00 3.187013e-05 -1.463195e-05 0.000000e+00 -1.463195e-05 -2.255553e-05 0.000000e+00 0.000000e+00 0.000000e+00 0.000000e+00 -1.214443e-05 -2.791779e-05 0.000000e+00 -2.791779e-05 2.144265e-05 0.000000e+00 0.000000e+00 0.000000e+00 0.000000e+00 2.101616e-05 -2.471938e-05 0.000000e+00 -2.471938e-05 -3.701963e-05 0.000000e+00 0.000000e+00 0.000000e+00 0.000000e+00 1.426489e-06 1.769307e-05 0.000000e+00 1.769307e-05 9.974842e-05 0.000000e+00 0.000000e+00 0.000000e+00 0.000000e+00 3.290871e-05 -2.317410e-05 0.000000e+00 -2.317410e-05 -1.302694e-05 0.000000e+00 0.000000e+00 0.000000e+00 0.000000e+00 8.481087e-06 -3.855404e-05 0.000000e+00 -3.855404e-05 -7.869205e-06 0.000000e+00 0.000000e+00 0.000000e+00 0.000000e+00 3.585800e-07 2.264442e-05 0.000000e+00 2.264442e-05 5.711424e-06 0.000000e+00 0.000000e+00 0.000000e+00 0.000000e+00 1.565450e-05 -2.945241e-05 0.000000e+00 -2.945241e-05 -2.534527e-05 0.000000e+00 0.000000e+00 0.000000e+00 0.000000e+00 2.009055e-05 -2.256044e-05 0.000000e+00 -2.256044e-05 -3.525723e-05 0.000000e+00 0.000000e+00 0.000000e+00 0.000000e+00 4.910069e-05 -2.890646e-05 0.000000e+00 -2.890646e-05 2.323643e-05 0.000000e+00 0.000000e+00 0.000000e+00 0.000000e+00 2.492951e-05 -1.135543e-05 0.000000e+00 -1.135543e-05 -3.292655e-05 0.000000e+00 0.000000e+00 0.000000e+00 0.000000e+00 -3.637129e-06 -1.536349e-05 0.000000e+00 -1.536349e-05 6.414093e-05 0.000000e+00 0.000000e+00 0.000000e+00 0.000000e+00 1.486932e-07 -3.903653e-05 0.000000e+00 -3.903653e-05 1.653632e-06 0.000000e+00 0.000000e+00 0.000000e+00 0.000000e+00 -7.033237e-06 -3.429177e-05 0.000000e+00 -3.429177e-05 1.024109e-05 0.000000e+00 0.000000e+00 0.000000e+00 0.000000e+00 -7.281558e-07 -3.655776e-05 0.000000e+00 -3.655776e-05 3.526816e-06 0.000000e+00 0.000000e+00 0.000000e+00 0.000000e+00 1.951245e-05 -1.065044e-05 0.000000e+00 -1.065044e-05 -5.246054e-05 0.000000e+00 0.000000e+00 0.000000e+00 0.000000e+00 5.054552e-05 -2.310431e-05 0.000000e+00 -2.310431e-05 9.766795e-06 0.000000e+00 0.000000e+00 0.000000e+00 0.000000e+00 4.443712e-05 -2.304674e-05 0.000000e+00 -2.304674e-05 9.767178e-06 0.000000e+00 0.000000e+00 0.000000e+00 0.000000e+00 4.230927e-05 -2.511559e-05 0.000000e+00 -2.511559e-05 1.543242e-05 0.000000e+00 0.000000e+00 0.000000e+00 0.000000e+00 1.061412e-05 3.295208e-05 0.000000e+00 3.295208e-05 3.436819e-05 0.000000e+00 0.000000e+00 0.000000e+00 0.000000e+00 1.836317e-05 1.968164e-05 0.000000e+00 1.968164e-05 -4.272991e-06 0.000000e+00 0.000000e+00 0.000000e+00 0.000000e+00 -4.530745e-06 2.535007e-05 0.000000e+00 2.535007e-05 7.262468e-06 0.000000e+00 0.000000e+00 0.000000e+00 0.000000e+00 5.601201e-05 -3.280711e-05 0.000000e+00 -3.280711e-05 4.216649e-05 0.000000e+00 0.000000e+00 0.000000e+00 0.000000e+00 2.346163e-05 -1.874516e-05 0.000000e+00 -1.874516e-05 -4.552093e-05 0.000000e+00 0.000000e+00 0.000000e+00 0.000000e+00 4.085442e-05 -2.791909e-05 0.000000e+00 -2.791909e-05 2.315969e-05 0.000000e+00 0.000000e+00 0.000000e+00 0.000000e+00 5.243052e-07 -2.220679e-06 0.000000e+00 -2.220679e-06 1.154801e-04 0.000000e+00 0.000000e+00 0.000000e+00 0.000000e+00 3.828088e-05 -3.450615e-05 0.000000e+00 -3.450615e-05 3.438350e-05 0.000000e+00 0.000000e+00 0.000000e+00 0.000000e+00 1.727149e-05 2.391263e-05 0.000000e+00 2.391263e-05 -1.583786e-06 0.000000e+00 0.000000e+00 0.000000e+00 0.000000e+00 4.349162e-05 -3.277698e-05 0.000000e+00 -3.277698e-05 2.161598e-05 0.000000e+00 0.000000e+00 0.000000e+00 0.000000e+00 -1.712014e-05 -1.728758e-05 0.000000e+00 -1.728758e-05 4.469326e-05 0.000000e+00 0.000000e+00 0.000000e+00 0.000000e+00 2.202574e-05 -1.158394e-05 0.000000e+00 -1.158394e-05 -4.278311e-05 0.000000e+00 0.000000e+00 0.000000e+00 0.000000e+00 4.042081e-05 -3.415028e-05 0.000000e+00 -3.415028e-05 5.695281e-05 0.000000e+00 0.000000e+00 0.000000e+00 0.000000e+00 4.480208e-05 -1.465419e-05 0.000000e+00 -1.465419e-05 -6.316537e-06 0.000000e+00 0.000000e+00 0.000000e+00 0.000000e+00 2.504274e-05 -1.327317e-05 0.000000e+00 -1.327317e-05 -5.178019e-05 0.000000e+00 0.000000e+00 0.000000e+00 0.000000e+00 4.561743e-05 -3.411643e-05 0.000000e+00 -3.411643e-05 3.428152e-05 0.000000e+00 0.000000e+00 0.000000e+00 0.000000e+00 -3.420407e-06 2.209885e-05 0.000000e+00 2.209885e-05 1.729140e-05 0.000000e+00 0.000000e+00 0.000000e+00 0.000000e+00 1.237847e-05 -1.960305e-05 0.000000e+00 -1.960305e-05 1.262302e-04 0.000000e+00 0.000000e+00 0.000000e+00 0.000000e+00 8.815633e-06 -9.194997e-06 0.000000e+00 -9.194997e-06 9.672627e-05 0.000000e+00 0.000000e+00 0.000000e+00 0.000000e+00 4.113535e-05 -3.855655e-05 0.000000e+00 -3.855655e-05 5.189318e-05 0.000000e+00 0.000000e+00 0.000000e+00 0.000000e+00 1.406841e-05 -3.536824e-05 0.000000e+00 -3.536824e-05 -1.523608e-05 0.000000e+00 0.000000e+00 0.000000e+00 0.000000e+00 2.514520e-05 -2.109786e-05 0.000000e+00 -2.109786e-05 -2.264629e-05 0.000000e+00 0.000000e+00 0.000000e+00 0.000000e+00 2.273181e-05 -1.006888e-05 0.000000e+00 -1.006888e-05 -4.613968e-05 0.000000e+00 0.000000e+00 0.000000e+00 0.000000e+00 2.238742e-05 -1.553472e-05 0.000000e+00 -1.553472e-05 -4.315181e-05 0.000000e+00 0.000000e+00 0.000000e+00 0.000000e+00 3.902059e-05 -2.872485e-05 0.000000e+00 -2.872485e-05 7.184596e-06 0.000000e+00 0.000000e+00 0.000000e+00 0.000000e+00 1.759710e-05 -2.829606e-05 0.000000e+00 -2.829606e-05 -2.509175e-05 0.000000e+00 0.000000e+00 0.000000e+00 0.000000e+00 2.481432e-05 -1.383168e-05 0.000000e+00 -1.383168e-05 -2.833384e-05 0.000000e+00 0.000000e+00 0.000000e+00 0.000000e+00 -6.512791e-07 3.644446e-06 0.000000e+00 3.644446e-06 8.638892e-05 0.000000e+00 0.000000e+00 0.000000e+00 0.000000e+00 3.529337e-05 -3.045907e-05 0.000000e+00 -3.045907e-05 2.896906e-05 0.000000e+00 0.000000e+00 0.000000e+00 0.000000e+00 -1.264576e-05 -3.026056e-05 0.000000e+00 -3.026056e-05 1.351189e-05 0.000000e+00 0.000000e+00 0.000000e+00 0.000000e+00 3.070713e-05 -3.450916e-05 0.000000e+00 -3.450916e-05 5.040935e-05 0.000000e+00 0.000000e+00 0.000000e+00 0.000000e+00 3.100573e-05 -3.733456e-05 0.000000e+00 -3.733456e-05 4.457562e-05 0.000000e+00 0.000000e+00 0.000000e+00 0.000000e+00 2.926755e-05 -2.182613e-05 0.000000e+00 -2.182613e-05 -9.618351e-06 0.000000e+00 0.000000e+00 0.000000e+00 0.000000e+00 3.309264e-05 -2.491180e-05 0.000000e+00 -2.491180e-05 -7.662778e-06 0.000000e+00 0.000000e+00 0.000000e+00 0.000000e+00 2.034125e-05 -1.215301e-05 0.000000e+00 -1.215301e-05 -4.697263e-05 0.000000e+00 0.000000e+00 0.000000e+00 0.000000e+00 2.669577e-05 -1.926698e-05 0.000000e+00 -1.926698e-05 -1.848161e-05 0.000000e+00 0.000000e+00 0.000000e+00 0.000000e+00 3.290731e-05 -1.958036e-05 0.000000e+00 -1.958036e-05 -1.848577e-05 0.000000e+00 0.000000e+00 0.000000e+00 0.000000e+00 2.835300e-06 2.695941e-05 0.000000e+00 2.695941e-05 5.756730e-05 0.000000e+00 0.000000e+00 0.000000e+00 0.000000e+00 1.822488e-05 -3.914273e-05 0.000000e+00 -3.914273e-05 2.484775e-05 0.000000e+00 0.000000e+00 0.000000e+00 0.000000e+00 -1.214056e-05 -2.977389e-05 0.000000e+00 -2.977389e-05 3.509305e-05 0.000000e+00 0.000000e+00 0.000000e+00 0.000000e+00 3.617743e-06 2.654072e-05 0.000000e+00 2.654072e-05 8.259828e-06 0.000000e+00 0.000000e+00 0.000000e+00 0.000000e+00 9.057595e-06 2.324885e-05 0.000000e+00 2.324885e-05 2.136353e-06 0.000000e+00 0.000000e+00 0.000000e+00 0.000000e+00 4.945822e-05 -3.527730e-05 0.000000e+00 -3.527730e-05 7.772435e-05 0.000000e+00 0.000000e+00 0.000000e+00 0.000000e+00 1.858021e-05 2.295316e-05 0.000000e+00 2.295316e-05 -1.411982e-06 0.000000e+00 0.000000e+00 0.000000e+00 0.000000e+00 2.723401e-05 -2.058513e-05 0.000000e+00 -2.058513e-05 -1.397980e-05 0.000000e+00 0.000000e+00 0.000000e+00 0.000000e+00 1.887612e-05 -1.654869e-05 0.000000e+00 -1.654869e-05 -4.120090e-05 0.000000e+00 0.000000e+00 0.000000e+00 0.000000e+00 -4.296308e-06 9.225847e-06 0.000000e+00 9.225847e-06 9.749349e-05 0.000000e+00 0.000000e+00 0.000000e+00 0.000000e+00 3.555381e-05 -1.833797e-05 0.000000e+00 -1.833797e-05 -4.199777e-06 0.000000e+00 0.000000e+00 0.000000e+00 0.000000e+00 -7.647075e-06 2.167836e-05 0.000000e+00 2.167836e-05 5.648300e-06 0.000000e+00 0.000000e+00 0.000000e+00 0.000000e+00 4.504415e-05 -2.771390e-05 0.000000e+00 -2.771390e-05 1.248131e-05 0.000000e+00 0.000000e+00 0.000000e+00 0.000000e+00 4.493878e-05 -2.171778e-05 0.000000e+00 -2.171778e-05 6.697692e-06 0.000000e+00 0.000000e+00 0.000000e+00 0.000000e+00 -1.213756e-05 -2.230408e-05 0.000000e+00 -2.230408e-05 3.082628e-05 0.000000e+00 0.000000e+00 0.000000e+00 0.000000e+00 2.380161e-05 -2.132796e-05 0.000000e+00 -2.132796e-05 -2.833870e-05 0.000000e+00 0.000000e+00 0.000000e+00 0.000000e+00 7.808332e-06 2.693207e-05 0.000000e+00 2.693207e-05 8.064670e-06 0.000000e+00 0.000000e+00 0.000000e+00 0.000000e+00 1.223136e-05 2.700802e-05 0.000000e+00 2.700802e-05 5.638694e-06 0.000000e+00 0.000000e+00 0.000000e+00 0.000000e+00 -1.197231e-05 -3.325576e-05 0.000000e+00 -3.325576e-05 2.367364e-05 0.000000e+00 0.000000e+00 0.000000e+00 0.000000e+00 8.492507e-06 2.437129e-05 0.000000e+00 2.437129e-05 6.375947e-06 0.000000e+00 0.000000e+00 0.000000e+00 0.000000e+00 -1.121554e-05 1.590080e-05 0.000000e+00 1.590080e-05 3.850493e-05 0.000000e+00 0.000000e+00 0.000000e+00 0.000000e+00 3.007592e-05 -1.990885e-05 0.000000e+00 -1.990885e-05 -2.238396e-05 0.000000e+00 0.000000e+00 0.000000e+00 0.000000e+00 1.486003e-05 3.000179e-05 0.000000e+00 3.000179e-05 1.129802e-05 0.000000e+00 0.000000e+00 0.000000e+00 0.000000e+00 8.408678e-06 2.759862e-05 0.000000e+00 2.759862e-05 2.199399e-05 0.000000e+00 0.000000e+00 0.000000e+00 0.000000e+00 -5.002463e-06 -3.652145e-05 0.000000e+00 -3.652145e-05 1.223087e-05 0.000000e+00 0.000000e+00 0.000000e+00 0.000000e+00 3.523958e-05 -3.037429e-05 0.000000e+00 -3.037429e-05 2.093356e-05 0.000000e+00 0.000000e+00 0.000000e+00 0.000000e+00 1.251261e-05 3.222764e-05 0.000000e+00 3.222764e-05 2.244685e-05 0.000000e+00 0.000000e+00 0.000000e+00 0.000000e+00 3.088715e-05 -7.044563e-06 0.000000e+00 -7.044563e-06 -8.333173e-05 0.000000e+00 0.000000e+00 0.000000e+00 0.000000e+00 2.496176e-05 -1.510153e-05 0.000000e+00 -1.510153e-05 -4.307924e-05 0.000000e+00 0.000000e+00 0.000000e+00 0.000000e+00 2.512530e-05 -9.504168e-06 0.000000e+00 -9.504168e-06 -5.903796e-05 0.000000e+00 0.000000e+00 0.000000e+00 0.000000e+00 -3.262101e-06 1.933865e-05 0.000000e+00 1.933865e-05 2.286980e-05 0.000000e+00 0.000000e+00 0.000000e+00 0.000000e+00 3.817582e-05 -2.729293e-05 0.000000e+00 -2.729293e-05 2.029652e-06 0.000000e+00 0.000000e+00 0.000000e+00 0.000000e+00 3.411923e-05 -2.512759e-05 0.000000e+00 -2.512759e-05 4.579894e-06 0.000000e+00 0.000000e+00 0.000000e+00 0.000000e+00 -1.729114e-05 -6.145952e-07 0.000000e+00 -6.145952e-07 4.645901e-05 0.000000e+00 0.000000e+00 0.000000e+00 0.000000e+00 -1.145247e-05 9.078572e-06 0.000000e+00 9.078572e-06 3.154463e-05 0.000000e+00 0.000000e+00 0.000000e+00 0.000000e+00 -1.542927e-05 -7.868194e-06 0.000000e+00 -7.868194e-06 3.488627e-05 0.000000e+00 0.000000e+00 0.000000e+00 0.000000e+00 2.870287e-05 -4.235276e-06 0.000000e+00 -4.235276e-06 -8.592040e-05 0.000000e+00 0.000000e+00 0.000000e+00 0.000000e+00 2.721016e-05 -1.900518e-05 0.000000e+00 -1.900518e-05 -2.707753e-05 0.000000e+00 0.000000e+00 0.000000e+00 0.000000e+00 1.723451e-05 -3.154473e-05 0.000000e+00 -3.154473e-05 -1.682108e-05 0.000000e+00 0.000000e+00 0.000000e+00 0.000000e+00 3.690834e-05 -3.732180e-05 0.000000e+00 -3.732180e-05 1.019606e-04 0.000000e+00 0.000000e+00 0.000000e+00 0.000000e+00 -7.757659e-08 -1.358097e-05 0.000000e+00 -1.358097e-05 9.816470e-05 0.000000e+00 0.000000e+00 0.000000e+00 0.000000e+00 3.416113e-05 -3.749113e-05 0.000000e+00 -3.749113e-05 2.935744e-05 0.000000e+00 0.000000e+00 0.000000e+00 0.000000e+00 2.353319e-05 -3.249781e-05 0.000000e+00 -3.249781e-05 4.145918e-05 0.000000e+00 0.000000e+00 0.000000e+00 0.000000e+00 3.161233e-05 -2.270638e-05 0.000000e+00 -2.270638e-05 -5.551764e-06 0.000000e+00 0.000000e+00 0.000000e+00 0.000000e+00 3.028289e-05 -2.861430e-05 0.000000e+00 -2.861430e-05 -8.711680e-06 0.000000e+00 0.000000e+00 0.000000e+00 0.000000e+00 2.075076e-05 -1.903387e-05 0.000000e+00 -1.903387e-05 1.129734e-04 0.000000e+00 0.000000e+00 0.000000e+00 0.000000e+00 -5.316130e-06 -3.087013e-05 0.000000e+00 -3.087013e-05 2.298212e-05 0.000000e+00 0.000000e+00 0.000000e+00 0.000000e+00 3.717084e-05 -3.159017e-05 0.000000e+00 -3.159017e-05 1.601267e-05 0.000000e+00 0.000000e+00 0.000000e+00 0.000000e+00 1.922275e-05 -2.510365e-05 0.000000e+00 -2.510365e-05 -2.700468e-05 0.000000e+00 0.000000e+00 0.000000e+00 0.000000e+00 2.784478e-05 -3.339496e-05 0.000000e+00 -3.339496e-05 1.002593e-04 0.000000e+00 0.000000e+00 0.000000e+00 0.000000e+00 2.619375e-05 -1.680617e-05 0.000000e+00 -1.680617e-05 -3.303561e-05 0.000000e+00 0.000000e+00 0.000000e+00 0.000000e+00 2.296265e-05 -1.419959e-05 0.000000e+00 -1.419959e-05 -3.458940e-05 0.000000e+00 0.000000e+00 0.000000e+00 0.000000e+00 2.827634e-05 -1.504660e-05 0.000000e+00 -1.504660e-05 -3.196294e-05 0.000000e+00 0.000000e+00 0.000000e+00 0.000000e+00 3.049415e-06 -4.007894e-05 0.000000e+00 -4.007894e-05 6.308083e-06 0.000000e+00 0.000000e+00 0.000000e+00 0.000000e+00 3.971038e-05 -2.827251e-05 0.000000e+00 -2.827251e-05 1.250561e-05 0.000000e+00 0.000000e+00 0.000000e+00 0.000000e+00 3.930982e-05 -2.600489e-05 0.000000e+00 -2.600489e-05 8.177411e-06 0.000000e+00 0.000000e+00 0.000000e+00 0.000000e+00 3.035871e-05 -2.516523e-05 0.000000e+00 -2.516523e-05 -1.590737e-05 0.000000e+00 0.000000e+00 0.000000e+00 0.000000e+00 2.355907e-05 -2.324963e-05 0.000000e+00 -2.324963e-05 -1.635473e-05 0.000000e+00 0.000000e+00 0.000000e+00 0.000000e+00 1.174811e-05 3.418568e-05 0.000000e+00 3.418568e-05 3.498391e-05 0.000000e+00 0.000000e+00 0.000000e+00 0.000000e+00 3.253489e-05 -4.020544e-05 0.000000e+00 -4.020544e-05 7.832500e-05 0.000000e+00 0.000000e+00 0.000000e+00 0.000000e+00 3.265156e-05 -3.325389e-05 0.000000e+00 -3.325389e-05 1.585555e-05 0.000000e+00 0.000000e+00 0.000000e+00 0.000000e+00 2.418920e-05 -3.158715e-05 0.000000e+00 -3.158715e-05 6.944311e-05 0.000000e+00 0.000000e+00 0.000000e+00 0.000000e+00 2.372103e-05 -3.453671e-05 0.000000e+00 -3.453671e-05 6.228409e-05 0.000000e+00 0.000000e+00 0.000000e+00 0.000000e+00 2.551315e-05 -2.629391e-05 0.000000e+00 -2.629391e-05 8.203150e-05 0.000000e+00 0.000000e+00 0.000000e+00 0.000000e+00 -1.231367e-05 -2.325718e-05 0.000000e+00 -2.325718e-05 4.982730e-05 0.000000e+00 0.000000e+00 0.000000e+00 0.000000e+00 -4.386798e-06 1.270956e-05 0.000000e+00 1.270956e-05 7.715093e-05 0.000000e+00 0.000000e+00 0.000000e+00 0.000000e+00 6.820878e-06 -3.749425e-05 0.000000e+00 -3.749425e-05 -2.333516e-06 0.000000e+00 0.000000e+00 0.000000e+00 0.000000e+00 1.405699e-05 -3.320260e-05 0.000000e+00 -3.320260e-05 -1.442913e-05 0.000000e+00 0.000000e+00 0.000000e+00 0.000000e+00 1.369735e-05 -3.615451e-05 0.000000e+00 -3.615451e-05 -5.324142e-06 0.000000e+00 0.000000e+00 0.000000e+00 0.000000e+00 1.900820e-05 -2.980488e-05 0.000000e+00 -2.980488e-05 -1.655310e-05 0.000000e+00 0.000000e+00 0.000000e+00 0.000000e+00 -1.066954e-06 2.534129e-05 0.000000e+00 2.534129e-05 3.838673e-05 0.000000e+00 0.000000e+00 0.000000e+00 0.000000e+00 -3.624535e-06 1.993529e-05 0.000000e+00 1.993529e-05 3.574552e-05 0.000000e+00 0.000000e+00 0.000000e+00 0.000000e+00 -2.331420e-06 2.468468e-05 0.000000e+00 2.468468e-05 5.223700e-05 0.000000e+00 0.000000e+00 0.000000e+00 0.000000e+00 -1.121638e-05 1.169137e-05 0.000000e+00 1.169137e-05 5.145757e-05 0.000000e+00 0.000000e+00 0.000000e+00 0.000000e+00 3.473246e-05 -2.340208e-05 0.000000e+00 -2.340208e-05 -1.453092e-06 0.000000e+00 0.000000e+00 0.000000e+00 0.000000e+00 2.666889e-05 -3.401312e-05 0.000000e+00 -3.401312e-05 2.774464e-05 0.000000e+00 0.000000e+00 0.000000e+00 0.000000e+00 1.154818e-05 -3.079731e-05 0.000000e+00 -3.079731e-05 4.177174e-05 0.000000e+00 0.000000e+00 0.000000e+00 0.000000e+00 1.608543e-05 -3.258090e-05 0.000000e+00 -3.258090e-05 6.222538e-05 0.000000e+00 0.000000e+00 0.000000e+00 0.000000e+00 2.469590e-05 -2.505906e-05 0.000000e+00 -2.505906e-05 -1.067851e-05 0.000000e+00 0.000000e+00 0.000000e+00 0.000000e+00 2.420743e-05 -2.016365e-05 0.000000e+00 -2.016365e-05 -3.558950e-05 0.000000e+00 0.000000e+00 0.000000e+00 0.000000e+00 3.670577e-05 -2.615037e-05 0.000000e+00 -2.615037e-05 -3.438533e-06 0.000000e+00 0.000000e+00 0.000000e+00 0.000000e+00 1.174482e-05 -2.686769e-05 0.000000e+00 -2.686769e-05 1.031866e-04 0.000000e+00 0.000000e+00 0.000000e+00 0.000000e+00 -1.062686e-05 -1.573299e-05 0.000000e+00 -1.573299e-05 4.125191e-05 0.000000e+00 0.000000e+00 0.000000e+00 0.000000e+00 2.288331e-05 -2.445061e-05 0.000000e+00 -2.445061e-05 -2.689342e-05 0.000000e+00 0.000000e+00 0.000000e+00 0.000000e+00 3.072102e-05 -3.108203e-05 0.000000e+00 -3.108203e-05 -1.867990e-06 0.000000e+00 0.000000e+00 0.000000e+00 0.000000e+00 2.908655e-05 -1.376135e-05 0.000000e+00 -1.376135e-05 -3.192309e-05 0.000000e+00 0.000000e+00 0.000000e+00 0.000000e+00 2.565661e-05 -2.686789e-05 0.000000e+00 -2.686789e-05 -5.088415e-06 0.000000e+00 0.000000e+00 0.000000e+00 0.000000e+00 3.662336e-05 -3.666755e-06 0.000000e+00 -3.666755e-06 -1.046335e-04 0.000000e+00 0.000000e+00 0.000000e+00 0.000000e+00 -5.062384e-06 -3.453356e-05 0.000000e+00 -3.453356e-05 1.569064e-05 0.000000e+00 0.000000e+00 0.000000e+00 0.000000e+00 2.046962e-05 -1.608578e-05 0.000000e+00 -1.608578e-05 -3.703077e-05 0.000000e+00 0.000000e+00 0.000000e+00 0.000000e+00 -3.352339e-06 -3.053097e-05 0.000000e+00 -3.053097e-05 3.231766e-05 0.000000e+00 0.000000e+00 0.000000e+00 0.000000e+00 -5.674580e-06 -3.170506e-05 0.000000e+00 -3.170506e-05 3.385247e-05 0.000000e+00 0.000000e+00 0.000000e+00 0.000000e+00 2.950443e-05 -2.932015e-05 0.000000e+00 -2.932015e-05 1.121136e-05 0.000000e+00 0.000000e+00 0.000000e+00 0.000000e+00 8.157395e-06 -2.735176e-05 0.000000e+00 -2.735176e-05 8.397295e-05 0.000000e+00 0.000000e+00 0.000000e+00 0.000000e+00 6.745668e-06 2.478170e-05 0.000000e+00 2.478170e-05 1.293116e-05 0.000000e+00 0.000000e+00 0.000000e+00 0.000000e+00 -1.549714e-05 -7.450061e-06 0.000000e+00 -7.450061e-06 5.812264e-05 0.000000e+00 0.000000e+00 0.000000e+00 0.000000e+00 2.210145e-06 -3.666364e-05 0.000000e+00 -3.666364e-05 8.266925e-06 0.000000e+00 0.000000e+00 0.000000e+00 0.000000e+00 9.758459e-06 -3.851198e-05 0.000000e+00 -3.851198e-05 -2.030921e-06 0.000000e+00 0.000000e+00 0.000000e+00 0.000000e+00 -8.393447e-07 -9.373601e-06 0.000000e+00 -9.373601e-06 7.586925e-05 0.000000e+00 0.000000e+00 0.000000e+00 0.000000e+00 -6.854158e-06 -6.254240e-06 0.000000e+00 -6.254240e-06 8.580026e-05 0.000000e+00 0.000000e+00 0.000000e+00 0.000000e+00 8.806563e-06 -3.910303e-05 0.000000e+00 -3.910303e-05 6.095305e-06 0.000000e+00 0.000000e+00 0.000000e+00 0.000000e+00 1.636440e-05 -3.560257e-05 0.000000e+00 -3.560257e-05 -5.342257e-06 0.000000e+00 0.000000e+00 0.000000e+00 0.000000e+00 2.255682e-05 -2.148148e-05 0.000000e+00 -2.148148e-05 -3.631059e-05 0.000000e+00 0.000000e+00 0.000000e+00 0.000000e+00 2.763568e-05 -3.586210e-05 0.000000e+00 -3.586210e-05 2.266756e-05 0.000000e+00 0.000000e+00 0.000000e+00 0.000000e+00 -1.063194e-05 -1.606345e-05 0.000000e+00 -1.606345e-05 6.200975e-05 0.000000e+00 0.000000e+00 0.000000e+00 0.000000e+00 2.880440e-05 -2.782539e-05 0.000000e+00 -2.782539e-05 2.031496e-07 0.000000e+00 0.000000e+00 0.000000e+00 0.000000e+00 2.521223e-05 -1.923720e-05 0.000000e+00 -1.923720e-05 -3.567861e-05 0.000000e+00 0.000000e+00 0.000000e+00 0.000000e+00 2.717187e-05 -2.652714e-05 0.000000e+00 -2.652714e-05 -2.021729e-05 0.000000e+00 0.000000e+00 0.000000e+00 0.000000e+00 2.288162e-05 -3.823098e-05 0.000000e+00 -3.823098e-05 4.013543e-05 0.000000e+00 0.000000e+00 0.000000e+00 0.000000e+00 2.573308e-05 -3.594157e-05 0.000000e+00 -3.594157e-05 5.768270e-06 0.000000e+00 0.000000e+00 0.000000e+00 0.000000e+00 2.024662e-05 -2.607572e-05 0.000000e+00 -2.607572e-05 -1.343783e-05 0.000000e+00 0.000000e+00 0.000000e+00 0.000000e+00 1.983335e-05 -3.322581e-05 0.000000e+00 -3.322581e-05 -9.722756e-06 0.000000e+00 0.000000e+00 0.000000e+00 0.000000e+00 2.678780e-05 -3.048096e-05 0.000000e+00 -3.048096e-05 -1.092200e-05 0.000000e+00 0.000000e+00 0.000000e+00 0.000000e+00 2.747335e-05 -3.694733e-05 0.000000e+00 -3.694733e-05 1.403447e-05 0.000000e+00 0.000000e+00 0.000000e+00 0.000000e+00 2.159660e-05 -3.195483e-05 0.000000e+00 -3.195483e-05 2.034501e-05 0.000000e+00 0.000000e+00 0.000000e+00 0.000000e+00 7.964018e-06 -2.542491e-05 0.000000e+00 -2.542491e-05 6.604705e-05 0.000000e+00 0.000000e+00 0.000000e+00 0.000000e+00 -1.910952e-06 -2.079184e-05 0.000000e+00 -2.079184e-05 8.121102e-05 0.000000e+00 0.000000e+00 0.000000e+00 0.000000e+00 -4.676087e-06 8.795274e-06 0.000000e+00 8.795274e-06 6.642387e-05 0.000000e+00 0.000000e+00 0.000000e+00 0.000000e+00 -1.087824e-05 4.899685e-06 0.000000e+00 4.899685e-06 4.288038e-05 0.000000e+00 0.000000e+00 0.000000e+00 0.000000e+00 1.608024e-05 -3.461367e-05 0.000000e+00 -3.461367e-05 5.500464e-05 0.000000e+00 0.000000e+00 0.000000e+00 0.000000e+00 1.115607e-05 -3.112751e-05 0.000000e+00 -3.112751e-05 5.280969e-05 0.000000e+00 0.000000e+00 0.000000e+00 0.000000e+00 2.932510e-06 -2.708313e-05 0.000000e+00 -2.708313e-05 6.837004e-05 0.000000e+00 0.000000e+00 0.000000e+00 0.000000e+00 -3.006654e-06 -3.874498e-05 0.000000e+00 -3.874498e-05 2.205073e-05 0.000000e+00 0.000000e+00 0.000000e+00 0.000000e+00 2.681817e-05 -3.350271e-05 0.000000e+00 -3.350271e-05 -3.809484e-06 0.000000e+00 0.000000e+00 0.000000e+00 0.000000e+00 2.090449e-05 -2.988616e-05 0.000000e+00 -2.988616e-05 -5.714017e-06 0.000000e+00 0.000000e+00 0.000000e+00 0.000000e+00 2.044650e-05 -3.111031e-05 0.000000e+00 -3.111031e-05 1.598203e-06 0.000000e+00 0.000000e+00 0.000000e+00 0.000000e+00 -2.650193e-06 2.461336e-05 0.000000e+00 2.461336e-05 7.149500e-05 0.000000e+00 0.000000e+00 0.000000e+00 0.000000e+00 -1.002116e-05 4.499087e-06 0.000000e+00 4.499087e-06 7.523911e-05 0.000000e+00 0.000000e+00 0.000000e+00 0.000000e+00 -9.188238e-07 -3.458795e-05 0.000000e+00 -3.458795e-05 1.813356e-05 0.000000e+00 0.000000e+00 0.000000e+00 0.000000e+00 5.509792e-06 -4.076469e-05 0.000000e+00 -4.076469e-05 1.221191e-05 0.000000e+00 0.000000e+00 0.000000e+00 0.000000e+00 2.057904e-05 -3.804983e-05 0.000000e+00 -3.804983e-05 2.461067e-06 0.000000e+00 0.000000e+00 0.000000e+00 0.000000e+00 -8.819621e-06 -1.465000e-05 0.000000e+00 -1.465000e-05 5.795817e-05 0.000000e+00 0.000000e+00 0.000000e+00 0.000000e+00 -3.169074e-06 1.943568e-05 0.000000e+00 1.943568e-05 4.832097e-05 0.000000e+00 0.000000e+00 0.000000e+00 0.000000e+00 2.058776e-05 -2.552534e-05 0.000000e+00 -2.552534e-05 -2.031463e-05 0.000000e+00 0.000000e+00 0.000000e+00 0.000000e+00 1.500065e-06 2.787814e-05 0.000000e+00 2.787814e-05 2.383676e-05 0.000000e+00 0.000000e+00 0.000000e+00 0.000000e+00 1.845208e-05 -3.750601e-05 0.000000e+00 -3.750601e-05 3.425574e-05 0.000000e+00 0.000000e+00 0.000000e+00 0.000000e+00 1.724135e-05 -3.280948e-05 0.000000e+00 -3.280948e-05 3.492464e-05 0.000000e+00 0.000000e+00 0.000000e+00 0.000000e+00 3.326269e-06 -3.963678e-05 0.000000e+00 -3.963678e-05 2.356746e-05 0.000000e+00 0.000000e+00 0.000000e+00 0.000000e+00 -7.631908e-06 -2.178707e-06 0.000000e+00 -2.178707e-06 6.468221e-05 0.000000e+00 0.000000e+00 0.000000e+00 0.000000e+00 7.868166e-06 -3.558183e-05 0.000000e+00 -3.558183e-05 6.919808e-06 0.000000e+00 0.000000e+00 0.000000e+00 0.000000e+00 2.211265e-05 -3.182447e-05 0.000000e+00 -3.182447e-05 9.401819e-06 0.000000e+00 0.000000e+00 0.000000e+00 0.000000e+00 3.567081e-05 -3.185835e-05 0.000000e+00 -3.185835e-05 5.022600e-06 0.000000e+00 0.000000e+00 0.000000e+00 0.000000e+00 9.659791e-06 -1.958273e-05 0.000000e+00 -1.958273e-05 7.839662e-05 0.000000e+00 0.000000e+00 0.000000e+00 0.000000e+00 -8.905748e-06 -1.414779e-05 0.000000e+00 -1.414779e-05 7.345852e-05 0.000000e+00 0.000000e+00 0.000000e+00 0.000000e+00 9.125406e-08 -2.721431e-05 0.000000e+00 -2.721431e-05 4.163561e-05 0.000000e+00 0.000000e+00 0.000000e+00 0.000000e+00 2.304453e-05 -3.257310e-05 0.000000e+00 -3.257310e-05 -9.687138e-06 0.000000e+00 0.000000e+00 0.000000e+00 0.000000e+00 3.023956e-05 -3.061032e-05 0.000000e+00 -3.061032e-05 4.739908e-06 0.000000e+00 0.000000e+00 0.000000e+00 0.000000e+00 5.118293e-06 -3.381656e-05 0.000000e+00 -3.381656e-05 1.933052e-05 0.000000e+00 0.000000e+00 0.000000e+00 0.000000e+00 -3.576419e-06 -3.130514e-05 0.000000e+00 -3.130514e-05 4.650250e-05 0.000000e+00 0.000000e+00 0.000000e+00 0.000000e+00 1.123121e-05 -4.130468e-05 0.000000e+00 -4.130468e-05 1.562161e-05 0.000000e+00 0.000000e+00 0.000000e+00 0.000000e+00 -5.516221e-09 -2.746632e-05 0.000000e+00 -2.746632e-05 5.872091e-05 0.000000e+00 0.000000e+00 0.000000e+00 0.000000e+00 8.275669e-06 -3.969777e-05 0.000000e+00 -3.969777e-05 2.920787e-05 0.000000e+00 0.000000e+00 0.000000e+00 0.000000e+00 2.209662e-05 -1.830044e-05 0.000000e+00 -1.830044e-05 -3.053823e-05 0.000000e+00 0.000000e+00 0.000000e+00 0.000000e+00 1.487488e-05 -3.445543e-05 0.000000e+00 -3.445543e-05 5.244943e-07 0.000000e+00 0.000000e+00 0.000000e+00 0.000000e+00 -1.087729e-05 6.984859e-06 0.000000e+00 6.984859e-06 6.451900e-05 0.000000e+00 0.000000e+00 0.000000e+00 0.000000e+00   </DataArray>
  <DataArray type="Float64" Name="IST_PrincStressVector1" NumberOfComponents="3" format="ascii">9.983816e-01 -5.686924e-02 0.000000e+00 9.996477e-01 -2.654215e-02 0.000000e+00 9.997867e-01 -2.065471e-02 0.000000e+00 9.998007e-01 -1.996563e-02 0.000000e+00 9.997700e-01 -2.144411e-02 0.000000e+00 9.997174e-01 -2.377020e-02 0.000000e+00 9.997099e-01 -2.408457e-02 0.000000e+00 9.996441e-01 -2.667877e-02 0.000000e+00 9.995625e-01 -2.957646e-02 0.000000e+00 9.994552e-01 -3.300507e-02 0.000000e+00 9.993027e-01 -3.733678e-02 0.000000e+00 9.992348e-01 -3.911283e-02 0.000000e+00 9.990503e-01 -4.357133e-02 0.000000e+00 9.988706e-01 -4.751309e-02 0.000000e+00 9.987259e-01 -5.046359e-02 0.000000e+00 9.983131e-01 -5.805958e-02 0.000000e+00 9.977150e-01 -6.756353e-02 0.000000e+00 9.971408e-01 -7.556570e-02 0.000000e+00 9.968785e-01 -7.895157e-02 0.000000e+00 9.944634e-01 -1.050831e-01 0.000000e+00 9.909720e-01 -1.340693e-01 0.000000e+00 9.852330e-01 -1.712191e-01 0.000000e+00 9.654672e-01 -2.605246e-01 0.000000e+00 9.002880e-01 -4.352948e-01 0.000000e+00 6.911815e-01 -7.226812e-01 0.000000e+00 9.985825e-01 5.322665e-02 0.000000e+00 9.978205e-01 6.598702e-02 0.000000e+00 9.934847e-01 1.139659e-01 0.000000e+00 9.594375e-01 2.819215e-01 0.000000e+00 9.578633e-01 2.872243e-01 0.000000e+00 9.327660e-01 3.604824e-01 0.000000e+00 9.731838e-01 2.300290e-01 0.000000e+00 9.186342e-01 3.951090e-01 0.000000e+00 2.247741e-01 9.744109e-01 0.000000e+00 1.804105e-01 -9.835914e-01 0.000000e+00 7.177168e-01 -6.963351e-01 0.000000e+00 9.661163e-01 -2.581073e-01 0.000000e+00 9.910846e-01 1.332343e-01 0.000000e+00 6.347443e-01 7.727223e-01 0.000000e+00 9.813797e-02 9.951728e-01 0.000000e+00 2.435268e-01 -9.698942e-01 0.000000e+00 5.867605e-01 -8.097605e-01 0.000000e+00 6.345193e-01 -7.729071e-01 0.000000e+00 8.742268e-01 -4.855177e-01 0.000000e+00 9.825294e-01 -1.861074e-01 0.000000e+00 9.995927e-01 2.853931e-02 0.000000e+00 5.850730e-01 8.109807e-01 0.000000e+00 2.219338e-01 9.750617e-01 0.000000e+00 1.132571e-01 9.935657e-01 0.000000e+00 4.027245e-02 9.991887e-01 0.000000e+00 1.115358e-01 -9.937604e-01 0.000000e+00 3.247429e-01 -9.458023e-01 0.000000e+00 6.727030e-01 -7.399127e-01 0.000000e+00 4.134095e-01 -9.105452e-01 0.000000e+00 7.223933e-01 -6.914824e-01 0.000000e+00 9.304694e-01 -3.663696e-01 0.000000e+00 8.852763e-01 4.650655e-01 0.000000e+00 9.733048e-01 2.295163e-01 0.000000e+00 9.974414e-01 -7.148819e-02 0.000000e+00 9.178465e-01 -3.969356e-01 0.000000e+00 5.370639e-01 -8.435415e-01 0.000000e+00 1.843407e-01 9.828624e-01 0.000000e+00 4.585876e-01 8.886492e-01 0.000000e+00 5.959946e-01 8.029884e-01 0.000000e+00 6.657910e-01 7.461383e-01 0.000000e+00 7.438104e-01 6.683907e-01 0.000000e+00 7.804970e-01 6.251596e-01 0.000000e+00 7.991154e-01 6.011776e-01 0.000000e+00 7.994032e-01 6.007950e-01 0.000000e+00 7.775888e-01 6.287732e-01 0.000000e+00 7.370692e-01 6.758173e-01 0.000000e+00 6.913589e-01 7.225115e-01 0.000000e+00 6.823631e-01 7.310134e-01 0.000000e+00 7.064618e-01 7.077511e-01 0.000000e+00 7.506546e-01 6.606948e-01 0.000000e+00 7.993542e-01 6.008601e-01 0.000000e+00 8.463247e-01 5.326673e-01 0.000000e+00 9.023661e-01 4.309703e-01 0.000000e+00 9.542769e-01 2.989239e-01 0.000000e+00 9.912802e-01 1.317707e-01 0.000000e+00 9.861306e-01 1.659714e-01 0.000000e+00 7.856732e-01 6.186417e-01 0.000000e+00 7.447922e-01 6.672965e-01 0.000000e+00 8.026593e-01 5.964378e-01 0.000000e+00 8.336734e-01 -5.522577e-01 0.000000e+00 9.986091e-01 -5.272538e-02 0.000000e+00 9.993375e-01 -3.639375e-02 0.000000e+00 9.996913e-01 -2.484729e-02 0.000000e+00 9.999459e-01 -1.040420e-02 0.000000e+00 9.997522e-01 -2.226006e-02 0.000000e+00 9.999990e-01 -1.389600e-03 0.000000e+00 9.997924e-01 -2.037777e-02 0.000000e+00 9.997913e-01 -2.042894e-02 0.000000e+00 9.997241e-01 -2.349066e-02 0.000000e+00 1.000000e+00 1.844331e-04 0.000000e+00 9.999996e-01 -9.471603e-04 0.000000e+00 9.997182e-01 -2.373793e-02 0.000000e+00 9.996852e-01 -2.509079e-02 0.000000e+00 9.995989e-01 -2.832147e-02 0.000000e+00 9.994976e-01 -3.169377e-02 0.000000e+00 9.999662e-01 -8.220426e-03 0.000000e+00 9.999449e-01 -1.050124e-02 0.000000e+00 9.993793e-01 -3.522820e-02 0.000000e+00 9.992742e-01 -3.809421e-02 0.000000e+00 9.991584e-01 -4.101706e-02 0.000000e+00 9.998616e-01 -1.663707e-02 0.000000e+00 9.998374e-01 -1.803467e-02 0.000000e+00 9.989741e-01 -4.528592e-02 0.000000e+00 9.988199e-01 -4.856806e-02 0.000000e+00 9.985383e-01 -5.404928e-02 0.000000e+00 9.996878e-01 -2.498656e-02 0.000000e+00 9.996939e-01 -2.474263e-02 0.000000e+00 9.980310e-01 -6.272228e-02 0.000000e+00 9.995129e-01 -3.120874e-02 0.000000e+00 9.974253e-01 -7.171297e-02 0.000000e+00 9.969546e-01 -7.798429e-02 0.000000e+00 9.963720e-01 -8.510438e-02 0.000000e+00 9.991135e-01 -4.209695e-02 0.000000e+00 9.988307e-01 -4.834509e-02 0.000000e+00 9.929514e-01 -1.185222e-01 0.000000e+00 9.884712e-01 -1.514089e-01 0.000000e+00 9.792672e-01 -2.025728e-01 0.000000e+00 9.401396e-01 -3.407895e-01 0.000000e+00 9.675048e-01 -2.528526e-01 0.000000e+00 9.016522e-01 -4.324618e-01 0.000000e+00 8.300297e-01 -5.577192e-01 0.000000e+00 9.997198e-01 2.367257e-02 0.000000e+00 9.999767e-01 6.832655e-03 0.000000e+00 9.987870e-01 4.923978e-02 0.000000e+00 9.962111e-01 8.696857e-02 0.000000e+00 9.866974e-01 1.625677e-01 0.000000e+00 9.333632e-01 3.589335e-01 0.000000e+00 9.561004e-01 2.930393e-01 0.000000e+00 9.193778e-01 3.933758e-01 0.000000e+00 9.700392e-01 2.429485e-01 0.000000e+00 6.012711e-01 7.990451e-01 0.000000e+00 6.695043e-01 7.428082e-01 0.000000e+00 2.078853e-01 -9.781532e-01 0.000000e+00 4.197792e-03 9.999912e-01 0.000000e+00 3.904318e-01 -9.206319e-01 0.000000e+00 9.538703e-01 -3.002192e-01 0.000000e+00 9.988038e-01 -4.889779e-02 0.000000e+00 9.997917e-01 -2.041147e-02 0.000000e+00 9.377503e-01 3.473101e-01 0.000000e+00 2.687795e-01 9.632017e-01 0.000000e+00 3.951621e-02 -9.992189e-01 0.000000e+00 2.292888e-01 9.733584e-01 0.000000e+00 1.556670e-01 9.878096e-01 0.000000e+00 8.253947e-01 -5.645562e-01 0.000000e+00 5.843280e-01 8.115176e-01 0.000000e+00 9.346237e-01 3.556382e-01 0.000000e+00 4.114935e-01 9.114127e-01 0.000000e+00 3.394335e-01 9.406300e-01 0.000000e+00 1.714776e-01 9.851880e-01 0.000000e+00 7.574545e-02 9.971272e-01 0.000000e+00 1.631000e-01 -9.866095e-01 0.000000e+00 2.026266e-02 -9.997947e-01 0.000000e+00 2.414686e-01 -9.704086e-01 0.000000e+00 9.602629e-01 2.790972e-01 0.000000e+00 8.605792e-01 5.093167e-01 0.000000e+00 9.985058e-01 -5.464526e-02 0.000000e+00 9.137548e-01 -4.062661e-01 0.000000e+00 6.973594e-01 -7.167216e-01 0.000000e+00 2.181234e-01 -9.759212e-01 0.000000e+00 2.658528e-01 9.640136e-01 0.000000e+00 4.940288e-01 8.694455e-01 0.000000e+00 6.378663e-01 7.701471e-01 0.000000e+00 7.174271e-01 6.966336e-01 0.000000e+00 7.694500e-01 6.387071e-01 0.000000e+00 7.916180e-01 6.110163e-01 0.000000e+00 7.932359e-01 6.089145e-01 0.000000e+00 7.775146e-01 6.288649e-01 0.000000e+00 7.489954e-01 6.625752e-01 0.000000e+00 7.130907e-01 7.010718e-01 0.000000e+00 6.933233e-01 7.206267e-01 0.000000e+00 7.006547e-01 7.135005e-01 0.000000e+00 7.277959e-01 6.857938e-01 0.000000e+00 7.674546e-01 6.411033e-01 0.000000e+00 8.145375e-01 5.801110e-01 0.000000e+00 8.762406e-01 4.818739e-01 0.000000e+00 9.390950e-01 3.436577e-01 0.000000e+00 9.850953e-01 1.720095e-01 0.000000e+00 9.996196e-01 -2.757894e-02 0.000000e+00 9.996777e-01 2.538661e-02 0.000000e+00 7.721709e-01 6.354149e-01 0.000000e+00 7.675274e-01 6.410161e-01 0.000000e+00 7.319437e-02 9.973177e-01 0.000000e+00 9.999889e-01 -4.703463e-03 0.000000e+00 9.999997e-01 7.391900e-04 0.000000e+00 9.999995e-01 9.653784e-04 0.000000e+00 9.999939e-01 -3.484457e-03 0.000000e+00 9.999985e-01 -1.712272e-03 0.000000e+00 9.999908e-01 -4.287576e-03 0.000000e+00 9.999834e-01 -5.757344e-03 0.000000e+00 9.999330e-01 -1.157443e-02 0.000000e+00 9.999474e-01 -1.025686e-02 0.000000e+00 9.998941e-01 -1.454979e-02 0.000000e+00 9.998091e-01 -1.954002e-02 0.000000e+00 9.998153e-01 -1.921697e-02 0.000000e+00 9.997842e-01 -2.077520e-02 0.000000e+00 9.996458e-01 -2.661244e-02 0.000000e+00 9.993445e-01 -3.620206e-02 0.000000e+00 9.994149e-01 -3.420222e-02 0.000000e+00 9.977524e-01 -6.700917e-02 0.000000e+00 9.983162e-01 -5.800734e-02 0.000000e+00 9.969865e-01 -7.757493e-02 0.000000e+00 9.940193e-01 -1.092049e-01 0.000000e+00 3.706885e-01 -9.287573e-01 0.000000e+00 6.946444e-01 -7.193533e-01 0.000000e+00 9.985768e-01 5.333320e-02 0.000000e+00 9.969750e-01 7.772314e-02 0.000000e+00 9.918985e-01 1.270329e-01 0.000000e+00 9.711333e-01 2.385373e-01 0.000000e+00 9.352709e-01 3.539326e-01 0.000000e+00 5.099855e-02 -9.986987e-01 0.000000e+00 3.837965e-01 -9.234177e-01 0.000000e+00 9.643534e-01 2.646178e-01 0.000000e+00 7.071698e-01 7.070438e-01 0.000000e+00 3.378038e-03 -9.999943e-01 0.000000e+00 3.405956e-01 9.402099e-01 0.000000e+00 1.226689e-01 9.924477e-01 0.000000e+00 2.705977e-03 -9.999963e-01 0.000000e+00 9.657561e-01 -2.594517e-01 0.000000e+00 9.999741e-01 -7.195881e-03 0.000000e+00 9.865750e-01 -1.633091e-01 0.000000e+00 9.952241e-01 9.761640e-02 0.000000e+00 9.860286e-01 1.665763e-01 0.000000e+00 3.683043e-01 -9.297053e-01 0.000000e+00 1.000000e+00 2.461371e-04 0.000000e+00 9.999990e-01 1.448996e-03 0.000000e+00 9.999935e-01 -3.598225e-03 0.000000e+00 9.998723e-01 -1.598291e-02 0.000000e+00 9.997097e-01 -2.409587e-02 0.000000e+00 9.993999e-01 -3.463881e-02 0.000000e+00 9.993030e-01 -3.733034e-02 0.000000e+00 9.966249e-01 -8.208991e-02 0.000000e+00 9.978519e-01 6.550951e-02 0.000000e+00 9.648257e-01 2.628905e-01 0.000000e+00 3.356816e-01 9.419755e-01 0.000000e+00 8.563318e-01 5.164261e-01 0.000000e+00 2.815112e-01 9.595579e-01 0.000000e+00 7.066020e-02 9.975004e-01 0.000000e+00 9.992193e-01 -3.950759e-02 0.000000e+00 9.991766e-01 -4.057158e-02 0.000000e+00 9.983114e-01 -5.808933e-02 0.000000e+00 9.986401e-01 -5.213480e-02 0.000000e+00 9.991962e-01 -4.008610e-02 0.000000e+00 9.998732e-01 -1.592629e-02 0.000000e+00 9.985216e-01 -5.435644e-02 0.000000e+00 9.994905e-01 -3.191706e-02 0.000000e+00 9.994012e-01 -3.460259e-02 0.000000e+00 9.986636e-01 -5.168272e-02 0.000000e+00 9.995652e-01 -2.948745e-02 0.000000e+00 9.956447e-01 -9.322923e-02 0.000000e+00 9.961358e-01 -8.782631e-02 0.000000e+00 8.954135e-01 -4.452355e-01 0.000000e+00 9.958541e-01 -9.096512e-02 0.000000e+00 9.980090e-01 -6.307213e-02 0.000000e+00 9.976094e-01 -6.910525e-02 0.000000e+00 9.966270e-01 -8.206490e-02 0.000000e+00 9.981754e-01 -6.038023e-02 0.000000e+00 9.930549e-01 -1.176518e-01 0.000000e+00 9.925726e-01 -1.216537e-01 0.000000e+00 9.927902e-01 -1.198653e-01 0.000000e+00 9.956982e-01 -9.265620e-02 0.000000e+00 9.957632e-01 -9.195505e-02 0.000000e+00 9.937417e-01 -1.117026e-01 0.000000e+00 9.961827e-01 -8.729294e-02 0.000000e+00 9.884782e-01 -1.513630e-01 0.000000e+00 9.799308e-01 -1.993381e-01 0.000000e+00 9.846467e-01 -1.745590e-01 0.000000e+00 9.804071e-01 -1.969822e-01 0.000000e+00 9.880800e-01 -1.539415e-01 0.000000e+00 9.301272e-01 -3.672374e-01 0.000000e+00 9.527048e-01 -3.038973e-01 0.000000e+00 9.822104e-01 -1.877838e-01 0.000000e+00 9.887501e-01 -1.495768e-01 0.000000e+00 9.878845e-01 -1.551912e-01 0.000000e+00 9.408687e-01 -3.387715e-01 0.000000e+00 9.555913e-01 -2.946951e-01 0.000000e+00 9.471390e-01 -3.208236e-01 0.000000e+00 9.639265e-01 -2.661685e-01 0.000000e+00 9.650330e-01 -2.621284e-01 0.000000e+00 9.189724e-01 -3.943219e-01 0.000000e+00 9.428128e-01 -3.333228e-01 0.000000e+00 8.780573e-01 -4.785556e-01 0.000000e+00 9.814116e-01 1.919148e-01 0.000000e+00 4.443670e-01 -8.958448e-01 0.000000e+00 9.764037e-01 2.159534e-01 0.000000e+00 9.767447e-01 2.144058e-01 0.000000e+00 9.836234e-01 1.802360e-01 0.000000e+00 9.598707e-01 2.804431e-01 0.000000e+00 9.787594e-01 2.050122e-01 0.000000e+00 6.561771e-01 -7.546069e-01 0.000000e+00 2.532836e-01 -9.673921e-01 0.000000e+00 9.799569e-01 1.992098e-01 0.000000e+00 9.798261e-01 1.998519e-01 0.000000e+00 9.985943e-01 -5.300447e-02 0.000000e+00 8.606159e-01 5.092546e-01 0.000000e+00 9.606311e-01 2.778269e-01 0.000000e+00 8.910678e-01 4.538703e-01 0.000000e+00 8.902648e-01 4.554432e-01 0.000000e+00 3.830499e-01 -9.237276e-01 0.000000e+00 9.654766e-01 2.604896e-01 0.000000e+00 7.841473e-01 6.205748e-01 0.000000e+00 4.605095e-01 8.876548e-01 0.000000e+00 9.537748e-01 3.005223e-01 0.000000e+00 2.268474e-01 -9.739303e-01 0.000000e+00 5.386568e-01 -8.425253e-01 0.000000e+00 6.449103e-01 -7.642583e-01 0.000000e+00 9.989622e-01 -4.554768e-02 0.000000e+00 9.337092e-01 -3.580324e-01 0.000000e+00 9.997931e-01 -2.034159e-02 0.000000e+00 9.443171e-01 -3.290369e-01 0.000000e+00 9.732772e-01 2.296335e-01 0.000000e+00 4.808266e-01 8.768157e-01 0.000000e+00 5.707967e-03 -9.999837e-01 0.000000e+00 7.410002e-01 6.715048e-01 0.000000e+00 9.930105e-01 1.180261e-01 0.000000e+00 8.168260e-01 5.768841e-01 0.000000e+00 5.740502e-01 8.188201e-01 0.000000e+00 3.976196e-01 9.175504e-01 0.000000e+00 5.887020e-01 -8.083501e-01 0.000000e+00 9.605439e-01 -2.781284e-01 0.000000e+00 9.907108e-01 -1.359854e-01 0.000000e+00 2.301631e-01 9.731521e-01 0.000000e+00 1.944689e-01 -9.809087e-01 0.000000e+00 7.011648e-01 7.129992e-01 0.000000e+00 5.962622e-01 8.027897e-01 0.000000e+00 3.189979e-01 9.477554e-01 0.000000e+00 4.412392e-01 8.973895e-01 0.000000e+00 3.685637e-01 9.296025e-01 0.000000e+00 3.996328e-01 -9.166753e-01 0.000000e+00 8.805954e-01 -4.738690e-01 0.000000e+00 6.046851e-01 -7.964647e-01 0.000000e+00 9.036676e-01 -4.282347e-01 0.000000e+00 9.991801e-01 -4.048562e-02 0.000000e+00 9.997577e-01 -2.201066e-02 0.000000e+00 9.998751e-01 -1.580275e-02 0.000000e+00 9.866471e-01 -1.628724e-01 0.000000e+00 9.922132e-01 -1.245510e-01 0.000000e+00 9.904957e-01 -1.375440e-01 0.000000e+00 1.036770e-01 9.946110e-01 0.000000e+00 8.832140e-01 4.689702e-01 0.000000e+00 7.021189e-01 7.120597e-01 0.000000e+00 6.460383e-01 7.633050e-01 0.000000e+00 9.915380e-01 -1.298164e-01 0.000000e+00 9.220296e-01 3.871193e-01 0.000000e+00 9.978908e-01 -6.491502e-02 0.000000e+00 9.594873e-01 -2.817520e-01 0.000000e+00 7.999355e-01 -6.000860e-01 0.000000e+00 1.219725e-01 -9.925335e-01 0.000000e+00 4.590250e-01 8.884234e-01 0.000000e+00 7.000897e-01 7.140549e-01 0.000000e+00 7.483188e-01 6.633393e-01 0.000000e+00 7.835539e-01 6.213238e-01 0.000000e+00 8.141763e-01 5.806177e-01 0.000000e+00 7.548974e-01 6.558430e-01 0.000000e+00 6.653164e-01 7.465615e-01 0.000000e+00 6.658788e-01 7.460599e-01 0.000000e+00 6.951827e-01 7.188331e-01 0.000000e+00 7.349221e-01 6.781515e-01 0.000000e+00 8.375504e-01 5.463600e-01 0.000000e+00 8.977775e-01 4.404493e-01 0.000000e+00 9.498706e-01 3.126434e-01 0.000000e+00 8.517490e-01 5.239501e-01 0.000000e+00 7.255138e-01 6.882076e-01 0.000000e+00 9.599501e-01 2.801711e-01 0.000000e+00 9.151231e-01 4.031745e-01 0.000000e+00 9.572466e-01 2.892732e-01 0.000000e+00 7.853383e-01 -6.190668e-01 0.000000e+00 9.454123e-01 -3.258766e-01 0.000000e+00 7.737290e-01 6.335168e-01 0.000000e+00 9.966821e-01 -8.139304e-02 0.000000e+00 8.539170e-01 5.204093e-01 0.000000e+00 9.998740e-01 -1.587136e-02 0.000000e+00 9.989149e-01 -4.657234e-02 0.000000e+00 9.973505e-01 -7.274644e-02 0.000000e+00 9.950756e-01 -9.911874e-02 0.000000e+00 9.980580e-01 -6.229194e-02 0.000000e+00 7.949264e-01 -6.067059e-01 0.000000e+00 9.949552e-01 -1.003201e-01 0.000000e+00 9.916062e-01 -1.292948e-01 0.000000e+00 9.993727e-01 -3.541350e-02 0.000000e+00 9.875473e-01 -1.573224e-01 0.000000e+00 9.795747e-01 -2.010807e-01 0.000000e+00 3.086087e-01 9.511891e-01 0.000000e+00 9.829253e-01 1.840049e-01 0.000000e+00 1.352321e-02 9.999086e-01 0.000000e+00 9.753350e-01 2.207299e-01 0.000000e+00 9.700581e-01 2.428728e-01 0.000000e+00 8.996371e-01 4.366384e-01 0.000000e+00 7.975994e-01 -6.031875e-01 0.000000e+00 8.427137e-01 -5.383620e-01 0.000000e+00 9.705392e-01 2.409432e-01 0.000000e+00 9.224270e-01 3.861716e-01 0.000000e+00 2.817729e-01 9.594811e-01 0.000000e+00 1.219026e-01 9.925421e-01 0.000000e+00 9.587746e-01 2.841676e-01 0.000000e+00 9.430353e-01 3.326927e-01 0.000000e+00 7.730077e-01 6.343966e-01 0.000000e+00 5.483541e-01 8.362463e-01 0.000000e+00 1.759945e-01 9.843912e-01 0.000000e+00 2.877713e-02 -9.995859e-01 0.000000e+00 6.696092e-01 -7.427136e-01 0.000000e+00 9.736242e-01 -2.281576e-01 0.000000e+00 9.230409e-01 -3.847018e-01 0.000000e+00 5.107036e-01 8.597568e-01 0.000000e+00 9.990930e-01 -4.258202e-02 0.000000e+00 2.654420e-01 -9.641268e-01 0.000000e+00 7.616532e-01 6.479849e-01 0.000000e+00 9.998289e-01 -1.849804e-02 0.000000e+00 8.695124e-01 -4.939111e-01 0.000000e+00 9.997833e-01 -2.081734e-02 0.000000e+00 5.396894e-01 -8.418642e-01 0.000000e+00 7.411273e-01 -6.713645e-01 0.000000e+00 9.879273e-01 -1.549180e-01 0.000000e+00 8.316329e-01 5.553258e-01 0.000000e+00 9.990624e-01 -4.329440e-02 0.000000e+00 9.975799e-01 -6.952966e-02 0.000000e+00 6.952920e-01 7.187274e-01 0.000000e+00 7.533797e-01 6.575857e-01 0.000000e+00 7.293150e-01 6.841781e-01 0.000000e+00 9.913719e-01 1.310792e-01 0.000000e+00 9.733455e-01 2.293435e-01 0.000000e+00 9.436261e-01 3.310132e-01 0.000000e+00 8.776241e-01 4.793496e-01 0.000000e+00 7.446206e-01 6.674879e-01 0.000000e+00 7.800956e-01 6.256603e-01 0.000000e+00 7.035749e-01 7.106212e-01 0.000000e+00 6.691420e-01 7.431345e-01 0.000000e+00 6.807834e-01 7.324848e-01 0.000000e+00 6.724694e-01 7.401250e-01 0.000000e+00 7.215635e-01 6.923483e-01 0.000000e+00 7.012826e-01 7.128834e-01 0.000000e+00 7.925714e-01 6.097792e-01 0.000000e+00 7.953704e-01 6.061237e-01 0.000000e+00 8.097664e-01 5.867524e-01 0.000000e+00 8.084661e-01 5.885428e-01 0.000000e+00 7.848428e-01 6.196949e-01 0.000000e+00 7.230827e-01 6.907615e-01 0.000000e+00 4.481162e-01 8.939753e-01 0.000000e+00 6.290452e-01 7.773687e-01 0.000000e+00 5.987886e-01 8.009072e-01 0.000000e+00 2.277766e-02 -9.997406e-01 0.000000e+00 8.018325e-01 -5.975488e-01 0.000000e+00 6.922512e-01 -7.216567e-01 0.000000e+00 9.923261e-01 1.236483e-01 0.000000e+00 9.990535e-01 -4.349817e-02 0.000000e+00 6.373658e-01 7.705614e-01 0.000000e+00 8.103377e-01 5.859631e-01 0.000000e+00 7.615146e-01 6.481477e-01 0.000000e+00 6.872546e-01 7.264166e-01 0.000000e+00 8.033228e-01 5.955438e-01 0.000000e+00 9.990674e-01 -4.317795e-02 0.000000e+00 9.968204e-01 7.968063e-02 0.000000e+00 9.984183e-01 -5.622161e-02 0.000000e+00 9.991360e-01 -4.156032e-02 0.000000e+00 9.995854e-01 -2.879277e-02 0.000000e+00 9.987395e-01 -5.019351e-02 0.000000e+00 9.997242e-01 -2.348352e-02 0.000000e+00 9.996489e-01 -2.649562e-02 0.000000e+00 9.971515e-01 -7.542428e-02 0.000000e+00 9.986707e-01 -5.154406e-02 0.000000e+00 9.983825e-01 -5.685483e-02 0.000000e+00 9.943651e-01 -1.060093e-01 0.000000e+00 9.967749e-01 -8.024802e-02 0.000000e+00 9.964281e-01 -8.444544e-02 0.000000e+00 9.903323e-01 -1.387154e-01 0.000000e+00 9.940929e-01 -1.085327e-01 0.000000e+00 9.933391e-01 -1.152274e-01 0.000000e+00 9.749278e-01 -2.225216e-01 0.000000e+00 9.805669e-01 -1.961848e-01 0.000000e+00 9.734921e-01 -2.287207e-01 0.000000e+00 7.703012e-01 -6.376802e-01 0.000000e+00 6.675697e-01 -7.445473e-01 0.000000e+00 4.786639e-01 -8.779982e-01 0.000000e+00 6.032454e-01 7.975556e-01 0.000000e+00 6.479813e-01 7.616562e-01 0.000000e+00 3.749404e-02 -9.992969e-01 0.000000e+00 9.817262e-01 -1.902990e-01 0.000000e+00 9.997586e-01 -2.197224e-02 0.000000e+00 9.716236e-01 -2.365323e-01 0.000000e+00 3.122305e-01 9.500064e-01 0.000000e+00 1.618321e-01 9.868183e-01 0.000000e+00 7.806553e-01 6.249618e-01 0.000000e+00 8.167286e-01 -5.770220e-01 0.000000e+00 9.740240e-01 -2.264448e-01 0.000000e+00 9.492151e-01 -3.146278e-01 0.000000e+00 9.326902e-01 -3.606785e-01 0.000000e+00 9.483302e-01 -3.172850e-01 0.000000e+00 9.712859e-01 -2.379152e-01 0.000000e+00 9.854078e-01 -1.702103e-01 0.000000e+00 7.974804e-01 6.033448e-01 0.000000e+00 9.984177e-01 -5.623328e-02 0.000000e+00 9.902609e-01 -1.392238e-01 0.000000e+00 7.957797e-01 -6.055862e-01 0.000000e+00 9.083472e-01 -4.182169e-01 0.000000e+00 9.820738e-01 -1.884967e-01 0.000000e+00 1.235634e-01 9.923367e-01 0.000000e+00 9.439856e-01 -3.299866e-01 0.000000e+00 9.486676e-01 3.162749e-01 0.000000e+00 9.946689e-01 -1.031203e-01 0.000000e+00 9.383473e-01 3.456940e-01 0.000000e+00 9.456518e-01 3.251808e-01 0.000000e+00 8.894033e-01 4.571233e-01 0.000000e+00 9.538309e-01 3.003441e-01 0.000000e+00 1.451110e-01 9.894154e-01 0.000000e+00 9.548410e-01 2.971174e-01 0.000000e+00 9.504629e-01 3.108381e-01 0.000000e+00 9.500528e-01 3.120892e-01 0.000000e+00 9.150347e-01 4.033752e-01 0.000000e+00 9.331270e-01 3.595468e-01 0.000000e+00 2.958900e-01 -9.552220e-01 0.000000e+00 9.442169e-03 -9.999554e-01 0.000000e+00 9.519874e-01 3.061372e-01 0.000000e+00 9.509107e-01 3.094655e-01 0.000000e+00 7.998576e-01 6.001898e-01 0.000000e+00 5.882031e-01 8.087133e-01 0.000000e+00 2.115607e-01 -9.773649e-01 0.000000e+00 6.198236e-01 7.847412e-01 0.000000e+00 2.807414e-01 9.597834e-01 0.000000e+00 8.727994e-01 -4.880791e-01 0.000000e+00 2.807377e-01 9.597845e-01 0.000000e+00 9.976587e-01 -6.838886e-02 0.000000e+00 5.538548e-01 8.326133e-01 0.000000e+00 9.596606e-01 -2.811612e-01 0.000000e+00 9.965026e-01 -8.356235e-02 0.000000e+00 5.532434e-01 -8.330196e-01 0.000000e+00 9.971193e-01 7.584894e-02 0.000000e+00 4.102946e-01 -9.119531e-01 0.000000e+00 8.351403e-01 5.500370e-01 0.000000e+00 8.405776e-01 5.416911e-01 0.000000e+00 8.180800e-01 5.751044e-01 0.000000e+00 8.980470e-01 4.398995e-01 0.000000e+00 8.598180e-01 5.106006e-01 0.000000e+00 8.956562e-01 4.447471e-01 0.000000e+00 5.555698e-01 -8.314699e-01 0.000000e+00 7.555800e-01 6.550564e-01 0.000000e+00 6.595283e-01 7.516798e-01 0.000000e+00 7.789925e-01 6.270333e-01 0.000000e+00 6.361467e-01 -7.715682e-01 0.000000e+00 8.326486e-01 -5.538017e-01 0.000000e+00 9.256544e-01 -3.783702e-01 0.000000e+00 6.993272e-01 -7.148017e-01 0.000000e+00 6.551140e-01 -7.555301e-01 0.000000e+00 7.601667e-01 -6.497281e-01 0.000000e+00 8.339501e-01 5.518398e-01 0.000000e+00 8.186734e-01 5.742595e-01 0.000000e+00 7.169694e-01 6.971047e-01 0.000000e+00 7.338613e-01 6.792994e-01 0.000000e+00 6.876461e-01 7.260460e-01 0.000000e+00 6.290607e-01 7.773562e-01 0.000000e+00 6.375418e-01 7.704158e-01 0.000000e+00 6.376050e-01 7.703635e-01 0.000000e+00 6.365461e-01 7.712386e-01 0.000000e+00 7.057182e-01 7.084926e-01 0.000000e+00 8.249338e-01 5.652294e-01 0.000000e+00 8.883192e-01 4.592264e-01 0.000000e+00 6.068515e-01 -7.948152e-01 0.000000e+00 9.699264e-01 -2.433983e-01 0.000000e+00 7.070173e-01 7.071963e-01 0.000000e+00 9.404004e-01 -3.400692e-01 0.000000e+00 3.894892e-01 -9.210311e-01 0.000000e+00 3.881000e-01 -9.216173e-01 0.000000e+00 5.520717e-01 -8.337966e-01 0.000000e+00 9.995242e-01 -3.084473e-02 0.000000e+00 9.983111e-01 -5.809516e-02 0.000000e+00 9.709629e-01 -2.392301e-01 0.000000e+00 9.920185e-01 -1.260922e-01 0.000000e+00 9.937213e-01 -1.118836e-01 0.000000e+00 9.957577e-01 -9.201360e-02 0.000000e+00 9.971819e-01 -7.502148e-02 0.000000e+00 9.883382e-01 -1.522749e-01 0.000000e+00 9.506176e-01 -3.103645e-01 0.000000e+00 9.593903e-01 -2.820821e-01 0.000000e+00 9.334545e-01 -3.586957e-01 0.000000e+00 9.070228e-01 -4.210816e-01 0.000000e+00 3.576352e-01 9.338614e-01 0.000000e+00 5.328025e-01 -8.462396e-01 0.000000e+00 2.272197e-01 -9.738435e-01 0.000000e+00 9.281168e-01 3.722891e-01 0.000000e+00 8.482283e-01 -5.296307e-01 0.000000e+00 9.804858e-01 -1.965899e-01 0.000000e+00 9.583689e-01 -2.855328e-01 0.000000e+00 9.604504e-01 -2.784513e-01 0.000000e+00 8.788971e-01 4.770115e-01 0.000000e+00 9.893776e-01 -1.453681e-01 0.000000e+00 9.918907e-01 -1.270938e-01 0.000000e+00 8.579730e-01 -5.136947e-01 0.000000e+00 9.500359e-01 3.121407e-01 0.000000e+00 1.069773e-02 9.999428e-01 0.000000e+00 6.683662e-01 7.438324e-01 0.000000e+00 9.994363e-01 -3.357197e-02 0.000000e+00 9.981318e-01 -6.109735e-02 0.000000e+00 7.064647e-01 7.077483e-01 0.000000e+00 8.810388e-01 -4.730440e-01 0.000000e+00 8.783012e-01 -4.781078e-01 0.000000e+00 4.748360e-01 8.800743e-01 0.000000e+00 8.479943e-01 -5.300053e-01 0.000000e+00 5.885009e-01 8.084966e-01 0.000000e+00 9.988698e-01 -4.753060e-02 0.000000e+00 9.969732e-01 -7.774555e-02 0.000000e+00 9.643024e-01 -2.648033e-01 0.000000e+00 9.681250e-01 -2.504674e-01 0.000000e+00 9.814261e-01 1.918407e-01 0.000000e+00 8.210382e-01 5.708732e-01 0.000000e+00 9.483709e-01 -3.171634e-01 0.000000e+00 9.580808e-01 -2.864982e-01 0.000000e+00 9.594972e-01 -2.817183e-01 0.000000e+00 8.682827e-01 -4.960697e-01 0.000000e+00 8.483849e-01 5.293799e-01 0.000000e+00 8.558538e-01 5.172178e-01 0.000000e+00 8.342726e-01 5.513522e-01 0.000000e+00 6.949166e-01 7.190904e-01 0.000000e+00 3.934316e-01 9.193539e-01 0.000000e+00 9.842045e-01 -1.770352e-01 0.000000e+00 9.870072e-01 -1.606762e-01 0.000000e+00 9.680337e-01 -2.508201e-01 0.000000e+00 9.756626e-01 -2.192772e-01 0.000000e+00 9.739054e-01 -2.269541e-01 0.000000e+00 6.547872e-01 7.558133e-01 0.000000e+00 6.041202e-01 7.968932e-01 0.000000e+00 9.981960e-01 -6.003967e-02 0.000000e+00 9.965624e-01 -8.284554e-02 0.000000e+00 9.986551e-01 -5.184528e-02 0.000000e+00 9.942130e-01 -1.074272e-01 0.000000e+00 9.965000e-01 -8.359249e-02 0.000000e+00 9.981912e-01 -6.011927e-02 0.000000e+00 9.983345e-01 -5.769139e-02 0.000000e+00 7.210780e-01 6.928539e-01 0.000000e+00 6.638579e-01 7.478587e-01 0.000000e+00 7.808672e-01 6.246970e-01 0.000000e+00 9.296668e-01 3.684014e-01 0.000000e+00 7.822645e-01 6.229464e-01 0.000000e+00 7.225918e-02 -9.973859e-01 0.000000e+00 1.347979e-01 9.908731e-01 0.000000e+00 1.564625e-01 -9.876839e-01 0.000000e+00 9.991930e-01 -4.016662e-02 0.000000e+00 9.860553e-01 -1.664181e-01 0.000000e+00 9.797457e-01 -2.002456e-01 0.000000e+00 6.875451e-01 -7.261416e-01 0.000000e+00 7.671609e-01 -6.414547e-01 0.000000e+00 7.524278e-01 6.586747e-01 0.000000e+00 7.636967e-01 6.455753e-01 0.000000e+00 9.996471e-01 -2.656514e-02 0.000000e+00 9.993650e-01 -3.563078e-02 0.000000e+00 9.976505e-01 -6.850942e-02 0.000000e+00 6.991807e-01 7.149450e-01 0.000000e+00 6.972265e-01 7.168509e-01 0.000000e+00 9.945608e-01 -1.041579e-01 0.000000e+00 5.945770e-01 8.040387e-01 0.000000e+00 7.644531e-01 -6.446793e-01 0.000000e+00 9.985965e-01 -5.296276e-02 0.000000e+00 9.995978e-01 -2.836057e-02 0.000000e+00 8.837979e-01 4.678689e-01 0.000000e+00 9.616416e-01 2.743090e-01 0.000000e+00 9.809644e-01 -1.941876e-01 0.000000e+00 9.981601e-01 -6.063282e-02 0.000000e+00 9.993131e-01 -3.705715e-02 0.000000e+00 9.993480e-01 -3.610560e-02 0.000000e+00 9.966195e-01 -8.215556e-02 0.000000e+00 9.864879e-01 -1.638341e-01 0.000000e+00 9.804230e-01 -1.969027e-01 0.000000e+00 9.933524e-01 -1.151133e-01 0.000000e+00 9.891792e-01 -1.467121e-01 0.000000e+00 9.966563e-01 -8.170831e-02 0.000000e+00 6.658091e-01 7.461222e-01 0.000000e+00 5.727153e-01 8.197543e-01 0.000000e+00 5.768141e-01 8.168754e-01 0.000000e+00 4.844833e-01 8.748005e-01 0.000000e+00 9.899624e-01 -1.413312e-01 0.000000e+00 2.947126e-01 9.555859e-01 0.000000e+00 9.281045e-01 -3.723198e-01 0.000000e+00 9.560571e-01 -2.931807e-01 0.000000e+00 9.936689e-01 -1.123482e-01 0.000000e+00 9.078840e-01 4.192215e-01 0.000000e+00 9.882954e-01 -1.525522e-01 0.000000e+00 9.965305e-01 -8.322820e-02 0.000000e+00 9.911593e-01 -1.326772e-01 0.000000e+00 9.981913e-01 6.011792e-02 0.000000e+00 9.982587e-01 -5.898712e-02 0.000000e+00 9.967326e-01 -8.077160e-02 0.000000e+00 9.977574e-01 -6.693390e-02 0.000000e+00 9.939544e-01 -1.097935e-01 0.000000e+00 9.988906e-01 -4.709200e-02 0.000000e+00 9.999591e-01 -9.041463e-03 0.000000e+00 9.982129e-01 -5.975761e-02 0.000000e+00 9.998779e-01 1.562564e-02 0.000000e+00 9.864231e-01 -1.642237e-01 0.000000e+00 9.822342e-01 -1.876590e-01 0.000000e+00 9.905777e-01 -1.369517e-01 0.000000e+00 9.996884e-01 -2.496111e-02 0.000000e+00 9.991893e-01 -4.025775e-02 0.000000e+00 9.933944e-01 -1.147496e-01 0.000000e+00 9.962486e-01 -8.653784e-02 0.000000e+00 9.944022e-01 -1.056607e-01 0.000000e+00 9.864161e-01 -1.642661e-01 0.000000e+00 9.899293e-01 -1.415624e-01 0.000000e+00 9.882924e-01 -1.525714e-01 0.000000e+00 8.543918e-01 -5.196293e-01 0.000000e+00 3.073933e-01 9.515826e-01 0.000000e+00 9.902078e-01 -1.396013e-01 0.000000e+00 8.902945e-01 -4.553852e-01 0.000000e+00 9.759533e-01 -2.179796e-01 0.000000e+00 9.796601e-01 -2.006641e-01 0.000000e+00 9.771497e-01 -2.125523e-01 0.000000e+00 8.396694e-01 -5.430979e-01 0.000000e+00 6.738557e-01 -7.388629e-01 0.000000e+00 5.602420e-01 -8.283290e-01 0.000000e+00 4.109139e-01 -9.116742e-01 0.000000e+00 9.094358e-01 4.158444e-01 0.000000e+00 8.943073e-01 4.474532e-01 0.000000e+00 8.754940e-01 -4.832289e-01 0.000000e+00 5.679003e-01 -8.230974e-01 0.000000e+00 9.850880e-01 -1.720511e-01 0.000000e+00 9.994131e-01 -3.425641e-02 0.000000e+00 9.101416e-01 4.142973e-01 0.000000e+00 6.216406e-01 7.833026e-01 0.000000e+00 8.001154e-02 9.967939e-01 0.000000e+00 5.278948e-01 8.493098e-01 0.000000e+00 4.482243e-01 8.939211e-01 0.000000e+00 8.470798e-01 -5.314658e-01 0.000000e+00 8.066612e-01 -5.910142e-01 0.000000e+00 7.348259e-01 -6.782557e-01 0.000000e+00 3.984154e-01 9.172051e-01 0.000000e+00 8.394624e-01 5.434178e-01 0.000000e+00 9.974178e-01 -7.181765e-02 0.000000e+00 6.332832e-01 7.739202e-01 0.000000e+00 9.936332e-01 -1.126638e-01 0.000000e+00 9.999908e-01 -4.286833e-03 0.000000e+00 9.994504e-01 -3.315046e-02 0.000000e+00 8.257270e-01 5.640699e-01 0.000000e+00 4.800375e-01 8.772480e-01 0.000000e+00 8.009864e-01 5.986826e-01 0.000000e+00 9.969060e-01 -7.860270e-02 0.000000e+00 9.458046e-01 3.247363e-01 0.000000e+00 9.958338e-01 -9.118650e-02 0.000000e+00 9.915439e-01 -1.297720e-01 0.000000e+00 6.535247e-01 -7.569052e-01 0.000000e+00 7.315441e-01 -6.817942e-01 0.000000e+00 9.990527e-01 -4.351757e-02 0.000000e+00 7.165764e-01 6.975086e-01 0.000000e+00 9.974698e-01 -7.109202e-02 0.000000e+00 4.101108e-01 9.120357e-01 0.000000e+00 1.707043e-01 9.853223e-01 0.000000e+00 7.947201e-01 6.069761e-01 0.000000e+00 8.025285e-01 5.966138e-01 0.000000e+00 9.911442e-01 -1.327902e-01 0.000000e+00 8.914195e-01 4.531791e-01 0.000000e+00 8.889195e-01 4.580635e-01 0.000000e+00 9.932964e-01 -1.155951e-01 0.000000e+00 6.088572e-01 7.932799e-01 0.000000e+00 9.775679e-01 -2.106204e-01 0.000000e+00 9.993926e-01 -3.484958e-02 0.000000e+00 9.978177e-01 -6.602923e-02 0.000000e+00 5.451352e-01 8.383482e-01 0.000000e+00 5.309183e-01 8.474230e-01 0.000000e+00 9.921067e-01 -1.253965e-01 0.000000e+00 9.882211e-01 -1.530330e-01 0.000000e+00 3.675151e-01 9.300176e-01 0.000000e+00 8.709069e-01 -4.914480e-01 0.000000e+00 8.159711e-01 -5.780927e-01 0.000000e+00 3.501574e-01 9.366909e-01 0.000000e+00 2.676164e-01 9.635255e-01 0.000000e+00 4.283534e-01 9.036113e-01 0.000000e+00 9.173132e-01 -3.981664e-01 0.000000e+00 9.400448e-01 -3.410511e-01 0.000000e+00 2.248676e-01 -9.743893e-01 0.000000e+00 5.137298e-02 -9.986795e-01 0.000000e+00 9.785776e-01 -2.058783e-01 0.000000e+00 9.251981e-01 -3.794846e-01 0.000000e+00 8.425410e-01 5.386322e-01 0.000000e+00 8.650206e-01 5.017364e-01 0.000000e+00 8.592029e-01 5.116350e-01 0.000000e+00 8.068388e-01 5.907716e-01 0.000000e+00 9.817393e-01 -1.902313e-01 0.000000e+00 9.822437e-01 -1.876097e-01 0.000000e+00 4.905921e-01 8.713893e-01 0.000000e+00 7.374361e-01 6.754169e-01 0.000000e+00 7.307293e-01 6.826673e-01 0.000000e+00 9.297460e-01 3.682015e-01 0.000000e+00 7.359581e-01 -6.770271e-01 0.000000e+00 6.473880e-01 -7.621606e-01 0.000000e+00 7.077913e-01 -7.064216e-01 0.000000e+00 5.202441e-01 8.540176e-01 0.000000e+00 9.231029e-01 3.845531e-01 0.000000e+00 8.705694e-01 4.920457e-01 0.000000e+00 5.377995e-01 8.430728e-01 0.000000e+00 9.974083e-01 -7.194932e-02 0.000000e+00 5.865913e-01 8.098831e-01 0.000000e+00 7.831267e-01 -6.218622e-01 0.000000e+00 6.977486e-01 -7.163427e-01 0.000000e+00 8.089523e-01 -5.878743e-01 0.000000e+00 9.973063e-01 -7.335013e-02 0.000000e+00 9.986880e-01 -5.120854e-02 0.000000e+00 9.612015e-01 -2.758473e-01 0.000000e+00 8.651626e-01 5.014914e-01 0.000000e+00 9.319206e-01 -3.626623e-01 0.000000e+00 9.214519e-01 -3.884925e-01 0.000000e+00 9.988378e-01 -4.819839e-02 0.000000e+00 9.829144e-01 -1.840634e-01 0.000000e+00 9.846264e-01 -1.746737e-01 0.000000e+00 9.971042e-01 -7.604786e-02 0.000000e+00 9.932263e-01 -1.161958e-01 0.000000e+00 9.668482e-01 -2.553517e-01 0.000000e+00 9.925226e-01 -1.220609e-01 0.000000e+00 6.860606e-01 -7.275444e-01 0.000000e+00 9.124286e-01 4.092360e-01 0.000000e+00 9.841877e-01 -1.771288e-01 0.000000e+00 9.882055e-01 -1.531333e-01 0.000000e+00 9.168716e-01 3.991822e-01 0.000000e+00 9.945851e-01 -1.039253e-01 0.000000e+00 9.953502e-01 -9.632212e-02 0.000000e+00 9.949581e-01 -1.002917e-01 0.000000e+00 9.082297e-01 4.184720e-01 0.000000e+00 1.264401e-01 -9.919743e-01 0.000000e+00 9.622946e-01 -2.720094e-01 0.000000e+00 9.701304e-01 -2.425840e-01 0.000000e+00 9.699370e-01 -2.433560e-01 0.000000e+00 9.979577e-01 -6.387766e-02 0.000000e+00 9.327465e-01 3.605329e-01 0.000000e+00 7.372740e-01 6.755939e-01 0.000000e+00 9.994306e-01 -3.374066e-02 0.000000e+00 9.911160e-01 -1.330003e-01 0.000000e+00 8.738649e-01 4.861688e-01 0.000000e+00 9.951177e-01 -9.869482e-02 0.000000e+00 8.178839e-01 -5.753833e-01 0.000000e+00 8.308846e-01 -5.564448e-01 0.000000e+00 9.666064e-02 9.953174e-01 0.000000e+00 9.978563e-01 -6.544378e-02 0.000000e+00 9.926721e-01 -1.208393e-01 0.000000e+00 9.949254e-01 -1.006152e-01 0.000000e+00 9.685106e-01 -2.489725e-01 0.000000e+00 9.605632e-01 -2.780619e-01 0.000000e+00 8.164923e-01 5.773564e-01 0.000000e+00 2.563877e-01 -9.665740e-01 0.000000e+00 7.454280e-01 6.665862e-01 0.000000e+00 7.197012e-01 -6.942839e-01 0.000000e+00 9.729712e-01 -2.309263e-01 0.000000e+00 9.606550e-01 -2.777446e-01 0.000000e+00 9.993850e-01 3.506471e-02 0.000000e+00 3.377963e-01 -9.412193e-01 0.000000e+00 9.751851e-01 -2.213912e-01 0.000000e+00 9.728424e-01 -2.314686e-01 0.000000e+00 1.994991e-01 -9.798980e-01 0.000000e+00 9.143932e-01 4.048271e-01 0.000000e+00 9.915476e-01 -1.297433e-01 0.000000e+00 9.934717e-01 -1.140792e-01 0.000000e+00 9.897622e-01 -1.427264e-01 0.000000e+00 6.376467e-01 -7.703289e-01 0.000000e+00 9.472282e-01 -3.205601e-01 0.000000e+00 9.510109e-01 -3.091574e-01 0.000000e+00 9.157564e-01 -4.017340e-01 0.000000e+00 8.472644e-01 -5.311714e-01 0.000000e+00 8.721936e-01 4.891608e-01 0.000000e+00 8.663248e-01 -4.994810e-01 0.000000e+00 9.797111e-01 -2.004148e-01 0.000000e+00 4.842466e-02 9.988268e-01 0.000000e+00 9.856939e-01 -1.685452e-01 0.000000e+00 7.915348e-01 -6.111241e-01 0.000000e+00 9.931202e-01 -1.170991e-01 0.000000e+00 9.964264e-01 -8.446591e-02 0.000000e+00 9.955504e-01 -9.423031e-02 0.000000e+00 8.475821e-01 5.306642e-01 0.000000e+00 7.455915e-01 6.664032e-01 0.000000e+00 9.161570e-01 -4.008195e-01 0.000000e+00 9.720461e-01 -2.347900e-01 0.000000e+00 9.799139e-01 -1.994212e-01 0.000000e+00 9.356082e-01 -3.530401e-01 0.000000e+00 9.457966e-01 -3.247596e-01 0.000000e+00 9.438265e-01 -3.304416e-01 0.000000e+00 4.319711e-01 -9.018875e-01 0.000000e+00 8.906753e-01 4.546400e-01 0.000000e+00 7.954706e-01 6.059922e-01 0.000000e+00 7.674046e-01 6.411631e-01 0.000000e+00 7.974089e-01 6.034394e-01 0.000000e+00 9.843673e-01 -1.761280e-01 0.000000e+00 6.432960e-01 7.656176e-01 0.000000e+00 8.987748e-01 4.384106e-01 0.000000e+00 9.126019e-01 -4.088493e-01 0.000000e+00 9.522096e-01 -3.054455e-01 0.000000e+00 9.673480e-01 -2.534517e-01 0.000000e+00 9.137008e-01 -4.063876e-01 0.000000e+00 6.664911e-01 7.455129e-01 0.000000e+00 8.649699e-01 5.018238e-01 0.000000e+00 9.898934e-01 -1.418132e-01 0.000000e+00 5.711219e-01 -8.208653e-01 0.000000e+00 9.860692e-01 -1.663356e-01 0.000000e+00 7.492729e-01 6.622614e-01 0.000000e+00 8.970978e-01 -4.418320e-01 0.000000e+00 3.087176e-01 9.511537e-01 0.000000e+00 9.993151e-01 -3.700477e-02 0.000000e+00 8.926142e-01 -4.508213e-01 0.000000e+00 6.921364e-01 7.217667e-01 0.000000e+00 4.960372e-01 8.683013e-01 0.000000e+00 5.698856e-01 8.217240e-01 0.000000e+00 9.138065e-01 -4.061499e-01 0.000000e+00 9.984640e-01 -5.540418e-02 0.000000e+00 6.827011e-01 7.306978e-01 0.000000e+00 8.447036e-01 -5.352344e-01 0.000000e+00 9.053160e-01 -4.247386e-01 0.000000e+00 6.754261e-01 -7.374277e-01 0.000000e+00 3.875704e-01 -9.218401e-01 0.000000e+00 5.795813e-02 9.983190e-01 0.000000e+00 3.163029e-01 9.486583e-01 0.000000e+00 4.327403e-02 -9.990632e-01 0.000000e+00 9.443468e-01 -3.289516e-01 0.000000e+00 9.964474e-01 -8.421692e-02 0.000000e+00 3.140213e-01 -9.494159e-01 0.000000e+00 9.125827e-01 -4.088923e-01 0.000000e+00 8.987464e-01 -4.384688e-01 0.000000e+00 9.862372e-01 -1.653368e-01 0.000000e+00 5.534813e-01 8.328616e-01 0.000000e+00 5.490073e-01 8.358175e-01 0.000000e+00 6.886652e-01 7.250794e-01 0.000000e+00 2.184158e-02 9.997614e-01 0.000000e+00 9.609608e-01 -2.766846e-01 0.000000e+00 8.762497e-01 -4.818573e-01 0.000000e+00 9.838285e-01 -1.791130e-01 0.000000e+00 4.514812e-01 -8.922806e-01 0.000000e+00 2.473035e-01 -9.689381e-01 0.000000e+00 9.528499e-01 -3.034419e-01 0.000000e+00 5.915217e-01 -8.062891e-01 0.000000e+00 3.691171e-01 -9.293829e-01 0.000000e+00 8.207946e-01 5.712235e-01 0.000000e+00 7.548703e-01 6.558741e-01 0.000000e+00 9.558020e-02 9.954217e-01 0.000000e+00 9.039911e-01 -4.275512e-01 0.000000e+00 2.384825e-01 9.711468e-01 0.000000e+00 7.148539e-01 -6.992738e-01 0.000000e+00 5.098752e-01 -8.602484e-01 0.000000e+00 7.805479e-01 -6.250960e-01 0.000000e+00 9.817717e-01 -1.900642e-01 0.000000e+00 6.668844e-01 -7.451612e-01 0.000000e+00 7.123113e-01 -7.018637e-01 0.000000e+00 8.505716e-01 -5.258592e-01 0.000000e+00 9.358461e-01 -3.524089e-01 0.000000e+00 7.443886e-01 6.677466e-01 0.000000e+00 8.793441e-01 4.761868e-01 0.000000e+00 6.549058e-01 7.557105e-01 0.000000e+00 8.360058e-01 5.487206e-01 0.000000e+00 9.673735e-01 -2.533547e-01 0.000000e+00 9.289753e-01 -3.701418e-01 0.000000e+00 9.194556e-01 -3.931938e-01 0.000000e+00 3.835329e-01 -9.235272e-01 0.000000e+00 7.609424e-01 -6.488194e-01 0.000000e+00 9.817717e-01 -1.900642e-01 0.000000e+00 7.505804e-01 -6.607791e-01 0.000000e+00 5.256870e-01 -8.506780e-01 0.000000e+00 6.321393e-01 -7.748548e-01 0.000000e+00 9.402929e-01 -3.403664e-01 0.000000e+00 9.475411e-01 -3.196340e-01 0.000000e+00 8.146419e-01 -5.799643e-01 0.000000e+00 9.909707e-01 -1.340783e-01 0.000000e+00 9.915756e-01 -1.295296e-01 0.000000e+00 6.184665e-01 -7.858112e-01 0.000000e+00 7.446627e-01 -6.674410e-01 0.000000e+00 9.793108e-01 -2.023618e-01 0.000000e+00 9.768862e-01 -2.137602e-01 0.000000e+00 8.586481e-01 -5.125656e-01 0.000000e+00 9.887160e-01 -1.498020e-01 0.000000e+00 9.613088e-01 -2.754730e-01 0.000000e+00 9.472070e-01 -3.206227e-01 0.000000e+00 2.975158e-01 9.547169e-01 0.000000e+00 3.472362e-01 9.377777e-01 0.000000e+00 5.345480e-01 -8.451381e-01 0.000000e+00 5.764901e-01 -8.171041e-01 0.000000e+00 7.264086e-01 -6.872630e-01 0.000000e+00 9.423284e-01 -3.346897e-01 0.000000e+00 9.720458e-01 -2.347914e-01 0.000000e+00 5.108222e-01 -8.596864e-01 0.000000e+00 9.893681e-01 -1.454328e-01 0.000000e+00 9.677880e-01 -2.517665e-01 0.000000e+00 9.620034e-01 -2.730375e-01 0.000000e+00 9.527876e-01 -3.036375e-01 0.000000e+00 9.697309e-01 -2.441760e-01 0.000000e+00 4.922079e-01 -8.704777e-01 0.000000e+00 9.384129e-01 -3.455159e-01 0.000000e+00 1.718762e-01 9.851186e-01 0.000000e+00 9.230218e-01 -3.847475e-01 0.000000e+00 7.769916e-01 -6.295110e-01 0.000000e+00 6.643130e-01 7.474545e-01 0.000000e+00 8.863622e-01 -4.629926e-01 0.000000e+00 9.420932e-01 -3.353511e-01 0.000000e+00 8.391584e-01 -5.438871e-01 0.000000e+00 9.825609e-01 -1.859413e-01 0.000000e+00 2.112141e-01 -9.774398e-01 0.000000e+00 7.002598e-01 -7.138881e-01 0.000000e+00 6.147176e-01 -7.887473e-01 0.000000e+00 6.862591e-01 -7.273572e-01 0.000000e+00 9.896683e-01 -1.433757e-01 0.000000e+00 9.115043e-01 -4.112906e-01 0.000000e+00 8.947366e-01 -4.465942e-01 0.000000e+00 8.578389e-01 -5.139187e-01 0.000000e+00 5.748563e-01 8.182544e-01 0.000000e+00 8.655948e-01 5.007451e-01 0.000000e+00 6.218686e-01 7.831216e-01 0.000000e+00 7.766812e-01 -6.298938e-01 0.000000e+00 9.691815e-01 -2.463478e-01 0.000000e+00 8.068729e-01 -5.907251e-01 0.000000e+00 1.930687e-02 -9.998136e-01 0.000000e+00 7.267682e-01 -6.868829e-01 0.000000e+00 8.266733e-01 5.626822e-01 0.000000e+00 8.113398e-01 -5.845749e-01 0.000000e+00 2.522412e-01 -9.676644e-01 0.000000e+00 9.853023e-01 -1.708197e-01 0.000000e+00 6.183630e-01 -7.858926e-01 0.000000e+00 9.663146e-01 -2.573638e-01 0.000000e+00 9.861951e-01 -1.655874e-01 0.000000e+00 7.628530e-01 -6.465720e-01 0.000000e+00 5.365001e-01 8.439003e-01 0.000000e+00 1.650623e-01 -9.862832e-01 0.000000e+00 1.029254e-01 -9.946891e-01 0.000000e+00 6.564415e-01 -7.543769e-01 0.000000e+00 8.314846e-01 -5.555478e-01 0.000000e+00 9.353153e-01 -3.538152e-01 0.000000e+00 9.899019e-01 -1.417541e-01 0.000000e+00 9.756041e-01 -2.195372e-01 0.000000e+00 8.615991e-01 -5.075894e-01 0.000000e+00 8.950440e-01 -4.459778e-01 0.000000e+00 9.713488e-01 -2.376584e-01 0.000000e+00 4.176122e-02 9.991276e-01 0.000000e+00 7.427185e-01 -6.696038e-01 0.000000e+00 5.492100e-01 -8.356844e-01 0.000000e+00 6.022880e-01 -7.982788e-01 0.000000e+00 6.407789e-01 -7.677255e-01 0.000000e+00 9.124596e-01 -4.091668e-01 0.000000e+00 9.036456e-01 -4.282810e-01 0.000000e+00 9.850284e-01 -1.723922e-01 0.000000e+00 9.383047e-01 -3.458097e-01 0.000000e+00 9.474706e-01 -3.198428e-01 0.000000e+00 3.792235e-01 9.253051e-01 0.000000e+00 6.766469e-01 -7.363076e-01 0.000000e+00 4.350611e-01 -9.004009e-01 0.000000e+00 6.756036e-01 7.372651e-01 0.000000e+00 7.573735e-01 6.529819e-01 0.000000e+00 5.604048e-01 -8.282189e-01 0.000000e+00 8.364445e-01 5.480516e-01 0.000000e+00 9.239807e-01 -3.824392e-01 0.000000e+00 9.684722e-01 -2.491215e-01 0.000000e+00 8.954253e-02 9.959830e-01 0.000000e+00 9.313927e-01 -3.640160e-01 0.000000e+00 5.944846e-01 8.041070e-01 0.000000e+00 8.679106e-01 -4.967205e-01 0.000000e+00 9.112632e-01 -4.118245e-01 0.000000e+00 3.913392e-01 -9.202465e-01 0.000000e+00 9.418038e-01 -3.361630e-01 0.000000e+00 7.054222e-01 7.087873e-01 0.000000e+00 7.487160e-01 6.628909e-01 0.000000e+00 5.136275e-01 -8.580133e-01 0.000000e+00 7.222819e-01 6.915988e-01 0.000000e+00 2.806943e-01 9.597972e-01 0.000000e+00 9.477713e-01 -3.189506e-01 0.000000e+00 7.277564e-01 6.858357e-01 0.000000e+00 6.168505e-01 7.870803e-01 0.000000e+00 6.206329e-01 -7.841013e-01 0.000000e+00 7.839723e-01 -6.207959e-01 0.000000e+00 6.510271e-01 7.590545e-01 0.000000e+00 9.981177e-01 -6.132750e-02 0.000000e+00 9.782632e-01 -2.073670e-01 0.000000e+00 9.938389e-01 -1.108338e-01 0.000000e+00 4.691287e-01 8.831298e-01 0.000000e+00 8.809407e-01 -4.732267e-01 0.000000e+00 8.679669e-01 -4.966221e-01 0.000000e+00 9.639343e-03 -9.999535e-01 0.000000e+00 1.984591e-01 9.801092e-01 0.000000e+00 1.509786e-01 -9.885370e-01 0.000000e+00 9.993199e-01 -3.687413e-02 0.000000e+00 9.537212e-01 -3.006923e-01 0.000000e+00 8.587816e-01 -5.123419e-01 0.000000e+00 4.141190e-01 -9.102228e-01 0.000000e+00 1.344619e-01 -9.909188e-01 0.000000e+00 7.293605e-01 -6.841296e-01 0.000000e+00 6.058564e-01 -7.955740e-01 0.000000e+00 9.036928e-01 -4.281814e-01 0.000000e+00 8.840506e-01 -4.673911e-01 0.000000e+00 1.944903e-01 -9.809044e-01 0.000000e+00 5.400637e-01 -8.416241e-01 0.000000e+00 8.116502e-01 -5.841438e-01 0.000000e+00 9.157914e-01 -4.016542e-01 0.000000e+00 3.639521e-01 -9.314177e-01 0.000000e+00 9.668798e-01 -2.552321e-01 0.000000e+00 9.738490e-01 -2.271964e-01 0.000000e+00 9.732893e-01 -2.295820e-01 0.000000e+00 6.925967e-01 -7.213250e-01 0.000000e+00 8.466253e-01 -5.321894e-01 0.000000e+00 8.699438e-01 -4.931509e-01 0.000000e+00 9.156298e-01 -4.020224e-01 0.000000e+00 9.086611e-01 -4.175344e-01 0.000000e+00 5.823346e-01 8.129492e-01 0.000000e+00 5.025717e-01 -8.645355e-01 0.000000e+00 7.889407e-01 -6.144694e-01 0.000000e+00 4.569790e-01 -8.894775e-01 0.000000e+00 5.062278e-01 -8.623998e-01 0.000000e+00 3.659882e-01 -9.306195e-01 0.000000e+00 3.157810e-01 -9.488321e-01 0.000000e+00 1.505250e-01 9.886062e-01 0.000000e+00 7.487248e-01 -6.628810e-01 0.000000e+00 8.349347e-01 -5.503490e-01 0.000000e+00 7.919606e-01 -6.105722e-01 0.000000e+00 8.695767e-01 -4.937979e-01 0.000000e+00 4.391643e-01 8.984068e-01 0.000000e+00 3.855994e-01 9.226663e-01 0.000000e+00 3.594790e-01 9.331532e-01 0.000000e+00 1.775985e-01 9.841030e-01 0.000000e+00 8.976763e-01 -4.406556e-01 0.000000e+00 7.014942e-01 -7.126752e-01 0.000000e+00 5.289087e-01 -8.486787e-01 0.000000e+00 4.594120e-01 -8.882233e-01 0.000000e+00 8.878766e-01 -4.600817e-01 0.000000e+00 9.563152e-01 -2.923374e-01 0.000000e+00 8.969061e-01 -4.422211e-01 0.000000e+00 2.625298e-01 -9.649239e-01 0.000000e+00 2.692394e-01 -9.630733e-01 0.000000e+00 9.255681e-01 -3.785813e-01 0.000000e+00 8.556598e-01 -5.175386e-01 0.000000e+00 9.776346e-01 -2.103106e-01 0.000000e+00 8.650469e-01 -5.016911e-01 0.000000e+00 9.996637e-01 -2.593188e-02 0.000000e+00 5.967553e-01 -8.024233e-01 0.000000e+00 9.676496e-01 -2.522981e-01 0.000000e+00 4.977931e-01 -8.672958e-01 0.000000e+00 4.852860e-01 -8.743555e-01 0.000000e+00 8.055433e-01 -5.925370e-01 0.000000e+00 3.074541e-01 -9.515629e-01 0.000000e+00 6.618766e-01 7.496128e-01 0.000000e+00 9.968185e-02 -9.950194e-01 0.000000e+00 6.773777e-01 -7.356354e-01 0.000000e+00 7.587157e-01 -6.514218e-01 0.000000e+00 1.195616e-01 -9.928268e-01 0.000000e+00 6.704475e-02 -9.977500e-01 0.000000e+00 7.192522e-01 -6.947491e-01 0.000000e+00 8.036163e-01 -5.951477e-01 0.000000e+00 9.507244e-01 -3.100372e-01 0.000000e+00 7.311298e-01 -6.822384e-01 0.000000e+00 2.067006e-01 -9.784042e-01 0.000000e+00 8.535532e-01 -5.210058e-01 0.000000e+00 9.605681e-01 -2.780447e-01 0.000000e+00 9.127339e-01 -4.085545e-01 0.000000e+00 6.244527e-01 -7.810626e-01 0.000000e+00 7.961187e-01 -6.051405e-01 0.000000e+00 8.782263e-01 -4.782452e-01 0.000000e+00 8.385677e-01 -5.447974e-01 0.000000e+00 8.735178e-01 -4.867921e-01 0.000000e+00 7.677664e-01 -6.407299e-01 0.000000e+00 7.139958e-01 -7.001500e-01 0.000000e+00 3.518506e-01 -9.360562e-01 0.000000e+00 2.298592e-01 -9.732239e-01 0.000000e+00 1.209708e-01 9.926561e-01 0.000000e+00 9.003042e-02 9.959390e-01 0.000000e+00 5.049216e-01 -8.631652e-01 0.000000e+00 4.711219e-01 -8.820681e-01 0.000000e+00 3.388729e-01 -9.408322e-01 0.000000e+00 5.883549e-01 -8.086028e-01 0.000000e+00 8.413447e-01 -5.404990e-01 0.000000e+00 8.386940e-01 -5.446029e-01 0.000000e+00 8.030930e-01 -5.958537e-01 0.000000e+00 2.888739e-01 9.573671e-01 0.000000e+00 5.255002e-02 9.986183e-01 0.000000e+00 6.059982e-01 -7.954660e-01 0.000000e+00 6.775217e-01 -7.355028e-01 0.000000e+00 7.847319e-01 -6.198353e-01 0.000000e+00 2.052679e-01 -9.787058e-01 0.000000e+00 3.177203e-01 9.481845e-01 0.000000e+00 9.014631e-01 -4.328560e-01 0.000000e+00 5.604100e-01 8.282153e-01 0.000000e+00 6.300174e-01 -7.765810e-01 0.000000e+00 6.081933e-01 -7.937890e-01 0.000000e+00 6.134345e-01 -7.897456e-01 0.000000e+00 3.008744e-02 -9.995473e-01 0.000000e+00 7.118024e-01 -7.023798e-01 0.000000e+00 7.732513e-01 -6.340997e-01 0.000000e+00 8.466017e-01 -5.322270e-01 0.000000e+00 2.560700e-01 -9.666582e-01 0.000000e+00 1.647011e-01 -9.863435e-01 0.000000e+00 4.434324e-01 -8.963078e-01 0.000000e+00 8.511618e-01 -5.249035e-01 0.000000e+00 8.320157e-01 -5.547520e-01 0.000000e+00 6.302199e-01 -7.764167e-01 0.000000e+00 4.332296e-01 -9.012836e-01 0.000000e+00 6.880873e-01 -7.256279e-01 0.000000e+00 3.672177e-01 -9.301350e-01 0.000000e+00 6.103551e-01 -7.921279e-01 0.000000e+00 9.542045e-01 -2.991550e-01 0.000000e+00 7.758453e-01 -6.309231e-01 0.000000e+00 9.147507e-02 9.958074e-01 0.000000e+00   </DataArray>
</PointData>
</Piece>
</UnstructuredGrid>
</VTKFile>
