<!-- TimeStep 8 Computed 2021-08-30 at 9:26:11 -->
<VTKFile type="UnstructuredGrid" version="0.1" byte_order="LittleEndian">
<UnstructuredGrid>
<Piece NumberOfPoints="658" NumberOfCells="1187">
<Points>
 <DataArray type="Float64" NumberOfComponents="3" format="ascii"> 3.225000e-02 1.380000e-02 0.000000e+00 3.850000e-02 2.000000e-03 0.000000e+00 1.790000e-02 2.000000e-03 0.000000e+00 3.850000e-02 3.000000e-02 0.000000e+00 1.610000e-02 5.000000e-04 0.000000e+00 -2.400000e-02 3.000000e-02 0.000000e+00 0.000000e+00 0.000000e+00 0.000000e+00 -2.400000e-02 0.000000e+00 0.000000e+00 3.209060e-02 1.520260e-02 0.000000e+00 3.166140e-02 1.644790e-02 0.000000e+00 3.086510e-02 1.772340e-02 0.000000e+00 2.972250e-02 1.882050e-02 0.000000e+00 2.860520e-02 1.948120e-02 0.000000e+00 2.719700e-02 1.993430e-02 0.000000e+00 2.590380e-02 2.004930e-02 0.000000e+00 2.457020e-02 1.988430e-02 0.000000e+00 2.332460e-02 1.944840e-02 0.000000e+00 2.208010e-02 1.866800e-02 0.000000e+00 2.105550e-02 1.762290e-02 0.000000e+00 2.030070e-02 1.636520e-02 0.000000e+00 1.988720e-02 1.510250e-02 0.000000e+00 1.975010e-02 1.376650e-02 0.000000e+00 1.990830e-02 1.240220e-02 0.000000e+00 2.036540e-02 1.109550e-02 0.000000e+00 2.111820e-02 9.897330e-03 0.000000e+00 2.206020e-02 8.948140e-03 0.000000e+00 2.327140e-02 8.177090e-03 0.000000e+00 2.473380e-02 7.679600e-03 0.000000e+00 2.609570e-02 7.550730e-03 0.000000e+00 2.739940e-02 7.708680e-03 0.000000e+00 2.878200e-02 8.203300e-03 0.000000e+00 2.990320e-02 8.918690e-03 0.000000e+00 3.088920e-02 9.906670e-03 0.000000e+00 3.160900e-02 1.104290e-02 0.000000e+00 3.210220e-02 1.244870e-02 0.000000e+00 -2.400000e-02 2.335620e-02 0.000000e+00 -2.400000e-02 1.701100e-02 0.000000e+00 -2.400000e-02 1.072240e-02 0.000000e+00 -2.400000e-02 4.857510e-03 0.000000e+00 2.555380e-03 7.935950e-05 0.000000e+00 4.875910e-03 1.514260e-04 0.000000e+00 6.963700e-03 2.162640e-04 0.000000e+00 8.859870e-03 2.751510e-04 0.000000e+00 1.057630e-02 3.284580e-04 0.000000e+00 1.216970e-02 3.779410e-04 0.000000e+00 1.361520e-02 4.228320e-04 0.000000e+00 1.491400e-02 4.631670e-04 0.000000e+00 3.513720e-02 3.000000e-02 0.000000e+00 3.240430e-02 3.000000e-02 0.000000e+00 2.925060e-02 3.000000e-02 0.000000e+00 2.634890e-02 3.000000e-02 0.000000e+00 2.370540e-02 3.000000e-02 0.000000e+00 2.076670e-02 3.000000e-02 0.000000e+00 1.724780e-02 3.000000e-02 0.000000e+00 1.387080e-02 3.000000e-02 0.000000e+00 1.012770e-02 3.000000e-02 0.000000e+00 5.994200e-03 3.000000e-02 0.000000e+00 1.449760e-03 3.000000e-02 0.000000e+00 -3.587440e-03 3.000000e-02 0.000000e+00 -1.004840e-02 3.000000e-02 0.000000e+00 -1.697880e-02 3.000000e-02 0.000000e+00 1.699120e-02 1.242700e-03 0.000000e+00 3.850000e-02 5.026050e-03 0.000000e+00 3.850000e-02 7.576210e-03 0.000000e+00 3.850000e-02 9.994300e-03 0.000000e+00 3.850000e-02 1.226100e-02 0.000000e+00 3.850000e-02 1.414740e-02 0.000000e+00 3.850000e-02 1.624580e-02 0.000000e+00 3.850000e-02 1.834310e-02 0.000000e+00 3.850000e-02 2.066490e-02 0.000000e+00 3.850000e-02 2.323650e-02 0.000000e+00 3.850000e-02 2.633950e-02 0.000000e+00 1.914730e-02 2.000000e-03 0.000000e+00 2.068130e-02 2.000000e-03 0.000000e+00 2.253900e-02 2.000000e-03 0.000000e+00 2.480250e-02 2.000000e-03 0.000000e+00 2.727520e-02 2.000000e-03 0.000000e+00 3.001300e-02 2.000000e-03 0.000000e+00 3.284600e-02 2.000000e-03 0.000000e+00 3.556410e-02 2.000000e-03 0.000000e+00 -2.352000e-02 0.000000e+00 0.000000e+00 -2.304000e-02 0.000000e+00 0.000000e+00 -2.256000e-02 0.000000e+00 0.000000e+00 -2.208000e-02 0.000000e+00 0.000000e+00 -2.160000e-02 0.000000e+00 0.000000e+00 -2.112000e-02 0.000000e+00 0.000000e+00 -2.064000e-02 0.000000e+00 0.000000e+00 -2.016000e-02 0.000000e+00 0.000000e+00 -1.968000e-02 0.000000e+00 0.000000e+00 -1.920000e-02 0.000000e+00 0.000000e+00 -1.872000e-02 0.000000e+00 0.000000e+00 -1.824000e-02 0.000000e+00 0.000000e+00 -1.776000e-02 0.000000e+00 0.000000e+00 -1.728000e-02 0.000000e+00 0.000000e+00 -1.680000e-02 0.000000e+00 0.000000e+00 -1.632000e-02 0.000000e+00 0.000000e+00 -1.584000e-02 0.000000e+00 0.000000e+00 -1.536000e-02 0.000000e+00 0.000000e+00 -1.488000e-02 0.000000e+00 0.000000e+00 -1.440000e-02 0.000000e+00 0.000000e+00 -1.392000e-02 0.000000e+00 0.000000e+00 -1.344000e-02 0.000000e+00 0.000000e+00 -1.296000e-02 0.000000e+00 0.000000e+00 -1.248000e-02 0.000000e+00 0.000000e+00 -1.200000e-02 0.000000e+00 0.000000e+00 -1.152000e-02 0.000000e+00 0.000000e+00 -1.104000e-02 0.000000e+00 0.000000e+00 -1.056000e-02 0.000000e+00 0.000000e+00 -1.008000e-02 0.000000e+00 0.000000e+00 -9.600000e-03 0.000000e+00 0.000000e+00 -9.120000e-03 0.000000e+00 0.000000e+00 -8.640000e-03 0.000000e+00 0.000000e+00 -8.160000e-03 0.000000e+00 0.000000e+00 -7.680000e-03 0.000000e+00 0.000000e+00 -7.200000e-03 0.000000e+00 0.000000e+00 -6.720000e-03 0.000000e+00 0.000000e+00 -6.240000e-03 0.000000e+00 0.000000e+00 -5.760000e-03 0.000000e+00 0.000000e+00 -5.280000e-03 0.000000e+00 0.000000e+00 -4.800000e-03 0.000000e+00 0.000000e+00 -4.320000e-03 0.000000e+00 0.000000e+00 -3.840000e-03 0.000000e+00 0.000000e+00 -3.360000e-03 0.000000e+00 0.000000e+00 -2.880000e-03 0.000000e+00 0.000000e+00 -2.400000e-03 0.000000e+00 0.000000e+00 -1.920000e-03 0.000000e+00 0.000000e+00 -1.440000e-03 0.000000e+00 0.000000e+00 -9.600000e-04 0.000000e+00 0.000000e+00 -4.800000e-04 0.000000e+00 0.000000e+00 -2.340000e-02 5.208130e-04 0.000000e+00 -2.232960e-02 4.618260e-04 0.000000e+00 -2.136950e-02 4.810430e-04 0.000000e+00 -2.041540e-02 4.927590e-04 0.000000e+00 -1.945300e-02 4.966680e-04 0.000000e+00 -1.848070e-02 4.958900e-04 0.000000e+00 -1.751710e-02 4.691530e-04 0.000000e+00 -1.656600e-02 4.678350e-04 0.000000e+00 -1.561650e-02 4.775930e-04 0.000000e+00 -1.465390e-02 4.891080e-04 0.000000e+00 -1.370270e-02 4.971550e-04 0.000000e+00 -1.272340e-02 4.842530e-04 0.000000e+00 -1.178010e-02 4.967790e-04 0.000000e+00 -1.080540e-02 4.845440e-04 0.000000e+00 -9.864580e-03 4.765300e-04 0.000000e+00 -8.865750e-03 4.840670e-04 0.000000e+00 -7.905730e-03 5.011730e-04 0.000000e+00 -6.950840e-03 4.922920e-04 0.000000e+00 -6.019280e-03 4.246020e-04 0.000000e+00 -5.025350e-03 4.728720e-04 0.000000e+00 -4.065420e-03 4.835660e-04 0.000000e+00 -3.128960e-03 4.451670e-04 0.000000e+00 -2.171430e-03 4.762830e-04 0.000000e+00 -1.187460e-03 5.232410e-04 0.000000e+00 -1.169200e-04 6.148440e-04 0.000000e+00 5.857940e-03 1.696520e-03 0.000000e+00 9.466970e-03 1.890640e-03 0.000000e+00 1.285950e-02 1.842540e-03 0.000000e+00 1.567970e-02 1.589100e-03 0.000000e+00 1.654450e-02 2.586790e-03 0.000000e+00 1.870650e-02 3.039180e-03 0.000000e+00 2.161510e-02 3.508730e-03 0.000000e+00 2.644280e-02 3.572340e-03 0.000000e+00 3.127720e-02 3.918880e-03 0.000000e+00 3.629790e-02 5.896780e-03 0.000000e+00 3.653930e-02 1.078160e-02 0.000000e+00 3.658270e-02 1.517420e-02 0.000000e+00 3.649690e-02 1.966800e-02 0.000000e+00 3.564140e-02 2.453050e-02 0.000000e+00 3.471780e-02 2.738170e-02 0.000000e+00 3.097490e-02 2.763820e-02 0.000000e+00 2.500050e-02 2.778260e-02 0.000000e+00 1.911390e-02 2.734780e-02 0.000000e+00 1.195580e-02 2.690690e-02 0.000000e+00 3.452650e-03 2.633780e-02 0.000000e+00 -7.324260e-03 2.613160e-02 0.000000e+00 -1.270890e-02 2.610200e-02 0.000000e+00 -1.842590e-02 2.481480e-02 0.000000e+00 -2.078380e-02 2.023790e-02 0.000000e+00 3.351880e-02 1.299650e-02 0.000000e+00 3.321610e-02 1.125410e-02 0.000000e+00 3.240270e-02 9.708370e-03 0.000000e+00 3.124550e-02 8.531210e-03 0.000000e+00 2.994440e-02 7.484320e-03 0.000000e+00 2.846950e-02 6.692040e-03 0.000000e+00 2.682410e-02 6.398290e-03 0.000000e+00 2.522120e-02 6.457060e-03 0.000000e+00 2.358330e-02 6.768300e-03 0.000000e+00 2.202220e-02 7.395140e-03 0.000000e+00 2.065990e-02 8.488800e-03 0.000000e+00 1.961080e-02 9.755280e-03 0.000000e+00 1.888420e-02 1.131290e-02 0.000000e+00 1.849530e-02 1.294410e-02 0.000000e+00 1.849360e-02 1.454180e-02 0.000000e+00 1.881370e-02 1.618350e-02 0.000000e+00 1.956540e-02 1.777080e-02 0.000000e+00 2.064850e-02 1.913430e-02 0.000000e+00 2.199860e-02 2.018520e-02 0.000000e+00 2.351120e-02 2.085000e-02 0.000000e+00 2.512340e-02 2.121420e-02 0.000000e+00 2.667170e-02 2.118690e-02 0.000000e+00 2.831550e-02 2.085570e-02 0.000000e+00 2.991870e-02 2.021780e-02 0.000000e+00 3.132950e-02 1.919600e-02 0.000000e+00 3.236480e-02 1.776990e-02 0.000000e+00 3.311520e-02 1.621600e-02 0.000000e+00 3.347840e-02 1.467100e-02 0.000000e+00 -2.284400e-02 4.893670e-04 0.000000e+00 -2.185120e-02 4.651270e-04 0.000000e+00 -2.087950e-02 4.954800e-04 0.000000e+00 -1.992730e-02 4.905700e-04 0.000000e+00 -1.896440e-02 5.146960e-04 0.000000e+00 -1.799490e-02 4.750100e-04 0.000000e+00 -1.705020e-02 4.652250e-04 0.000000e+00 -1.607800e-02 4.701420e-04 0.000000e+00 -1.512950e-02 4.852050e-04 0.000000e+00 -1.419440e-02 4.972290e-04 0.000000e+00 -1.320410e-02 4.845360e-04 0.000000e+00 -1.225140e-02 4.886650e-04 0.000000e+00 -1.130790e-02 4.924130e-04 0.000000e+00 -1.033120e-02 4.774360e-04 0.000000e+00 -9.365120e-03 4.775410e-04 0.000000e+00 -8.389860e-03 4.925440e-04 0.000000e+00 -7.442720e-03 5.065380e-04 0.000000e+00 -6.466490e-03 4.625650e-04 0.000000e+00 -5.527350e-03 4.204680e-04 0.000000e+00 -4.553670e-03 4.855930e-04 0.000000e+00 -3.599350e-03 4.758930e-04 0.000000e+00 -2.637330e-03 4.397930e-04 0.000000e+00 -1.676010e-03 4.983490e-04 0.000000e+00 -6.774770e-04 5.559640e-04 0.000000e+00 4.116400e-03 1.544720e-03 0.000000e+00 7.691210e-03 1.775840e-03 0.000000e+00 1.126030e-02 1.890640e-03 0.000000e+00 1.429970e-02 1.759220e-03 0.000000e+00 1.756480e-02 3.582850e-03 0.000000e+00 1.998660e-02 3.276390e-03 0.000000e+00 2.393340e-02 3.733490e-03 0.000000e+00 2.887110e-02 3.696960e-03 0.000000e+00 3.388150e-02 4.409110e-03 0.000000e+00 3.644040e-02 8.532590e-03 0.000000e+00 3.666220e-02 1.303330e-02 0.000000e+00 3.624470e-02 1.730480e-02 0.000000e+00 3.612270e-02 2.204020e-02 0.000000e+00 1.561920e-02 2.705730e-02 0.000000e+00 2.783560e-02 2.771860e-02 0.000000e+00 2.222260e-02 2.767250e-02 0.000000e+00 7.971510e-03 2.667810e-02 0.000000e+00 -1.457570e-03 2.572150e-02 0.000000e+00 -2.083080e-02 1.620770e-02 0.000000e+00 -2.114540e-02 1.046000e-03 0.000000e+00 -2.018830e-02 1.019380e-03 0.000000e+00 -1.681430e-02 9.910220e-04 0.000000e+00 -1.776950e-02 9.521010e-04 0.000000e+00 -2.067570e-02 1.052860e-03 0.000000e+00 -1.727630e-02 9.377480e-04 0.000000e+00 -1.823140e-02 1.032910e-03 0.000000e+00 -1.298260e-02 9.876760e-04 0.000000e+00 -1.396810e-02 1.067390e-03 0.000000e+00 -2.457830e-03 9.476930e-04 0.000000e+00 -1.347010e-02 1.016030e-03 0.000000e+00 -1.445740e-02 1.046670e-03 0.000000e+00 -1.107320e-02 1.059790e-03 0.000000e+00 -1.011690e-02 9.539410e-04 0.000000e+00 -1.056780e-02 1.013760e-03 0.000000e+00 -1.157310e-02 1.056340e-03 0.000000e+00 -8.623990e-03 1.038970e-03 0.000000e+00 -6.189430e-03 9.536710e-04 0.000000e+00 -7.664510e-03 1.040370e-03 0.000000e+00 -6.660790e-03 1.046330e-03 0.000000e+00 -3.328320e-03 9.685660e-04 0.000000e+00 -4.327420e-03 1.042660e-03 0.000000e+00 -7.157010e-03 1.050700e-03 0.000000e+00 -3.803170e-03 1.020190e-03 0.000000e+00 -4.831560e-03 1.021450e-03 0.000000e+00 -2.891810e-03 8.524400e-04 0.000000e+00 8.485410e-03 3.432940e-03 0.000000e+00 -3.736620e-04 1.188990e-03 0.000000e+00 1.208400e-02 3.413080e-03 0.000000e+00 6.715380e-03 3.280840e-03 0.000000e+00 4.997270e-03 3.185510e-03 0.000000e+00 -9.151520e-04 1.111380e-03 0.000000e+00 1.030580e-02 3.489760e-03 0.000000e+00 2.705650e-03 1.522090e-03 0.000000e+00 2.039490e-02 4.933730e-03 0.000000e+00 1.519830e-02 3.004380e-03 0.000000e+00 1.884210e-02 4.425300e-03 0.000000e+00 3.358290e-02 2.277120e-02 0.000000e+00 2.225360e-02 5.511080e-03 0.000000e+00 3.485680e-02 1.890660e-02 0.000000e+00 3.491090e-02 1.193930e-02 0.000000e+00 3.000610e-02 5.643160e-03 0.000000e+00 3.235230e-02 5.887860e-03 0.000000e+00 -2.209940e-02 9.181730e-04 0.000000e+00 3.445720e-02 7.084320e-03 0.000000e+00 3.439750e-02 9.622150e-03 0.000000e+00 2.104510e-02 2.526260e-02 0.000000e+00 3.428480e-02 2.067350e-02 0.000000e+00 2.375500e-02 2.570570e-02 0.000000e+00 1.776660e-02 2.436660e-02 0.000000e+00 3.252570e-02 2.530750e-02 0.000000e+00 1.000040e-02 2.369430e-02 0.000000e+00 -5.222370e-03 2.226790e-02 0.000000e+00 2.623900e-02 2.582870e-02 0.000000e+00 1.372330e-02 2.413330e-02 0.000000e+00 -9.640430e-03 2.255880e-02 0.000000e+00 -1.822220e-02 1.811490e-02 0.000000e+00 -1.412820e-02 2.232400e-02 0.000000e+00 -2.161440e-02 9.727400e-04 0.000000e+00 -8.127090e-03 1.038090e-03 0.000000e+00 5.986810e-04 8.564660e-04 0.000000e+00 2.919940e-02 2.548060e-02 0.000000e+00 -2.219370e-02 1.372400e-02 0.000000e+00 -1.584900e-02 9.464230e-04 0.000000e+00 3.277780e-02 8.016360e-03 0.000000e+00 3.130570e-02 7.065650e-03 0.000000e+00 2.773290e-02 5.134820e-03 0.000000e+00 2.416750e-02 5.438660e-03 0.000000e+00 2.051830e-02 6.767480e-03 0.000000e+00 1.794570e-02 9.989900e-03 0.000000e+00 1.698810e-02 1.376450e-02 0.000000e+00 1.769270e-02 1.761110e-02 0.000000e+00 1.884300e-02 1.943280e-02 0.000000e+00 2.041690e-02 2.092300e-02 0.000000e+00 2.214210e-02 2.190840e-02 0.000000e+00 2.592160e-02 2.259040e-02 0.000000e+00 2.774100e-02 2.232700e-02 0.000000e+00 2.968140e-02 2.187400e-02 0.000000e+00 3.309810e-02 1.924490e-02 0.000000e+00 3.412190e-02 1.750290e-02 0.000000e+00 1.570410e-03 8.416660e-04 0.000000e+00 3.243440e-03 3.109830e-03 0.000000e+00 -2.011680e-02 1.340120e-02 0.000000e+00 1.924930e-03 2.296040e-03 0.000000e+00 -2.304690e-02 1.038930e-03 0.000000e+00 -1.921250e-02 1.069290e-03 0.000000e+00 -1.251460e-02 1.011640e-03 0.000000e+00 -1.632520e-02 9.725270e-04 0.000000e+00 -9.608800e-03 9.760010e-04 0.000000e+00 -5.775390e-03 8.260340e-04 0.000000e+00 1.949790e-04 1.244240e-03 0.000000e+00 1.366400e-02 3.254490e-03 0.000000e+00 -1.954400e-03 9.997400e-04 0.000000e+00 5.956210e-03 2.320340e-02 0.000000e+00 1.613680e-02 4.138020e-03 0.000000e+00 -2.159150e-02 1.135960e-02 0.000000e+00 -1.862070e-02 1.532320e-02 0.000000e+00 -1.969900e-02 1.013850e-03 0.000000e+00 -1.429360e-03 2.184690e-02 0.000000e+00 8.938000e-04 1.758100e-03 0.000000e+00 -1.739860e-02 2.105290e-02 0.000000e+00 3.503010e-02 1.390550e-02 0.000000e+00 -1.538560e-02 9.531990e-04 0.000000e+00 3.477560e-02 1.583430e-02 0.000000e+00 3.186090e-02 2.104080e-02 0.000000e+00 2.402810e-02 2.247280e-02 0.000000e+00 2.043580e-02 2.297850e-02 0.000000e+00 1.712150e-02 1.568790e-02 0.000000e+00 1.719890e-02 1.184250e-02 0.000000e+00 1.891820e-02 8.124710e-03 0.000000e+00 2.580970e-02 5.034100e-03 0.000000e+00 -2.258690e-02 9.559390e-04 0.000000e+00 -1.871690e-02 1.070390e-03 0.000000e+00 -1.490240e-02 9.781250e-04 0.000000e+00 -1.203480e-02 1.046550e-03 0.000000e+00 -9.143920e-03 1.022430e-03 0.000000e+00 -5.328750e-03 9.594130e-04 0.000000e+00 -1.443410e-03 1.043280e-03 0.000000e+00 1.969480e-03 2.272860e-02 0.000000e+00 -2.071300e-02 9.788950e-03 0.000000e+00 -1.958230e-02 1.116720e-02 0.000000e+00 -2.215760e-02 9.118380e-03 0.000000e+00 -1.941500e-02 9.053100e-03 0.000000e+00 -2.076380e-02 8.120110e-03 0.000000e+00 -2.092830e-02 1.670000e-03 0.000000e+00 -1.422850e-02 1.696350e-03 0.000000e+00 -4.658650e-03 1.607000e-03 0.000000e+00 -1.132350e-02 1.693630e-03 0.000000e+00 4.262890e-03 1.984380e-02 0.000000e+00 -6.266330e-03 1.609810e-03 0.000000e+00 9.347380e-03 5.186120e-03 0.000000e+00 -1.652640e-02 1.692530e-03 0.000000e+00 7.541480e-03 5.084430e-03 0.000000e+00 1.748270e-02 5.199610e-03 0.000000e+00 1.306590e-02 4.915860e-03 0.000000e+00 2.080530e-05 1.841260e-03 0.000000e+00 1.469850e-02 4.628130e-03 0.000000e+00 5.792460e-03 4.871950e-03 0.000000e+00 -6.440500e-04 1.784460e-03 0.000000e+00 1.127780e-02 5.148840e-03 0.000000e+00 1.085750e-03 2.955270e-03 0.000000e+00 -3.179300e-03 1.891810e-02 0.000000e+00 2.274260e-02 2.375350e-02 0.000000e+00 8.310980e-03 2.037610e-02 0.000000e+00 -1.755530e-02 1.298870e-02 0.000000e+00 -1.950490e-02 1.671430e-03 0.000000e+00 -1.797420e-02 1.554430e-03 0.000000e+00 -1.151340e-02 1.943950e-02 0.000000e+00 1.890250e-02 6.092260e-03 0.000000e+00 4.184220e-03 4.874160e-03 0.000000e+00 2.495010e-02 2.409630e-02 0.000000e+00 1.570090e-02 1.714030e-02 0.000000e+00 1.539290e-02 1.272360e-02 0.000000e+00 -1.622490e-02 1.607980e-02 0.000000e+00 -1.513740e-02 1.901560e-02 0.000000e+00 1.709160e-02 8.657140e-03 0.000000e+00 1.574290e-02 1.018820e-02 0.000000e+00 1.540270e-02 1.492700e-02 0.000000e+00 1.656690e-02 1.939380e-02 0.000000e+00 1.823450e-02 2.152830e-02 0.000000e+00 2.704170e-02 2.404070e-02 0.000000e+00 2.896550e-02 2.347080e-02 0.000000e+00 -1.967140e-02 7.179610e-03 0.000000e+00 -1.783480e-02 1.020500e-02 0.000000e+00 -7.187160e-03 1.861690e-02 0.000000e+00 -2.042350e-02 1.621020e-03 0.000000e+00 -8.891590e-03 1.690860e-03 0.000000e+00 -1.473500e-02 1.624080e-03 0.000000e+00 -1.708810e-02 1.535920e-03 0.000000e+00 -1.280550e-02 1.533350e-03 0.000000e+00 -6.817630e-03 1.658350e-03 0.000000e+00 -5.205250e-03 1.561040e-03 0.000000e+00 -1.185630e-03 1.677410e-03 0.000000e+00 -3.512550e-03 1.587410e-03 0.000000e+00 -1.032760e-02 1.560550e-03 0.000000e+00 -7.360100e-03 1.597090e-03 0.000000e+00 -1.324550e-02 1.468750e-03 0.000000e+00 -2.907030e-03 1.434130e-03 0.000000e+00 -1.996470e-02 1.519740e-03 0.000000e+00 1.931370e-03 3.789880e-03 0.000000e+00 -4.079750e-03 1.619410e-03 0.000000e+00 1.197440e-02 2.104740e-02 0.000000e+00 -1.897920e-02 1.758730e-03 0.000000e+00 -7.886370e-03 1.578040e-03 0.000000e+00 3.103830e-02 2.336140e-02 0.000000e+00 -5.761230e-03 1.376150e-03 0.000000e+00 1.734660e-02 6.968860e-03 0.000000e+00 -1.183840e-02 1.658460e-03 0.000000e+00 -8.375160e-03 1.643890e-03 0.000000e+00 1.398700e-02 1.888430e-02 0.000000e+00 -1.754320e-02 1.377420e-03 0.000000e+00 -2.145750e-02 1.634970e-03 0.000000e+00 -1.560810e-02 1.497140e-03 0.000000e+00 -1.845720e-02 1.726330e-03 0.000000e+00 5.418650e-04 1.925980e-02 0.000000e+00 -9.876720e-03 1.465750e-03 0.000000e+00 -2.303880e-03 1.532840e-03 0.000000e+00 2.755290e-03 5.104590e-03 0.000000e+00 -2.280550e-02 1.623090e-03 0.000000e+00 -1.606410e-02 1.427410e-03 0.000000e+00 -2.188640e-02 1.411010e-03 0.000000e+00 -2.094230e-02 6.373350e-03 0.000000e+00 -2.232220e-02 1.406430e-03 0.000000e+00 -1.081290e-02 1.633740e-03 0.000000e+00 -1.370450e-02 1.654570e-03 0.000000e+00 1.528360e-02 2.157820e-02 0.000000e+00 -2.187280e-02 7.259610e-03 0.000000e+00 -1.815370e-02 8.007390e-03 0.000000e+00 -2.242760e-02 5.441030e-03 0.000000e+00 -2.111880e-02 4.871500e-03 0.000000e+00 -2.197930e-02 4.152140e-03 0.000000e+00 -2.116740e-02 3.600850e-03 0.000000e+00 -2.203540e-02 3.076390e-03 0.000000e+00 -2.023470e-02 4.145160e-03 0.000000e+00 -2.127800e-02 2.452930e-03 0.000000e+00 -2.298410e-02 3.664980e-03 0.000000e+00 -2.270040e-02 2.460280e-03 0.000000e+00 -1.999070e-02 5.511250e-03 0.000000e+00 -2.206850e-02 2.053180e-03 0.000000e+00 -1.517820e-02 1.440220e-03 0.000000e+00 -1.231230e-02 1.598230e-03 0.000000e+00 6.595770e-03 1.685960e-02 0.000000e+00 -1.592540e-02 2.049480e-03 0.000000e+00 -9.423340e-03 1.617440e-03 0.000000e+00 -1.759700e-03 1.588040e-03 0.000000e+00 1.584660e-02 5.852590e-03 0.000000e+00 -1.573680e-02 1.125250e-02 0.000000e+00 1.028020e-02 7.063320e-03 0.000000e+00 -3.487310e-04 2.505800e-03 0.000000e+00 1.069450e-02 1.770910e-02 0.000000e+00 -1.474740e-02 1.397010e-02 0.000000e+00 -3.193340e-03 2.222860e-03 0.000000e+00 3.816860e-04 2.456360e-03 0.000000e+00 1.558350e-02 7.891870e-03 0.000000e+00 -2.062510e-02 2.214170e-03 0.000000e+00 -2.300510e-02 7.309920e-03 0.000000e+00 4.943630e-03 6.312230e-03 0.000000e+00 7.693650e-04 4.169100e-03 0.000000e+00 -2.045950e-02 3.007890e-03 0.000000e+00 -1.320390e-02 1.673890e-02 0.000000e+00 1.362080e-02 1.162150e-02 0.000000e+00 -1.951950e-02 3.249670e-03 0.000000e+00 8.291150e-03 7.213000e-03 0.000000e+00 -1.266920e-02 2.089280e-03 0.000000e+00 1.509320e-03 5.134000e-03 0.000000e+00 -1.527330e-02 2.093450e-03 0.000000e+00 2.634420e-03 1.638980e-02 0.000000e+00 -5.045840e-03 2.218060e-03 0.000000e+00 1.032670e-04 3.309100e-03 0.000000e+00 -7.065010e-03 2.281640e-03 0.000000e+00 -8.640040e-03 2.326170e-03 0.000000e+00 -9.974600e-04 2.426710e-03 0.000000e+00 -1.392370e-02 2.394960e-03 0.000000e+00 6.425320e-03 6.836580e-03 0.000000e+00 1.368060e-02 8.944580e-03 0.000000e+00 -1.324990e-02 2.163790e-03 0.000000e+00 3.459150e-03 6.713730e-03 0.000000e+00 1.420770e-02 6.458950e-03 0.000000e+00 -2.642010e-03 2.036210e-03 0.000000e+00 1.236770e-02 6.799520e-03 0.000000e+00 -2.000000e-02 2.247710e-03 0.000000e+00 -3.838250e-03 2.305580e-03 0.000000e+00 -1.048460e-02 2.166750e-03 0.000000e+00 -7.605190e-03 2.079640e-03 0.000000e+00 -1.458780e-02 2.330800e-03 0.000000e+00 -1.809020e-02 2.261400e-03 0.000000e+00 -1.160560e-02 2.374400e-03 0.000000e+00 -2.345370e-02 1.689690e-03 0.000000e+00 -1.919820e-02 4.653410e-03 0.000000e+00 -1.641330e-02 2.565530e-03 0.000000e+00 -1.756040e-02 1.950690e-03 0.000000e+00 -9.899080e-04 1.629390e-02 0.000000e+00 -1.101460e-02 2.356260e-03 0.000000e+00 1.356170e-02 1.392670e-02 0.000000e+00 -4.430740e-03 2.157270e-03 0.000000e+00 -1.934050e-02 2.352940e-03 0.000000e+00 -9.909980e-03 2.184850e-03 0.000000e+00 -4.350210e-03 1.600370e-02 0.000000e+00 -1.867810e-02 6.202350e-03 0.000000e+00 -1.219210e-02 2.273370e-03 0.000000e+00 -2.181920e-03 1.363960e-02 0.000000e+00 -1.701680e-02 2.237570e-03 0.000000e+00 -9.988580e-03 1.660220e-02 0.000000e+00 -9.258230e-03 2.324560e-03 0.000000e+00 -5.729720e-03 2.037550e-03 0.000000e+00 -1.647890e-02 9.011350e-03 0.000000e+00 -1.573620e-02 2.768090e-03 0.000000e+00 -1.315450e-02 1.204400e-02 0.000000e+00 -1.870420e-02 2.625320e-03 0.000000e+00 9.245580e-03 9.447760e-03 0.000000e+00 4.851590e-03 8.089660e-03 0.000000e+00 -8.097740e-03 2.235490e-03 0.000000e+00 -7.309900e-03 1.525420e-02 0.000000e+00 6.793080e-03 9.005710e-03 0.000000e+00 -1.852220e-02 3.799150e-03 0.000000e+00 1.357970e-02 1.634240e-02 0.000000e+00 -8.909860e-03 3.032160e-03 0.000000e+00 -1.788630e-02 5.150740e-03 0.000000e+00 -1.700150e-02 6.826470e-03 0.000000e+00 1.152840e-02 1.296890e-02 0.000000e+00 -6.360720e-03 2.399370e-03 0.000000e+00 4.561470e-03 1.344060e-02 0.000000e+00 8.747560e-03 1.435930e-02 0.000000e+00 1.156160e-02 1.514880e-02 0.000000e+00 -5.545620e-03 2.829420e-03 0.000000e+00 9.692160e-04 1.365760e-02 0.000000e+00 -5.239460e-03 1.322120e-02 0.000000e+00 -8.202260e-03 2.967140e-03 0.000000e+00 -1.709630e-02 3.087160e-03 0.000000e+00 1.709990e-03 6.891740e-03 0.000000e+00 -8.415540e-04 3.270690e-03 0.000000e+00 -6.923600e-03 3.038420e-03 0.000000e+00 -1.543670e-03 2.192360e-03 0.000000e+00 -1.207480e-02 3.051020e-03 0.000000e+00 -2.100420e-03 2.218900e-03 0.000000e+00 1.160490e-02 1.070880e-02 0.000000e+00 -1.533530e-02 7.875990e-03 0.000000e+00 -4.408490e-04 4.294140e-03 0.000000e+00 -1.183060e-02 1.440060e-02 0.000000e+00 -1.410050e-02 9.592400e-03 0.000000e+00 -3.500260e-03 3.046370e-03 0.000000e+00 -1.045890e-02 2.970590e-03 0.000000e+00 1.140890e-02 8.662630e-03 0.000000e+00 -1.438500e-02 3.322090e-03 0.000000e+00 -9.675450e-03 3.028560e-03 0.000000e+00 -4.540410e-03 2.965630e-03 0.000000e+00 -1.129200e-02 3.131170e-03 0.000000e+00 -1.758150e-02 2.555930e-03 0.000000e+00 -9.492890e-03 1.429740e-02 0.000000e+00 -1.632830e-02 3.443940e-03 0.000000e+00 -1.797410e-02 3.114580e-03 0.000000e+00 -1.347750e-02 3.099040e-03 0.000000e+00 2.259820e-04 5.677470e-03 0.000000e+00 -2.640870e-03 2.795250e-03 0.000000e+00 -1.274080e-02 2.757440e-03 0.000000e+00 -7.886550e-03 1.250410e-02 0.000000e+00 -1.644270e-02 5.346590e-03 0.000000e+00 -1.184280e-02 3.958520e-03 0.000000e+00 -1.174620e-02 1.050750e-02 0.000000e+00 -1.514600e-02 6.326280e-03 0.000000e+00 -6.203070e-03 3.226220e-03 0.000000e+00 -1.506810e-02 2.845480e-03 0.000000e+00 -1.063540e-02 1.246320e-02 0.000000e+00 -7.590500e-03 2.755570e-03 0.000000e+00 2.870920e-03 8.759280e-03 0.000000e+00 -1.725650e-02 4.106950e-03 0.000000e+00 -1.560390e-03 4.085660e-03 0.000000e+00 -5.468920e-03 3.836080e-03 0.000000e+00 -6.703370e-03 3.935240e-03 0.000000e+00 -3.376270e-03 1.124270e-02 0.000000e+00 7.156370e-03 1.158260e-02 0.000000e+00 -1.761550e-03 3.002010e-03 0.000000e+00 -4.089830e-03 3.905360e-03 0.000000e+00 -1.371550e-02 7.524910e-03 0.000000e+00 -1.367380e-02 4.248310e-03 0.000000e+00 -8.368120e-03 3.867030e-03 0.000000e+00 -1.171170e-03 5.217830e-03 0.000000e+00 -4.857990e-03 4.848200e-03 0.000000e+00 -1.090300e-02 4.029160e-03 0.000000e+00 -1.274650e-02 3.669680e-03 0.000000e+00 -5.919780e-03 1.083900e-02 0.000000e+00 9.558640e-03 1.189050e-02 0.000000e+00 -7.574440e-03 3.563860e-03 0.000000e+00 -1.492750e-02 4.771680e-03 0.000000e+00 2.236970e-03 1.119460e-02 0.000000e+00 4.733280e-03 1.045470e-02 0.000000e+00 -9.220580e-03 3.768400e-03 0.000000e+00 -5.148650e-04 1.135420e-02 0.000000e+00 -1.357850e-02 5.818830e-03 0.000000e+00 -2.366500e-03 4.946830e-03 0.000000e+00 -6.228020e-03 4.926570e-03 0.000000e+00 -9.983610e-03 3.980800e-03 0.000000e+00 -1.144050e-02 4.948540e-03 0.000000e+00 -7.759370e-03 1.033500e-02 0.000000e+00 -7.629040e-03 4.640490e-03 0.000000e+00 -1.538870e-02 3.648900e-03 0.000000e+00 -9.628720e-03 1.075910e-02 0.000000e+00 -1.257110e-02 4.731370e-03 0.000000e+00 -2.768930e-03 3.787840e-03 0.000000e+00 -3.622200e-03 4.846620e-03 0.000000e+00 -4.524900e-03 9.105610e-03 0.000000e+00 -8.939800e-04 6.451090e-03 0.000000e+00 -1.215260e-02 8.625950e-03 0.000000e+00 -1.217790e-02 7.025380e-03 0.000000e+00 8.168110e-04 9.212630e-03 0.000000e+00 -1.608840e-02 4.335870e-03 0.000000e+00 -1.711100e-03 9.213210e-03 0.000000e+00 -1.029650e-02 5.049540e-03 0.000000e+00 -6.909270e-03 8.648760e-03 0.000000e+00 -9.007840e-03 4.819760e-03 0.000000e+00 -1.058850e-02 9.286990e-03 0.000000e+00 -2.065190e-03 6.248940e-03 0.000000e+00 -1.039850e-02 7.639190e-03 0.000000e+00 -7.166850e-03 5.639700e-03 0.000000e+00 -3.354030e-03 7.400740e-03 0.000000e+00 -5.409180e-03 5.770720e-03 0.000000e+00 -9.516970e-03 6.165460e-03 0.000000e+00 -1.214120e-02 5.777600e-03 0.000000e+00 -8.233940e-03 5.873880e-03 0.000000e+00 -3.176660e-03 5.893430e-03 0.000000e+00 -8.382550e-05 7.590150e-03 0.000000e+00 -4.307220e-03 6.013980e-03 0.000000e+00 -1.097900e-02 6.151490e-03 0.000000e+00 -1.620360e-03 7.485480e-03 0.000000e+00 -8.906380e-03 8.940680e-03 0.000000e+00 -6.308780e-03 6.070970e-03 0.000000e+00 -5.450560e-03 7.209030e-03 0.000000e+00 -8.549410e-03 7.365900e-03 0.000000e+00 -7.178150e-03 6.864210e-03 0.000000e+00 </DataArray>
</Points>
<Cells>
 <DataArray type="Int32" Name="connectivity" format="ascii"> 80 81 129  82 83 130  84 85 131  86 87 132  88 89 133  90 91 134  92 93 135  94 95 136  96 97 137  98 99 138  100 101 139  102 103 140  104 105 141  106 107 142  108 109 143  110 111 144  112 113 145  114 115 146  116 117 147  118 119 148  120 121 149  122 123 150  124 125 151  126 127 152  128 6 153  40 41 154  42 43 155  44 45 156  46 4 157  4 61 157  61 2 158  2 72 159  73 74 160  75 76 161  77 78 162  79 1 62  62 63 163  64 65 164  66 67 165  68 69 166  70 71 167  71 3 168  167 71 168  3 47 168  47 48 168  48 49 169  50 51 170  52 53 171  54 55 172  56 57 173  58 59 174  59 60 175  60 5 176  175 60 176  5 35 176  35 36 177  0 34 178  34 33 179  33 32 180  32 31 181  31 30 182  30 29 183  29 28 184  28 27 185  27 26 186  26 25 187  25 24 188  24 23 189  23 22 190  22 21 191  21 20 192  20 19 193  19 18 194  18 17 195  17 16 196  16 15 197  15 14 198  14 13 199  13 12 200  12 11 201  11 10 202  10 9 203  9 8 204  8 0 205  79 62 163  7 80 129  81 82 206  129 81 206  82 130 206  83 84 207  84 131 207  85 86 208  87 88 209  89 90 210  133 89 210  90 134 210  91 92 211  93 94 212  95 96 213  97 98 214  137 97 214  98 138 214  99 100 215  101 102 216  103 104 217  140 103 217  104 141 217  105 106 218  107 108 219  109 110 220  143 109 220  110 144 220  111 112 221  112 145 221  113 114 222  115 116 223  117 118 224  147 117 224  118 148 224  119 120 225  121 122 226  123 124 227  125 126 228  151 125 228  126 152 228  127 128 229  40 154 230  39 40 230  41 42 231  43 44 232  45 46 233  157 61 158  158 2 234  2 159 234  72 73 235  74 75 236  75 161 236  77 162 237  76 77 237  78 79 238  163 63 239  63 64 239  64 164 239  65 66 240  67 68 241  69 70 242  171 53 243  53 54 243  168 48 169  169 49 244  49 50 244  50 170 244  51 52 245  54 172 243  55 56 246  58 174 247  57 58 247  59 175 174  178 34 179  0 178 205  33 180 179  32 181 180  31 182 181  30 183 182  29 184 183  28 185 184  27 186 185  26 187 186  25 188 187  24 189 188  23 190 189  22 191 190  21 192 191  20 193 192  19 194 193  18 195 194  17 196 195  16 197 196  15 198 197  14 199 198  13 200 199  12 201 200  11 202 201  10 203 202  9 204 203  8 205 204  649 635 652  130 83 207  131 85 208  132 87 209  211 92 135  134 91 211  135 93 212  136 95 213  215 100 139  138 99 215  139 101 216  218 106 142  141 105 218  142 107 219  144 111 221  145 113 222  146 115 223  225 120 149  148 119 225  149 121 226  150 123 227  229 128 153  152 127 229  154 41 231  155 43 232  156 45 233  159 72 235  160 74 236  161 76 237  162 78 238  164 65 240  165 67 241  166 69 242  170 51 245  172 55 246  173 57 247  177 36 248  213 96 137  227 124 151  232 44 156  233 46 157  242 70 167  209 88 133  208 86 132  212 94 136  216 102 140  219 108 143  223 116 147  222 114 146  226 122 150  231 42 155  235 73 160  241 68 166  240 66 165  245 52 171  246 56 173  131 208 249  132 209 250  212 136 251  211 135 252  208 132 253  132 250 253  135 212 254  252 135 254  212 251 254  134 211 255  211 252 255  216 140 256  215 139 257  227 151 258  139 216 259  257 139 259  216 256 259  138 215 260  215 257 260  218 142 261  219 143 262  142 219 263  261 142 263  219 262 263  141 218 264  218 261 264  144 221 265  223 147 266  145 222 267  146 223 268  223 266 268  226 150 269  225 149 270  222 146 271  267 222 271  146 268 271  149 226 272  270 149 272  226 269 272  148 225 273  225 270 273  150 227 274  269 150 274  227 258 274  231 155 275  229 153 276  232 156 277  154 231 278  231 275 278  230 154 279  154 278 279  152 229 280  229 276 280  155 232 281  232 277 281  39 230 282  235 160 283  233 157 284  159 235 285  235 283 285  242 167 286  157 158 284  160 236 287  241 166 288  164 240 289  237 162 290  162 238 291  238 79 163  130 207 292  163 239 293  239 164 294  293 239 294  164 289 294  245 171 295  166 242 296  288 166 296  242 286 296  165 350 240  170 245 297  171 243 298  167 168 299  286 167 299  168 169 299  172 246 300  247 174 301  244 170 302  170 297 302  243 172 303  298 243 303  172 300 303  174 175 304  177 248 305  175 176 306  35 177 176  207 131 307  292 207 307  131 249 307  221 145 308  265 221 308  145 267 308  153 6 309  169 244 310  299 169 310  244 302 310  248 36 311  178 179 289  213 137 312  180 181 313  181 182 314  182 183 290  183 184 315  185 186 316  186 187 287  187 188 317  189 190 318  191 192 319  193 194 320  194 195 321  195 196 322  196 197 323  198 199 324  199 200 325  200 201 326  202 203 327  203 204 328  39 282 329  282 230 330  230 279 330  238 163 293  248 311 331  329 282 332  129 206 333  160 287 283  208 253 249  133 210 334  256 140 335  140 217 335  136 213 336  238 293 291  262 143 337  143 220 337  136 336 251  266 147 338  147 224 338  153 309 339  275 155 281  153 339 276  277 156 340  156 233 340  282 330 332  258 151 341  151 228 341  233 284 340  159 285 234  300 246 342  246 173 342  284 158 343  158 234 343  287 236 316  245 295 297  161 237 315  237 290 315  162 291 290  331 311 344  248 331 345  171 298 295  209 133 346  247 301 347  329 332 348  250 209 346  305 248 345  133 334 346  175 306 304  176 177 349  36 37 311  205 178 350  312 137 351  137 214 351  328 204 352  204 205 352  327 203 328  326 201 353  201 202 353  325 200 326  324 199 325  323 197 354  197 198 354  196 323 322  355 322 323  321 195 322  320 194 321  319 192 356  192 193 356  318 190 357  190 191 357  317 188 358  188 189 358  287 187 317  316 186 287  315 184 359  161 315 359  184 185 359  290 183 315  313 181 314  306 176 349  289 179 294  213 312 336  185 316 359  189 318 358  191 319 357  193 320 356  198 324 354  202 327 353  179 180 294  206 130 360  333 206 360  130 292 360  210 134 361  334 210 361  134 255 361  214 138 362  351 214 362  138 260 362  217 141 363  335 217 363  141 264 363  220 144 364  337 220 364  144 265 364  224 148 365  338 224 365  148 273 365  228 152 366  341 228 366  152 280 366  236 161 359  165 241 352  173 247 367  311 37 344  37 370 344  344 368 369  339 309 348  342 173 367  205 350 352  349 177 305  368 344 370  294 180 313  331 344 369  369 368 371  371 368 372  368 370 372  283 287 317  249 253 373  260 257 374  291 293 313  273 270 375  264 261 376  342 367 377  268 266 378  275 281 379  251 336 380  278 275 381  275 379 381  234 285 382  277 340 383  276 339 384  340 284 385  383 340 385  284 343 385  279 278 386  278 381 386  280 276 387  276 384 387  281 277 388  277 383 388  6 39 329  348 332 389  347 301 390  297 295 391  300 342 392  345 331 393  339 348 384  346 334 394  295 298 355  293 294 313  255 252 395  304 306 396  299 433 286  301 174 304  283 317 397  285 283 397  317 358 397  350 178 289  330 279 398  279 386 398  654 655 657  354 324 399  356 320 400  357 319 401  314 182 290  305 345 402  331 369 393  306 349 403  396 306 403  349 305 403  358 318 404  318 357 405  319 356 406  401 319 406  356 400 406  320 321 407  321 322 408  407 321 408  322 355 408  323 354 391  324 325 409  325 326 410  655 637 657  371 372 411  352 241 328  369 371 412  301 304 413  390 301 413  304 396 413  373 253 414  253 250 414  364 265 415  362 260 416  260 374 416  254 251 417  251 380 417  256 335 418  271 268 419  268 378 419  365 273 420  273 375 420  342 377 392  366 280 421  280 387 421  234 382 343  272 269 422  263 262 423  267 271 424  271 419 424  382 285 397  259 256 425  256 418 425  274 258 426  281 388 379  367 247 347  236 359 316  414 250 427  250 346 427  332 330 428  375 270 429  270 272 429  300 392 430  345 393 402  241 288 328  394 334 431  334 361 431  308 267 432  267 424 432  353 286 433  404 318 405  266 338 434  378 266 434  338 365 434  286 353 296  397 358 435  382 397 435  358 404 435  332 428 389  303 300 430  363 264 436  264 376 436  265 308 437  415 265 437  308 432 437  320 407 400  438 400 407  395 252 439  252 254 439  307 249 440  312 351 441  361 255 442  255 395 442  129 333 516  354 399 391  355 323 391  357 401 405  299 310 433  165 352 350  367 347 443  377 367 443  347 390 443  427 346 394  423 262 444  262 337 444  426 258 445  258 341 445  428 330 446  330 398 446  440 249 373  516 333 447  333 360 447  328 288 327  302 297 399  336 312 448  355 298 408  403 305 402  292 307 449  307 440 449  409 325 410  326 353 433  411 372 450  360 292 451  447 360 451  292 449 451  380 336 448  376 261 452  261 263 452  374 257 453  257 259 453  448 312 441  399 297 391  408 298 454  407 408 454  298 303 454  450 372 455  327 288 296  412 371 456  371 411 456  455 372 370  327 296 353  450 455 457  455 484 457  450 457 458  38 464 457  457 459 458  458 459 460  460 459 461  458 460 462  460 461 463  461 459 464  459 457 464  461 464 465  450 458 466  411 450 466  458 462 466  461 465 467  461 467 463  351 362 468  441 351 468  362 416 468  335 363 469  418 335 469  363 436 469  291 313 314  392 377 470  448 441 471  369 412 393  337 364 472  444 337 472  364 415 472  422 269 426  341 366 473  445 341 473  366 421 473  343 382 474  382 435 474  393 412 475  291 314 290  263 423 452  467 465 447  379 388 476  391 295 355  387 384 477  303 430 454  430 392 478  272 422 429  402 393 479  422 426 480  384 348 481  404 405 482  373 414 483  329 348 309  455 370 484  370 37 484  465 464 516  398 386 485  389 428 486  310 302 409  460 463 487  410 326 433  462 460 487  380 448 471  396 403 488  403 402 488  516 447 465  409 302 399  487 463 483  481 348 389  384 481 477  409 399 324  405 401 489  462 487 490  381 379 491  379 476 491  38 457 484  438 407 454  418 469 492  483 463 373  254 417 439  486 428 493  428 446 493  471 441 494  441 468 494  470 377 495  420 375 496  426 269 274  481 389 497  477 481 497  389 486 497  424 419 498  415 437 499  421 387 500  387 477 500  374 453 501  365 420 434  485 386 502  386 381 502  482 405 503  405 489 503  425 418 504  418 492 504  6 329 309  446 398 505  398 485 505  383 385 506  402 479 488  480 426 507  426 445 507  454 430 438  388 383 508  289 240 350  478 392 470  427 394 509  430 478 438  429 422 510  422 480 510  479 393 475  414 427 509  431 361 442  452 423 511  404 482 435  432 424 512  424 498 512  414 509 483  416 374 513  374 501 513  490 487 509  442 395 514  436 376 515  259 425 453  647 657 656  383 506 508  466 462 517  380 471 518  410 433 310  395 439 519  514 395 519  439 417 519  476 388 508  443 390 520  376 452 521  515 376 521  452 511 521  440 373 463  343 474 385  401 406 522  463 467 440  462 490 517  381 491 502  487 483 509  496 375 523  375 429 523  495 377 443  509 394 524  490 509 524  394 431 524  511 423 525  423 444 525  410 310 409  520 390 526  401 522 489  645 647 656  411 466 527  456 411 527  464 38 516  526 390 413  492 469 528  469 436 528  520 526 529  385 474 506  417 380 530  519 417 530  380 518 530  396 488 531  415 499 532  472 415 532  434 420 533  420 496 533  474 435 482  475 412 534  466 517 527  495 443 520  518 471 535  479 475 536  431 442 537  524 431 537  442 514 537  491 476 538  485 502 539  412 456 534  436 515 528  453 425 504  437 432 540  499 437 540  432 512 540  526 413 541  508 506 503  502 491 542  539 502 542  491 538 542  517 490 543  400 438 544  506 474 482  532 499 545  472 532 525  527 517 546  534 456 547  400 544 406  506 482 503  468 416 494  644 655 654  416 513 494  489 522 548  419 378 549  470 495 550  449 440 467  378 434 533  522 406 544  478 470 551  470 550 551  378 533 549  449 467 451  522 544 552  533 496 553  419 549 498  657 642 654  648 643 650  495 520 554  550 495 554  520 529 554  456 527 547  129 516 7  529 526 555  545 499 556  499 540 556  530 518 557  493 446 558  446 505 558  548 522 552  500 477 559  527 546 547  498 549 560  501 453 504  473 421 561  421 500 561  528 515 562  445 473 563  473 561 563  503 489 564  489 548 564  477 497 559  534 547 565  497 486 566  488 479 567  507 445 563  536 475 568  471 494 535  510 480 569  479 536 567  475 534 568  521 511 570  485 539 505  476 508 571  478 551 552  476 571 538  513 501 572  525 532 573  532 545 573  526 541 555  496 523 574  517 543 546  523 429 510  396 531 413  531 488 567  515 521 575  521 570 575  549 533 553  514 519 576  519 530 576  531 567 577  553 496 574  557 518 578  518 535 578  534 565 568  514 576 579  501 504 580  562 515 575  566 486 581  486 493 581  569 480 582  480 507 582  641 645 656  511 525 570  572 501 580  413 531 541  514 579 537  492 528 583  504 492 583  528 562 583  580 504 583  555 541 584  547 546 585  559 497 566  562 575 586  536 568 587  548 552 551  565 547 588  547 585 588  549 553 589  535 494 590  648 640 643  567 536 591  577 567 591  536 587 591  490 537 543  512 498 592  540 512 592  498 560 592  505 539 593  571 508 503  478 552 544  574 523 510  546 543 594  549 589 560  559 566 595  589 553 596  571 503 564  560 589 597  529 555 598  576 530 557  574 510 569  444 472 525  579 543 537  553 574 596  551 550 599  500 559 600  559 595 600  574 569 601  568 565 602  572 580 603  576 557 579  579 557 594  545 556 604  602 565 588  513 572 590  595 566 605  589 596 597  541 531 577  574 601 596  606 596 601  586 575 607  575 570 607  543 579 594  580 583 608  583 562 608  581 493 558  647 642 657  555 584 609  548 551 610  564 548 610  507 563 582  571 564 538  562 586 608  585 546 594  566 581 605  570 525 573  438 478 544  592 560 611  540 592 556  555 609 598  612 624 572  610 551 599  538 564 610  541 577 584  538 610 599  550 554 613  580 608 603  542 538 599  593 539 614  577 591 584  611 560 597  539 542 614  37 38 484  594 557 578  537 490 524  613 614 550  573 545 615  545 604 615  554 529 616  613 554 616  529 598 616  447 451 467  572 603 612  602 588 617  563 561 600  595 605 618  597 596 619  596 606 619  607 570 620  586 607 621  561 500 600  609 584 622  611 597 623  588 585 612  600 582 563  535 590 624  578 535 624  590 572 624  591 587 625  556 592 611  604 556 611  608 586 626  603 608 626  505 593 558  569 582 627  604 611 623  569 627 601  601 627 628  627 582 600  598 609 629  605 581 630  587 568 631  631 568 602  631 602 632  602 617 632  593 614 613  593 613 633  558 593 633  613 616 633  573 615 620  597 619 623  644 650 655  606 601 628  586 621 626  612 585 634  620 570 573  600 595 627  598 629 635  588 612 617  607 620 636  513 590 494  621 607 636  516 38 7  584 591 625  594 578 634  629 609 637  609 622 637  604 623 638  628 627 618  614 542 599  616 598 635  625 587 639  587 631 639  618 605 640  605 630 640  639 631 641  631 632 641  585 594 634  623 619 642  635 629 643  636 620 638  578 624 634  603 626 617  619 606 644  636 638 645  617 626 646  632 617 646  626 621 646  638 623 647  623 642 647  628 618 648  618 640 648  630 581 649  616 635 633  606 628 650  644 606 650  628 648 650  622 584 625  621 636 651  646 621 651  636 645 651  581 558 649  630 649 652  622 625 653  625 639 653  641 651 645  635 643 652  558 633 649  617 612 603  599 550 614  642 619 654  619 644 654  637 622 653  630 652 640  653 639 641  645 638 647  604 638 615  618 627 595  652 643 640  643 629 655  646 651 632  620 615 638  637 653 656  629 637 655  653 641 656  643 655 650  656 657 637  624 612 634  641 632 651  649 633 635  </DataArray>
 <DataArray type="Int32" Name="offsets" format="ascii"> 3 6 9 12 15 18 21 24 27 30 33 36 39 42 45 48 51 54 57 60 63 66 69 72 75 78 81 84 87 90 93 96 99 102 105 108 111 114 117 120 123 126 129 132 135 138 141 144 147 150 153 156 159 162 165 168 171 174 177 180 183 186 189 192 195 198 201 204 207 210 213 216 219 222 225 228 231 234 237 240 243 246 249 252 255 258 261 264 267 270 273 276 279 282 285 288 291 294 297 300 303 306 309 312 315 318 321 324 327 330 333 336 339 342 345 348 351 354 357 360 363 366 369 372 375 378 381 384 387 390 393 396 399 402 405 408 411 414 417 420 423 426 429 432 435 438 441 444 447 450 453 456 459 462 465 468 471 474 477 480 483 486 489 492 495 498 501 504 507 510 513 516 519 522 525 528 531 534 537 540 543 546 549 552 555 558 561 564 567 570 573 576 579 582 585 588 591 594 597 600 603 606 609 612 615 618 621 624 627 630 633 636 639 642 645 648 651 654 657 660 663 666 669 672 675 678 681 684 687 690 693 696 699 702 705 708 711 714 717 720 723 726 729 732 735 738 741 744 747 750 753 756 759 762 765 768 771 774 777 780 783 786 789 792 795 798 801 804 807 810 813 816 819 822 825 828 831 834 837 840 843 846 849 852 855 858 861 864 867 870 873 876 879 882 885 888 891 894 897 900 903 906 909 912 915 918 921 924 927 930 933 936 939 942 945 948 951 954 957 960 963 966 969 972 975 978 981 984 987 990 993 996 999 1002 1005 1008 1011 1014 1017 1020 1023 1026 1029 1032 1035 1038 1041 1044 1047 1050 1053 1056 1059 1062 1065 1068 1071 1074 1077 1080 1083 1086 1089 1092 1095 1098 1101 1104 1107 1110 1113 1116 1119 1122 1125 1128 1131 1134 1137 1140 1143 1146 1149 1152 1155 1158 1161 1164 1167 1170 1173 1176 1179 1182 1185 1188 1191 1194 1197 1200 1203 1206 1209 1212 1215 1218 1221 1224 1227 1230 1233 1236 1239 1242 1245 1248 1251 1254 1257 1260 1263 1266 1269 1272 1275 1278 1281 1284 1287 1290 1293 1296 1299 1302 1305 1308 1311 1314 1317 1320 1323 1326 1329 1332 1335 1338 1341 1344 1347 1350 1353 1356 1359 1362 1365 1368 1371 1374 1377 1380 1383 1386 1389 1392 1395 1398 1401 1404 1407 1410 1413 1416 1419 1422 1425 1428 1431 1434 1437 1440 1443 1446 1449 1452 1455 1458 1461 1464 1467 1470 1473 1476 1479 1482 1485 1488 1491 1494 1497 1500 1503 1506 1509 1512 1515 1518 1521 1524 1527 1530 1533 1536 1539 1542 1545 1548 1551 1554 1557 1560 1563 1566 1569 1572 1575 1578 1581 1584 1587 1590 1593 1596 1599 1602 1605 1608 1611 1614 1617 1620 1623 1626 1629 1632 1635 1638 1641 1644 1647 1650 1653 1656 1659 1662 1665 1668 1671 1674 1677 1680 1683 1686 1689 1692 1695 1698 1701 1704 1707 1710 1713 1716 1719 1722 1725 1728 1731 1734 1737 1740 1743 1746 1749 1752 1755 1758 1761 1764 1767 1770 1773 1776 1779 1782 1785 1788 1791 1794 1797 1800 1803 1806 1809 1812 1815 1818 1821 1824 1827 1830 1833 1836 1839 1842 1845 1848 1851 1854 1857 1860 1863 1866 1869 1872 1875 1878 1881 1884 1887 1890 1893 1896 1899 1902 1905 1908 1911 1914 1917 1920 1923 1926 1929 1932 1935 1938 1941 1944 1947 1950 1953 1956 1959 1962 1965 1968 1971 1974 1977 1980 1983 1986 1989 1992 1995 1998 2001 2004 2007 2010 2013 2016 2019 2022 2025 2028 2031 2034 2037 2040 2043 2046 2049 2052 2055 2058 2061 2064 2067 2070 2073 2076 2079 2082 2085 2088 2091 2094 2097 2100 2103 2106 2109 2112 2115 2118 2121 2124 2127 2130 2133 2136 2139 2142 2145 2148 2151 2154 2157 2160 2163 2166 2169 2172 2175 2178 2181 2184 2187 2190 2193 2196 2199 2202 2205 2208 2211 2214 2217 2220 2223 2226 2229 2232 2235 2238 2241 2244 2247 2250 2253 2256 2259 2262 2265 2268 2271 2274 2277 2280 2283 2286 2289 2292 2295 2298 2301 2304 2307 2310 2313 2316 2319 2322 2325 2328 2331 2334 2337 2340 2343 2346 2349 2352 2355 2358 2361 2364 2367 2370 2373 2376 2379 2382 2385 2388 2391 2394 2397 2400 2403 2406 2409 2412 2415 2418 2421 2424 2427 2430 2433 2436 2439 2442 2445 2448 2451 2454 2457 2460 2463 2466 2469 2472 2475 2478 2481 2484 2487 2490 2493 2496 2499 2502 2505 2508 2511 2514 2517 2520 2523 2526 2529 2532 2535 2538 2541 2544 2547 2550 2553 2556 2559 2562 2565 2568 2571 2574 2577 2580 2583 2586 2589 2592 2595 2598 2601 2604 2607 2610 2613 2616 2619 2622 2625 2628 2631 2634 2637 2640 2643 2646 2649 2652 2655 2658 2661 2664 2667 2670 2673 2676 2679 2682 2685 2688 2691 2694 2697 2700 2703 2706 2709 2712 2715 2718 2721 2724 2727 2730 2733 2736 2739 2742 2745 2748 2751 2754 2757 2760 2763 2766 2769 2772 2775 2778 2781 2784 2787 2790 2793 2796 2799 2802 2805 2808 2811 2814 2817 2820 2823 2826 2829 2832 2835 2838 2841 2844 2847 2850 2853 2856 2859 2862 2865 2868 2871 2874 2877 2880 2883 2886 2889 2892 2895 2898 2901 2904 2907 2910 2913 2916 2919 2922 2925 2928 2931 2934 2937 2940 2943 2946 2949 2952 2955 2958 2961 2964 2967 2970 2973 2976 2979 2982 2985 2988 2991 2994 2997 3000 3003 3006 3009 3012 3015 3018 3021 3024 3027 3030 3033 3036 3039 3042 3045 3048 3051 3054 3057 3060 3063 3066 3069 3072 3075 3078 3081 3084 3087 3090 3093 3096 3099 3102 3105 3108 3111 3114 3117 3120 3123 3126 3129 3132 3135 3138 3141 3144 3147 3150 3153 3156 3159 3162 3165 3168 3171 3174 3177 3180 3183 3186 3189 3192 3195 3198 3201 3204 3207 3210 3213 3216 3219 3222 3225 3228 3231 3234 3237 3240 3243 3246 3249 3252 3255 3258 3261 3264 3267 3270 3273 3276 3279 3282 3285 3288 3291 3294 3297 3300 3303 3306 3309 3312 3315 3318 3321 3324 3327 3330 3333 3336 3339 3342 3345 3348 3351 3354 3357 3360 3363 3366 3369 3372 3375 3378 3381 3384 3387 3390 3393 3396 3399 3402 3405 3408 3411 3414 3417 3420 3423 3426 3429 3432 3435 3438 3441 3444 3447 3450 3453 3456 3459 3462 3465 3468 3471 3474 3477 3480 3483 3486 3489 3492 3495 3498 3501 3504 3507 3510 3513 3516 3519 3522 3525 3528 3531 3534 3537 3540 3543 3546 3549 3552 3555 3558 3561 </DataArray>
 <DataArray type="UInt8" Name="types" format="ascii"> 5 5 5 5 5 5 5 5 5 5 5 5 5 5 5 5 5 5 5 5 5 5 5 5 5 5 5 5 5 5 5 5 5 5 5 5 5 5 5 5 5 5 5 5 5 5 5 5 5 5 5 5 5 5 5 5 5 5 5 5 5 5 5 5 5 5 5 5 5 5 5 5 5 5 5 5 5 5 5 5 5 5 5 5 5 5 5 5 5 5 5 5 5 5 5 5 5 5 5 5 5 5 5 5 5 5 5 5 5 5 5 5 5 5 5 5 5 5 5 5 5 5 5 5 5 5 5 5 5 5 5 5 5 5 5 5 5 5 5 5 5 5 5 5 5 5 5 5 5 5 5 5 5 5 5 5 5 5 5 5 5 5 5 5 5 5 5 5 5 5 5 5 5 5 5 5 5 5 5 5 5 5 5 5 5 5 5 5 5 5 5 5 5 5 5 5 5 5 5 5 5 5 5 5 5 5 5 5 5 5 5 5 5 5 5 5 5 5 5 5 5 5 5 5 5 5 5 5 5 5 5 5 5 5 5 5 5 5 5 5 5 5 5 5 5 5 5 5 5 5 5 5 5 5 5 5 5 5 5 5 5 5 5 5 5 5 5 5 5 5 5 5 5 5 5 5 5 5 5 5 5 5 5 5 5 5 5 5 5 5 5 5 5 5 5 5 5 5 5 5 5 5 5 5 5 5 5 5 5 5 5 5 5 5 5 5 5 5 5 5 5 5 5 5 5 5 5 5 5 5 5 5 5 5 5 5 5 5 5 5 5 5 5 5 5 5 5 5 5 5 5 5 5 5 5 5 5 5 5 5 5 5 5 5 5 5 5 5 5 5 5 5 5 5 5 5 5 5 5 5 5 5 5 5 5 5 5 5 5 5 5 5 5 5 5 5 5 5 5 5 5 5 5 5 5 5 5 5 5 5 5 5 5 5 5 5 5 5 5 5 5 5 5 5 5 5 5 5 5 5 5 5 5 5 5 5 5 5 5 5 5 5 5 5 5 5 5 5 5 5 5 5 5 5 5 5 5 5 5 5 5 5 5 5 5 5 5 5 5 5 5 5 5 5 5 5 5 5 5 5 5 5 5 5 5 5 5 5 5 5 5 5 5 5 5 5 5 5 5 5 5 5 5 5 5 5 5 5 5 5 5 5 5 5 5 5 5 5 5 5 5 5 5 5 5 5 5 5 5 5 5 5 5 5 5 5 5 5 5 5 5 5 5 5 5 5 5 5 5 5 5 5 5 5 5 5 5 5 5 5 5 5 5 5 5 5 5 5 5 5 5 5 5 5 5 5 5 5 5 5 5 5 5 5 5 5 5 5 5 5 5 5 5 5 5 5 5 5 5 5 5 5 5 5 5 5 5 5 5 5 5 5 5 5 5 5 5 5 5 5 5 5 5 5 5 5 5 5 5 5 5 5 5 5 5 5 5 5 5 5 5 5 5 5 5 5 5 5 5 5 5 5 5 5 5 5 5 5 5 5 5 5 5 5 5 5 5 5 5 5 5 5 5 5 5 5 5 5 5 5 5 5 5 5 5 5 5 5 5 5 5 5 5 5 5 5 5 5 5 5 5 5 5 5 5 5 5 5 5 5 5 5 5 5 5 5 5 5 5 5 5 5 5 5 5 5 5 5 5 5 5 5 5 5 5 5 5 5 5 5 5 5 5 5 5 5 5 5 5 5 5 5 5 5 5 5 5 5 5 5 5 5 5 5 5 5 5 5 5 5 5 5 5 5 5 5 5 5 5 5 5 5 5 5 5 5 5 5 5 5 5 5 5 5 5 5 5 5 5 5 5 5 5 5 5 5 5 5 5 5 5 5 5 5 5 5 5 5 5 5 5 5 5 5 5 5 5 5 5 5 5 5 5 5 5 5 5 5 5 5 5 5 5 5 5 5 5 5 5 5 5 5 5 5 5 5 5 5 5 5 5 5 5 5 5 5 5 5 5 5 5 5 5 5 5 5 5 5 5 5 5 5 5 5 5 5 5 5 5 5 5 5 5 5 5 5 5 5 5 5 5 5 5 5 5 5 5 5 5 5 5 5 5 5 5 5 5 5 5 5 5 5 5 5 5 5 5 5 5 5 5 5 5 5 5 5 5 5 5 5 5 5 5 5 5 5 5 5 5 5 5 5 5 5 5 5 5 5 5 5 5 5 5 5 5 5 5 5 5 5 5 5 5 5 5 5 5 5 5 5 5 5 5 5 5 5 5 5 5 5 5 5 5 5 5 5 5 5 5 5 5 5 5 5 5 5 5 5 5 5 5 5 5 5 5 5 5 5 5 5 5 5 5 5 5 5 5 5 5 5 5 5 5 5 5 5 5 5 5 5 5 5 5 5 5 5 5 5 5 5 5 5 5 5 5 5 5 5 5 5 5 5 5 5 5 5 5 5 5 5 5 5 5 5 5 5 5 5 5 5 5 5 5 5 5 5 5 5 5 5 5 5 5 5 5 5 5 5 5 5 5 5 5 5 5 5 5 5 5 5 5 5 5 5 5 5 5 5 5 5 5 5 5 5 5 5 5 5 5 5 5 5 5 5 5 5 5 5 5 5 5 5 5 5 5 5 5 5 5 5 5 5 5 5 5 5 5 5 5 5 5 5 5 5 5 5 5 5 5 5 5 5 5 5 5 5 5 5 5 5 5 5 5 5 5 5 5 </DataArray>
</Cells>
<PointData Scalars="" Vectors="DisplacementVector " Tensors="IST_StressTensor IST_StrainTensor " >
 <DataArray type="Float64" Name="DisplacementVector" NumberOfComponents="3" format="ascii"> -8.073961e-06 6.272883e-05 0.000000e+00 1.039077e-05 7.260122e-05 0.000000e+00 1.028812e-05 3.803865e-05 0.000000e+00 -3.365569e-05 7.261784e-05 0.000000e+00 1.250660e-05 3.489005e-05 0.000000e+00 -2.291249e-05 -1.003885e-05 0.000000e+00 8.973548e-06 0.000000e+00 0.000000e+00 0.000000e+00 0.000000e+00 0.000000e+00 -1.018723e-05 6.246401e-05 0.000000e+00 -1.207383e-05 6.178291e-05 0.000000e+00 -1.402621e-05 6.052169e-05 0.000000e+00 -1.573653e-05 5.869561e-05 0.000000e+00 -1.680097e-05 5.687164e-05 0.000000e+00 -1.756020e-05 5.452008e-05 0.000000e+00 -1.778807e-05 5.230736e-05 0.000000e+00 -1.757549e-05 4.997487e-05 0.000000e+00 -1.693862e-05 4.776808e-05 0.000000e+00 -1.577062e-05 4.552536e-05 0.000000e+00 -1.418999e-05 4.364738e-05 0.000000e+00 -1.227726e-05 4.224734e-05 0.000000e+00 -1.034146e-05 4.147893e-05 0.000000e+00 -8.279782e-06 4.123758e-05 0.000000e+00 -6.158195e-06 4.155872e-05 0.000000e+00 -4.102207e-06 4.244601e-05 0.000000e+00 -2.189212e-06 4.388492e-05 0.000000e+00 -6.508650e-07 4.565999e-05 0.000000e+00 6.073957e-07 4.789981e-05 0.000000e+00 1.399702e-06 5.052229e-05 0.000000e+00 1.595322e-06 5.290359e-05 0.000000e+00 1.325759e-06 5.510407e-05 0.000000e+00 5.135595e-07 5.737674e-05 0.000000e+00 -6.260273e-07 5.916046e-05 0.000000e+00 -2.164014e-06 6.069049e-05 0.000000e+00 -3.906259e-06 6.178576e-05 0.000000e+00 -6.037905e-06 6.252140e-05 0.000000e+00 -1.690806e-05 -9.939444e-06 0.000000e+00 -1.062032e-05 -9.156205e-06 0.000000e+00 -4.813248e-06 -6.978927e-06 0.000000e+00 -1.097537e-06 -3.557807e-06 0.000000e+00 1.064972e-05 9.809879e-06 0.000000e+00 1.103330e-05 1.456196e-05 0.000000e+00 1.140682e-05 1.854380e-05 0.000000e+00 1.173048e-05 2.200300e-05 0.000000e+00 1.199902e-05 2.508355e-05 0.000000e+00 1.221411e-05 2.792943e-05 0.000000e+00 1.237154e-05 3.050685e-05 0.000000e+00 1.247089e-05 3.281564e-05 0.000000e+00 -3.366806e-05 6.720716e-05 0.000000e+00 -3.369618e-05 6.279571e-05 0.000000e+00 -3.375170e-05 5.763627e-05 0.000000e+00 -3.378231e-05 5.278235e-05 0.000000e+00 -3.374221e-05 4.825632e-05 0.000000e+00 -3.355860e-05 4.313956e-05 0.000000e+00 -3.309376e-05 3.700919e-05 0.000000e+00 -3.238637e-05 3.124759e-05 0.000000e+00 -3.130925e-05 2.514082e-05 0.000000e+00 -2.983228e-05 1.891966e-05 0.000000e+00 -2.800911e-05 1.287103e-05 0.000000e+00 -2.603538e-05 7.231617e-06 0.000000e+00 -2.402332e-05 1.377413e-06 0.000000e+00 -2.303418e-05 -4.051780e-06 0.000000e+00 1.134917e-05 3.643959e-05 0.000000e+00 5.618434e-06 7.259381e-05 0.000000e+00 1.601740e-06 7.256017e-05 0.000000e+00 -2.178270e-06 7.250584e-05 0.000000e+00 -5.680542e-06 7.245755e-05 0.000000e+00 -8.573675e-06 7.243549e-05 0.000000e+00 -1.179249e-05 7.244038e-05 0.000000e+00 -1.503631e-05 7.246916e-05 0.000000e+00 -1.867305e-05 7.251855e-05 0.000000e+00 -2.276084e-05 7.256924e-05 0.000000e+00 -2.774978e-05 7.260743e-05 0.000000e+00 1.054058e-05 4.034732e-05 0.000000e+00 1.071483e-05 4.315996e-05 0.000000e+00 1.080758e-05 4.652752e-05 0.000000e+00 1.079853e-05 5.053407e-05 0.000000e+00 1.068926e-05 5.476490e-05 0.000000e+00 1.054315e-05 5.924678e-05 0.000000e+00 1.043790e-05 6.373803e-05 0.000000e+00 1.039719e-05 6.799631e-05 0.000000e+00 3.079140e-08 0.000000e+00 0.000000e+00 8.580156e-08 0.000000e+00 0.000000e+00 1.522968e-07 0.000000e+00 0.000000e+00 2.241682e-07 0.000000e+00 0.000000e+00 2.994444e-07 0.000000e+00 0.000000e+00 3.762027e-07 0.000000e+00 0.000000e+00 4.531619e-07 0.000000e+00 0.000000e+00 5.304577e-07 0.000000e+00 0.000000e+00 6.078463e-07 0.000000e+00 0.000000e+00 6.858597e-07 0.000000e+00 0.000000e+00 7.642616e-07 0.000000e+00 0.000000e+00 8.435533e-07 0.000000e+00 0.000000e+00 9.239741e-07 0.000000e+00 0.000000e+00 1.006290e-06 0.000000e+00 0.000000e+00 1.090913e-06 0.000000e+00 0.000000e+00 1.177334e-06 0.000000e+00 0.000000e+00 1.266164e-06 0.000000e+00 0.000000e+00 1.358125e-06 0.000000e+00 0.000000e+00 1.453091e-06 0.000000e+00 0.000000e+00 1.551781e-06 0.000000e+00 0.000000e+00 1.654219e-06 0.000000e+00 0.000000e+00 1.760293e-06 0.000000e+00 0.000000e+00 1.870740e-06 0.000000e+00 0.000000e+00 1.986154e-06 0.000000e+00 0.000000e+00 2.106726e-06 0.000000e+00 0.000000e+00 2.232702e-06 0.000000e+00 0.000000e+00 2.364354e-06 0.000000e+00 0.000000e+00 2.501452e-06 0.000000e+00 0.000000e+00 2.644706e-06 0.000000e+00 0.000000e+00 2.795041e-06 0.000000e+00 0.000000e+00 2.952306e-06 0.000000e+00 0.000000e+00 3.116335e-06 0.000000e+00 0.000000e+00 3.287731e-06 0.000000e+00 0.000000e+00 3.467281e-06 0.000000e+00 0.000000e+00 3.656320e-06 0.000000e+00 0.000000e+00 3.854967e-06 0.000000e+00 0.000000e+00 4.063094e-06 0.000000e+00 0.000000e+00 4.282297e-06 0.000000e+00 0.000000e+00 4.514314e-06 0.000000e+00 0.000000e+00 4.758692e-06 0.000000e+00 0.000000e+00 5.018256e-06 0.000000e+00 0.000000e+00 5.294897e-06 0.000000e+00 0.000000e+00 5.592260e-06 0.000000e+00 0.000000e+00 5.913321e-06 0.000000e+00 0.000000e+00 6.264951e-06 0.000000e+00 0.000000e+00 6.655724e-06 0.000000e+00 0.000000e+00 7.099961e-06 0.000000e+00 0.000000e+00 7.623681e-06 0.000000e+00 0.000000e+00 8.256436e-06 0.000000e+00 0.000000e+00 2.782510e-11 -3.298013e-07 0.000000e+00 1.688831e-07 -2.679193e-07 0.000000e+00 3.226807e-07 -2.526593e-07 0.000000e+00 4.768926e-07 -2.319318e-07 0.000000e+00 6.323059e-07 -2.090002e-07 0.000000e+00 7.911047e-07 -1.847275e-07 0.000000e+00 9.542928e-07 -1.546888e-07 0.000000e+00 1.121305e-06 -1.355268e-07 0.000000e+00 1.296420e-06 -1.206072e-07 0.000000e+00 1.485889e-06 -1.064710e-07 0.000000e+00 1.687237e-06 -9.062006e-08 0.000000e+00 1.912784e-06 -7.290416e-08 0.000000e+00 2.147845e-06 -5.949318e-08 0.000000e+00 2.414192e-06 -4.166434e-08 0.000000e+00 2.694445e-06 -2.575065e-08 0.000000e+00 3.018938e-06 -8.103796e-09 0.000000e+00 3.358900e-06 1.149064e-08 0.000000e+00 3.733008e-06 3.038272e-08 0.000000e+00 4.140587e-06 4.770216e-08 0.000000e+00 4.609429e-06 7.917364e-08 0.000000e+00 5.119230e-06 1.127134e-07 0.000000e+00 5.691307e-06 1.429298e-07 0.000000e+00 6.347885e-06 2.105391e-07 0.000000e+00 7.100037e-06 3.526312e-07 0.000000e+00 7.767775e-06 9.645340e-07 0.000000e+00 8.366079e-06 1.633837e-05 0.000000e+00 9.015503e-06 2.298642e-05 0.000000e+00 9.785340e-06 2.908607e-05 0.000000e+00 1.063872e-05 3.413184e-05 0.000000e+00 9.117446e-06 3.561706e-05 0.000000e+00 8.653546e-06 3.949084e-05 0.000000e+00 8.123679e-06 4.483596e-05 0.000000e+00 8.090013e-06 5.338254e-05 0.000000e+00 7.415804e-06 6.128058e-05 0.000000e+00 4.240051e-06 6.913455e-05 0.000000e+00 -3.413538e-06 6.944301e-05 0.000000e+00 -1.014693e-05 6.946529e-05 0.000000e+00 -1.709388e-05 6.934779e-05 0.000000e+00 -2.482713e-05 6.801563e-05 0.000000e+00 -2.943224e-05 6.653802e-05 0.000000e+00 -2.986129e-05 6.048291e-05 0.000000e+00 -3.005184e-05 5.047861e-05 0.000000e+00 -2.893424e-05 4.016386e-05 0.000000e+00 -2.706016e-05 2.783946e-05 0.000000e+00 -2.409851e-05 1.502153e-05 0.000000e+00 -2.098620e-05 3.377320e-06 0.000000e+00 -2.000878e-05 -8.970063e-07 0.000000e+00 -1.829657e-05 -5.223629e-06 0.000000e+00 -1.371542e-05 -6.833049e-06 0.000000e+00 -6.844562e-06 6.471085e-05 0.000000e+00 -4.188504e-06 6.426804e-05 0.000000e+00 -1.813982e-06 6.303171e-05 0.000000e+00 1.463112e-08 6.124633e-05 0.000000e+00 1.672964e-06 5.920182e-05 0.000000e+00 2.956744e-06 5.681559e-05 0.000000e+00 3.444623e-06 5.408448e-05 0.000000e+00 3.357463e-06 5.133174e-05 0.000000e+00 2.838011e-06 4.842192e-05 0.000000e+00 1.782439e-06 4.557403e-05 0.000000e+00 -2.297051e-08 4.303680e-05 0.000000e+00 -2.078783e-06 4.105789e-05 0.000000e+00 -4.540195e-06 3.966993e-05 0.000000e+00 -7.064731e-06 3.891758e-05 0.000000e+00 -9.499192e-06 3.889764e-05 0.000000e+00 -1.197918e-05 3.948734e-05 0.000000e+00 -1.437281e-05 4.087746e-05 0.000000e+00 -1.643692e-05 4.286295e-05 0.000000e+00 -1.803919e-05 4.531004e-05 0.000000e+00 -1.905818e-05 4.801608e-05 0.000000e+00 -1.960772e-05 5.085062e-05 0.000000e+00 -1.953551e-05 5.352717e-05 0.000000e+00 -1.897667e-05 5.629772e-05 0.000000e+00 -1.794191e-05 5.893371e-05 0.000000e+00 -1.632644e-05 6.120860e-05 0.000000e+00 -1.411176e-05 6.286023e-05 0.000000e+00 -1.173091e-05 6.404824e-05 0.000000e+00 -9.383225e-06 6.462767e-05 0.000000e+00 8.624784e-08 -2.983808e-07 0.000000e+00 2.453423e-07 -2.571677e-07 0.000000e+00 4.014865e-07 -2.461029e-07 0.000000e+00 5.558219e-07 -2.181707e-07 0.000000e+00 7.108069e-07 -2.037861e-07 0.000000e+00 8.729417e-07 -1.661524e-07 0.000000e+00 1.035420e-06 -1.446143e-07 0.000000e+00 1.209984e-06 -1.269813e-07 0.000000e+00 1.390421e-06 -1.136166e-07 0.000000e+00 1.581128e-06 -9.973208e-08 0.000000e+00 1.799928e-06 -8.031171e-08 0.000000e+00 2.028045e-06 -6.609934e-08 0.000000e+00 2.273957e-06 -5.116875e-08 0.000000e+00 2.552631e-06 -3.298450e-08 0.000000e+00 2.853105e-06 -1.752889e-08 0.000000e+00 3.183666e-06 1.632622e-09 0.000000e+00 3.534886e-06 2.069697e-08 0.000000e+00 3.939669e-06 4.034645e-08 0.000000e+00 4.369669e-06 5.747819e-08 0.000000e+00 4.851608e-06 9.622727e-08 0.000000e+00 5.391971e-06 1.290283e-07 0.000000e+00 6.023316e-06 1.653662e-07 0.000000e+00 6.719690e-06 2.673112e-07 0.000000e+00 7.477230e-06 5.211028e-07 0.000000e+00 8.008643e-06 1.289205e-05 0.000000e+00 8.768708e-06 1.976435e-05 0.000000e+00 9.403561e-06 2.621474e-05 0.000000e+00 1.016086e-05 3.166870e-05 0.000000e+00 7.600629e-06 3.741028e-05 0.000000e+00 8.393412e-06 4.184820e-05 0.000000e+00 7.828126e-06 4.901601e-05 0.000000e+00 7.827229e-06 5.742025e-05 0.000000e+00 6.601142e-06 6.536970e-05 0.000000e+00 8.648533e-08 6.932559e-05 0.000000e+00 -6.874828e-06 6.960304e-05 0.000000e+00 -1.341669e-05 6.893968e-05 0.000000e+00 -2.084065e-05 6.877191e-05 0.000000e+00 -2.799031e-05 3.404773e-05 0.000000e+00 -2.999296e-05 5.529311e-05 0.000000e+00 -2.974126e-05 4.564608e-05 0.000000e+00 -2.578106e-05 2.149955e-05 0.000000e+00 -2.198677e-05 8.995330e-06 0.000000e+00 -9.629578e-06 -6.212576e-06 0.000000e+00 3.128785e-07 -5.363584e-07 0.000000e+00 4.732133e-07 -4.675464e-07 0.000000e+00 1.037306e-06 -2.975452e-07 0.000000e+00 8.762059e-07 -3.240006e-07 0.000000e+00 3.900265e-07 -5.116070e-07 0.000000e+00 9.619512e-07 -2.996094e-07 0.000000e+00 7.907755e-07 -3.724832e-07 0.000000e+00 1.806877e-06 -1.564360e-07 0.000000e+00 1.578170e-06 -2.045748e-07 0.000000e+00 5.923440e-06 3.976715e-07 0.000000e+00 1.692877e-06 -1.767430e-07 0.000000e+00 1.478088e-06 -2.192295e-07 0.000000e+00 2.278595e-06 -1.000973e-07 0.000000e+00 2.567182e-06 -5.856907e-08 0.000000e+00 2.426410e-06 -7.857266e-08 0.000000e+00 2.145564e-06 -1.183088e-07 0.000000e+00 3.030467e-06 -5.324858e-09 0.000000e+00 3.979213e-06 9.968416e-08 0.000000e+00 3.372295e-06 3.572614e-08 0.000000e+00 3.761893e-06 8.285910e-08 0.000000e+00 5.395607e-06 2.976482e-07 0.000000e+00 4.829913e-06 2.312366e-07 0.000000e+00 3.563526e-06 5.827462e-08 0.000000e+00 5.112575e-06 2.680812e-07 0.000000e+00 4.585007e-06 1.894212e-07 0.000000e+00 5.701659e-06 3.058534e-07 0.000000e+00 6.165899e-06 2.109331e-05 0.000000e+00 6.778142e-06 1.512521e-06 0.000000e+00 7.002198e-06 2.760373e-05 0.000000e+00 5.917385e-06 1.783295e-05 0.000000e+00 5.499575e-06 1.454407e-05 0.000000e+00 6.677566e-06 9.704904e-07 0.000000e+00 6.508328e-06 2.439445e-05 0.000000e+00 7.336498e-06 9.706995e-06 0.000000e+00 5.646502e-06 4.257303e-05 0.000000e+00 8.220831e-06 3.320926e-05 0.000000e+00 6.346591e-06 3.971842e-05 0.000000e+00 -2.199844e-05 6.473020e-05 0.000000e+00 4.816696e-06 4.598808e-05 0.000000e+00 -1.589714e-05 6.676429e-05 0.000000e+00 -5.213659e-06 6.689312e-05 0.000000e+00 4.645576e-06 5.927542e-05 0.000000e+00 4.245576e-06 6.297809e-05 0.000000e+00 1.631760e-07 -5.233241e-07 0.000000e+00 2.350816e-06 6.625402e-05 0.000000e+00 -1.641518e-06 6.612992e-05 0.000000e+00 -2.578362e-05 4.354077e-05 0.000000e+00 -1.866704e-05 6.585828e-05 0.000000e+00 -2.663299e-05 4.831872e-05 0.000000e+00 -2.410425e-05 3.769764e-05 0.000000e+00 -2.607779e-05 6.301511e-05 0.000000e+00 -2.203271e-05 2.443881e-05 0.000000e+00 -1.717227e-05 4.911111e-06 0.000000e+00 -2.689577e-05 5.261013e-05 0.000000e+00 -2.325467e-05 3.064357e-05 0.000000e+00 -1.676649e-05 1.258541e-06 0.000000e+00 -1.147205e-05 -4.656921e-06 0.000000e+00 -1.602563e-05 -2.000760e-06 0.000000e+00 2.410345e-07 -5.265704e-07 0.000000e+00 3.204120e-06 1.608812e-08 0.000000e+00 7.494202e-06 3.078076e-06 0.000000e+00 -2.635558e-05 5.758813e-05 0.000000e+00 -7.362980e-06 -6.622640e-06 0.000000e+00 1.216522e-06 -2.476806e-07 0.000000e+00 8.569460e-07 6.363250e-05 0.000000e+00 2.355199e-06 6.133755e-05 0.000000e+00 5.493746e-06 5.557062e-05 0.000000e+00 4.997855e-06 4.944470e-05 0.000000e+00 2.688121e-06 4.278715e-05 0.000000e+00 -2.578800e-06 3.796152e-05 0.000000e+00 -8.365323e-06 3.614182e-05 0.000000e+00 -1.407752e-05 3.744710e-05 0.000000e+00 -1.681198e-05 3.955810e-05 0.000000e+00 -1.909796e-05 4.241364e-05 0.000000e+00 -2.064905e-05 4.551434e-05 0.000000e+00 -2.174450e-05 5.215656e-05 0.000000e+00 -2.131267e-05 5.525855e-05 0.000000e+00 -2.057187e-05 5.847801e-05 0.000000e+00 -1.641237e-05 6.399358e-05 0.000000e+00 -1.371323e-05 6.561462e-05 0.000000e+00 7.946618e-06 6.328027e-06 0.000000e+00 4.927895e-06 1.089239e-05 0.000000e+00 -6.868241e-06 -5.065778e-06 0.000000e+00 5.622779e-06 7.720513e-06 0.000000e+00 -2.585771e-08 -6.553016e-07 0.000000e+00 6.263425e-07 -4.363551e-07 0.000000e+00 1.914591e-06 -1.444358e-07 0.000000e+00 1.126509e-06 -2.716205e-07 0.000000e+00 2.719685e-06 -4.294215e-08 0.000000e+00 4.187777e-06 1.047318e-07 0.000000e+00 6.764141e-06 2.577022e-06 0.000000e+00 7.553520e-06 3.045080e-05 0.000000e+00 6.200239e-06 5.125412e-07 0.000000e+00 -2.062232e-05 1.821182e-05 0.000000e+00 6.492677e-06 3.483286e-05 0.000000e+00 -5.148751e-06 -5.407843e-06 0.000000e+00 -8.642358e-06 -4.523215e-06 0.000000e+00 5.532413e-07 -4.389495e-07 0.000000e+00 -1.744436e-05 8.645250e-06 0.000000e+00 6.069383e-06 4.761778e-06 0.000000e+00 -1.456616e-05 -4.316187e-06 0.000000e+00 -8.214392e-06 6.705460e-05 0.000000e+00 1.303573e-06 -2.315871e-07 0.000000e+00 -1.115443e-05 6.664423e-05 0.000000e+00 -1.923787e-05 6.200538e-05 0.000000e+00 -2.155447e-05 4.885946e-05 0.000000e+00 -2.220479e-05 4.243628e-05 0.000000e+00 -1.122565e-05 3.638799e-05 0.000000e+00 -5.460874e-06 3.654888e-05 0.000000e+00 4.081515e-07 3.980044e-05 0.000000e+00 5.672162e-06 5.231301e-05 0.000000e+00 7.345762e-08 -5.734793e-07 0.000000e+00 7.069471e-07 -4.104161e-07 0.000000e+00 1.395860e-06 -2.207241e-07 0.000000e+00 2.028403e-06 -1.332651e-07 0.000000e+00 2.860536e-06 -2.713766e-08 0.000000e+00 4.364693e-06 1.458909e-07 0.000000e+00 6.470711e-06 6.772342e-07 0.000000e+00 -1.921203e-05 1.274535e-05 0.000000e+00 -3.789840e-06 -4.353656e-06 0.000000e+00 -4.798199e-06 -4.171861e-06 0.000000e+00 -3.435052e-06 -4.920295e-06 0.000000e+00 -3.070507e-06 -3.466617e-06 0.000000e+00 -2.566397e-06 -3.752645e-06 0.000000e+00 2.643485e-07 -8.368972e-07 0.000000e+00 1.424995e-06 -3.398980e-07 0.000000e+00 4.438614e-06 3.335867e-07 0.000000e+00 2.095562e-06 -1.722063e-07 0.000000e+00 -1.601949e-05 1.544846e-05 0.000000e+00 3.758492e-06 1.702822e-07 0.000000e+00 3.574866e-06 2.256013e-05 0.000000e+00 9.906188e-07 -4.859582e-07 0.000000e+00 3.311938e-06 1.927212e-05 0.000000e+00 4.930415e-06 3.722700e-05 0.000000e+00 4.737949e-06 2.928432e-05 0.000000e+00 5.868604e-06 2.934096e-06 0.000000e+00 5.475299e-06 3.223274e-05 0.000000e+00 3.175172e-06 1.603151e-05 0.000000e+00 5.892493e-06 1.912316e-06 0.000000e+00 4.034583e-06 2.605374e-05 0.000000e+00 4.502551e-06 6.029214e-06 0.000000e+00 -1.365636e-05 6.388996e-06 0.000000e+00 -2.351241e-05 4.655203e-05 0.000000e+00 -1.726699e-05 2.151353e-05 0.000000e+00 -6.287541e-06 -3.499052e-06 0.000000e+00 4.973310e-07 -7.048917e-07 0.000000e+00 7.645597e-07 -5.429066e-07 0.000000e+00 -1.313486e-05 -2.548715e-07 0.000000e+00 3.635069e-06 3.980630e-05 0.000000e+00 2.712421e-06 1.294255e-05 0.000000e+00 -2.410853e-05 5.042217e-05 0.000000e+00 -1.332789e-05 3.384903e-05 0.000000e+00 -6.887755e-06 3.325591e-05 0.000000e+00 -9.329873e-06 -3.157365e-06 0.000000e+00 -1.245762e-05 -2.648085e-06 0.000000e+00 -5.946167e-07 3.642427e-05 0.000000e+00 -3.075270e-06 3.392233e-05 0.000000e+00 -1.011344e-05 3.327920e-05 0.000000e+00 -1.663475e-05 3.544938e-05 0.000000e+00 -1.987815e-05 3.847986e-05 0.000000e+00 -2.403921e-05 5.400851e-05 0.000000e+00 -2.312400e-05 5.724535e-05 0.000000e+00 -1.798421e-06 -2.934098e-06 0.000000e+00 -3.818480e-06 -3.073974e-06 0.000000e+00 -1.269724e-05 2.811884e-06 0.000000e+00 3.557932e-07 -7.653708e-07 0.000000e+00 2.795993e-06 -2.305721e-08 0.000000e+00 1.335901e-06 -3.549274e-07 0.000000e+00 9.173162e-07 -4.764531e-07 0.000000e+00 1.764394e-06 -2.313758e-07 0.000000e+00 3.528507e-06 1.261619e-07 0.000000e+00 4.218302e-06 2.610026e-07 0.000000e+00 5.900525e-06 1.335805e-06 0.000000e+00 4.977502e-06 4.878863e-07 0.000000e+00 2.395306e-06 -1.058794e-07 0.000000e+00 3.346650e-06 8.132907e-08 0.000000e+00 1.675876e-06 -2.442803e-07 0.000000e+00 5.369862e-06 5.377955e-07 0.000000e+00 4.453897e-07 -6.784039e-07 0.000000e+00 3.610251e-06 8.193207e-06 0.000000e+00 4.696304e-06 4.124373e-07 0.000000e+00 -1.861093e-05 2.752102e-05 0.000000e+00 5.674110e-07 -6.956240e-07 0.000000e+00 3.163026e-06 4.465217e-08 0.000000e+00 -2.294202e-05 6.063075e-05 0.000000e+00 4.046041e-06 1.806062e-07 0.000000e+00 2.080652e-06 3.693456e-05 0.000000e+00 1.972511e-06 -1.978279e-07 0.000000e+00 2.977441e-06 1.168898e-08 0.000000e+00 -1.574452e-05 3.087325e-05 0.000000e+00 8.622096e-07 -4.550056e-07 0.000000e+00 1.776166e-07 -8.723875e-07 0.000000e+00 1.188124e-06 -3.762159e-07 0.000000e+00 6.576064e-07 -6.393870e-07 0.000000e+00 -1.469698e-05 1.051906e-05 0.000000e+00 2.546702e-06 -7.509086e-08 0.000000e+00 5.593275e-06 7.318373e-07 0.000000e+00 2.068847e-06 1.022423e-05 0.000000e+00 -8.428861e-08 -1.014347e-06 0.000000e+00 1.114388e-06 -3.847584e-07 0.000000e+00 1.333174e-07 -7.916377e-07 0.000000e+00 -1.502700e-06 -3.076656e-06 0.000000e+00 5.133974e-08 -8.267611e-07 0.000000e+00 2.244624e-06 -1.369003e-07 0.000000e+00 1.542625e-06 -2.998281e-07 0.000000e+00 -1.970816e-05 3.323910e-05 0.000000e+00 -2.197971e-06 -3.882995e-06 0.000000e+00 -2.158442e-06 -2.643853e-06 0.000000e+00 -1.202782e-06 -3.178503e-06 0.000000e+00 -7.496356e-07 -2.449141e-06 0.000000e+00 -6.007520e-07 -2.345556e-06 0.000000e+00 -2.618023e-07 -1.845941e-06 0.000000e+00 -2.408159e-07 -1.774365e-06 0.000000e+00 -3.101983e-07 -1.882724e-06 0.000000e+00 5.174915e-08 -1.286175e-06 0.000000e+00 -5.747370e-07 -2.409542e-06 0.000000e+00 -2.339328e-07 -1.542676e-06 0.000000e+00 -8.900751e-07 -2.392744e-06 0.000000e+00 -1.268355e-08 -1.185677e-06 0.000000e+00 1.278690e-06 -3.378865e-07 0.000000e+00 1.868841e-06 -2.158571e-07 0.000000e+00 -1.250481e-05 1.851327e-05 0.000000e+00 1.023874e-06 -5.382352e-07 0.000000e+00 2.649076e-06 -5.581908e-08 0.000000e+00 5.783704e-06 9.560976e-07 0.000000e+00 3.670450e-06 3.424773e-05 0.000000e+00 -4.571783e-06 -2.351545e-06 0.000000e+00 9.019349e-07 2.417917e-05 0.000000e+00 4.973281e-06 3.053250e-06 0.000000e+00 -1.390893e-05 2.517861e-05 0.000000e+00 -7.156384e-06 -2.155477e-06 0.000000e+00 4.663681e-06 8.156090e-07 0.000000e+00 5.068468e-06 4.249787e-06 0.000000e+00 4.268724e-07 3.370026e-05 0.000000e+00 2.113384e-07 -1.069165e-06 0.000000e+00 -2.436158e-06 -4.456152e-06 0.000000e+00 9.513559e-07 1.450620e-05 0.000000e+00 3.003088e-06 6.154416e-06 0.000000e+00 3.889544e-08 -1.417796e-06 0.000000e+00 -1.007355e-05 -1.385930e-06 0.000000e+00 -5.381532e-06 3.008003e-05 0.000000e+00 1.198063e-07 -1.362277e-06 0.000000e+00 3.296485e-07 2.059748e-05 0.000000e+00 1.673279e-06 -3.032465e-07 0.000000e+00 1.902105e-06 7.948561e-06 0.000000e+00 1.136034e-06 -4.968530e-07 0.000000e+00 -1.151414e-05 1.270070e-05 0.000000e+00 3.962202e-06 4.196888e-07 0.000000e+00 3.991945e-06 4.446656e-06 0.000000e+00 3.195762e-06 1.629675e-07 0.000000e+00 2.668482e-06 8.742664e-10 0.000000e+00 5.029020e-06 2.188991e-06 0.000000e+00 1.324931e-06 -4.488255e-07 0.000000e+00 5.180364e-07 1.722983e-05 0.000000e+00 -1.417548e-06 3.022554e-05 0.000000e+00 1.528211e-06 -3.560509e-07 0.000000e+00 1.737056e-07 1.188412e-05 0.000000e+00 2.474084e-06 3.126502e-05 0.000000e+00 5.021903e-06 9.024143e-07 0.000000e+00 1.661804e-06 2.793990e-05 0.000000e+00 3.088235e-07 -1.006366e-06 0.000000e+00 4.363396e-06 6.854808e-07 0.000000e+00 2.193251e-06 -1.525826e-07 0.000000e+00 3.091090e-06 9.269380e-08 0.000000e+00 1.210359e-06 -4.935164e-07 0.000000e+00 6.095416e-07 -7.993972e-07 0.000000e+00 1.845284e-06 -2.584646e-07 0.000000e+00 -2.417281e-07 -1.142197e-06 0.000000e+00 -3.618875e-07 -1.848958e-06 0.000000e+00 8.140663e-07 -7.199024e-07 0.000000e+00 7.612033e-07 -6.442866e-07 0.000000e+00 -1.090668e-05 8.212300e-06 0.000000e+00 1.997176e-06 -2.081228e-07 0.000000e+00 -8.705386e-06 2.999091e-05 0.000000e+00 4.230699e-06 5.159036e-07 0.000000e+00 3.866684e-07 -9.685216e-07 0.000000e+00 2.347537e-06 -1.087922e-07 0.000000e+00 -1.009066e-05 4.797669e-06 0.000000e+00 -1.072373e-06 -2.261667e-06 0.000000e+00 1.735355e-06 -2.930241e-07 0.000000e+00 -7.644519e-06 6.333383e-06 0.000000e+00 7.916785e-07 -6.845541e-07 0.000000e+00 -1.011659e-05 6.047051e-07 0.000000e+00 2.485064e-06 -5.601853e-08 0.000000e+00 3.793285e-06 2.877497e-07 0.000000e+00 -2.724577e-06 -2.277639e-06 0.000000e+00 8.751543e-07 -7.023330e-07 0.000000e+00 -5.216044e-06 -1.274601e-06 0.000000e+00 4.270828e-07 -9.987314e-07 0.000000e+00 -2.705200e-06 2.232074e-05 0.000000e+00 -1.392934e-06 1.454765e-05 0.000000e+00 2.871320e-06 5.192518e-08 0.000000e+00 -8.875644e-06 2.279517e-06 0.000000e+00 -2.375294e-06 1.801000e-05 0.000000e+00 8.360148e-08 -1.399817e-06 0.000000e+00 -1.213363e-05 3.007404e-05 0.000000e+00 2.295498e-06 -1.682648e-08 0.000000e+00 -4.012087e-07 -1.720147e-06 0.000000e+00 -1.219089e-06 -1.960019e-06 0.000000e+00 -7.420327e-06 2.639692e-05 0.000000e+00 3.387678e-06 2.592107e-07 0.000000e+00 -8.072508e-06 1.493576e-05 0.000000e+00 -9.352921e-06 2.171963e-05 0.000000e+00 -1.043926e-05 2.654057e-05 0.000000e+00 3.419939e-06 4.691428e-07 0.000000e+00 -8.046723e-06 9.952763e-06 0.000000e+00 -6.801151e-06 3.457086e-06 0.000000e+00 2.523478e-06 7.301284e-08 0.000000e+00 5.459425e-07 -9.479455e-07 0.000000e+00 -1.858010e-07 8.971437e-06 0.000000e+00 4.027487e-06 3.079460e-06 0.000000e+00 2.865372e-06 2.645593e-07 0.000000e+00 5.213288e-06 1.534812e-06 0.000000e+00 1.506718e-06 -3.709682e-07 0.000000e+00 5.040402e-06 1.235346e-06 0.000000e+00 -4.231312e-06 2.649579e-05 0.000000e+00 -1.753734e-06 -1.694590e-06 0.000000e+00 2.833076e-06 4.362536e-06 0.000000e+00 -7.627041e-06 -6.156155e-07 0.000000e+00 -2.997865e-06 -1.506547e-06 0.000000e+00 3.875489e-06 1.085461e-06 0.000000e+00 1.919244e-06 -1.947347e-07 0.000000e+00 -1.282620e-06 2.616814e-05 0.000000e+00 9.454163e-07 -6.679876e-07 0.000000e+00 2.092707e-06 -1.067459e-07 0.000000e+00 3.644784e-06 7.312177e-07 0.000000e+00 1.652540e-06 -2.952462e-07 0.000000e+00 6.171234e-07 -8.435039e-07 0.000000e+00 -7.633290e-06 7.202274e-07 0.000000e+00 5.539539e-07 -9.462859e-07 0.000000e+00 3.986055e-07 -1.078257e-06 0.000000e+00 1.197429e-06 -5.252346e-07 0.000000e+00 1.229850e-06 6.155889e-06 0.000000e+00 4.320120e-06 1.315877e-06 0.000000e+00 1.464053e-06 -4.016491e-07 0.000000e+00 -5.782299e-06 1.453771e-06 0.000000e+00 -2.996385e-07 -1.453770e-06 0.000000e+00 1.169477e-06 -4.291138e-07 0.000000e+00 -3.707031e-06 -6.436278e-07 0.000000e+00 -6.739358e-07 -1.368334e-06 0.000000e+00 2.965244e-06 4.207762e-07 0.000000e+00 9.710822e-07 -6.480273e-07 0.000000e+00 -5.642544e-06 -6.774478e-08 0.000000e+00 2.806998e-06 1.404410e-07 0.000000e+00 -2.352877e-06 1.139087e-05 0.000000e+00 1.572794e-07 -1.278256e-06 0.000000e+00 3.072572e-06 2.920653e-06 0.000000e+00 2.733901e-06 7.282145e-07 0.000000e+00 2.361820e-06 4.393211e-07 0.000000e+00 -4.769071e-06 4.511086e-06 0.000000e+00 -5.747800e-06 1.884717e-05 0.000000e+00 4.270908e-06 1.988072e-06 0.000000e+00 2.973723e-06 1.213325e-06 0.000000e+00 -1.314866e-06 -1.170338e-06 0.000000e+00 6.874120e-07 -7.306518e-07 0.000000e+00 1.997874e-06 9.644563e-08 0.000000e+00 1.797910e-06 4.062756e-06 0.000000e+00 1.997318e-06 1.249351e-06 0.000000e+00 1.330407e-06 -3.005039e-07 0.000000e+00 1.118612e-06 -5.202810e-07 0.000000e+00 -4.106034e-06 2.402303e-06 0.000000e+00 -6.025901e-06 2.296455e-05 0.000000e+00 2.377968e-06 2.134545e-07 0.000000e+00 2.262856e-07 -1.028862e-06 0.000000e+00 -5.237890e-06 1.106811e-05 0.000000e+00 -4.378569e-06 1.471704e-05 0.000000e+00 1.844723e-06 -4.283995e-08 0.000000e+00 -5.205878e-06 7.501816e-06 0.000000e+00 -1.404246e-07 -9.369724e-07 0.000000e+00 2.103616e-06 2.758262e-06 0.000000e+00 1.706803e-06 7.621325e-07 0.000000e+00 1.556267e-06 -1.648242e-07 0.000000e+00 7.181345e-07 -4.325889e-07 0.000000e+00 -3.508045e-06 1.183476e-06 0.000000e+00 1.659892e-06 3.225841e-07 0.000000e+00 6.364383e-07 -8.684651e-07 0.000000e+00 -3.913885e-06 3.006486e-07 0.000000e+00 6.369480e-07 -6.145646e-07 0.000000e+00 3.307098e-06 1.805238e-06 0.000000e+00 2.137957e-06 1.851394e-06 0.000000e+00 -2.320708e-06 2.876965e-06 0.000000e+00 3.803510e-07 5.094808e-06 0.000000e+00 -2.037183e-06 -7.644311e-07 0.000000e+00 -7.717451e-07 -7.120145e-07 0.000000e+00 -2.840818e-06 8.484046e-06 0.000000e+00 2.336132e-07 -1.136107e-06 0.000000e+00 -2.648991e-06 5.399401e-06 0.000000e+00 8.669351e-07 -2.247587e-07 0.000000e+00 -1.785590e-06 1.291938e-06 0.000000e+00 1.261412e-06 2.801871e-08 0.000000e+00 -2.526757e-06 -2.059484e-07 0.000000e+00 6.667240e-07 3.742341e-06 0.000000e+00 -1.054314e-06 -2.118394e-07 0.000000e+00 9.665174e-07 6.111617e-07 0.000000e+00 -5.244086e-07 3.167128e-06 0.000000e+00 1.072372e-06 1.303655e-06 0.000000e+00 2.189143e-07 -2.117889e-08 0.000000e+00 8.733884e-08 -6.190452e-07 0.000000e+00 6.263204e-07 3.067972e-07 0.000000e+00 1.072800e-06 2.640696e-06 0.000000e+00 -9.509269e-07 6.652199e-06 0.000000e+00 9.258767e-07 1.966806e-06 0.000000e+00 1.916970e-08 -3.797402e-07 0.000000e+00 -7.260310e-07 4.781125e-06 0.000000e+00 -2.126854e-06 4.317647e-07 0.000000e+00 7.029923e-07 1.008852e-06 0.000000e+00 -3.238408e-07 1.701989e-06 0.000000e+00 -6.590937e-07 3.794862e-07 0.000000e+00 -1.019594e-07 8.204915e-07 0.000000e+00 </DataArray>
 <DataArray type="Float64" Name="IST_StressTensor" NumberOfComponents="9" format="ascii"> 9.990402e-01 3.487991e+00 0.000000e+00 3.487991e+00 -2.525586e+00 0.000000e+00 0.000000e+00 0.000000e+00 0.000000e+00 -6.738984e-01 -6.945912e-01 0.000000e+00 -6.945912e-01 -7.159194e-01 0.000000e+00 0.000000e+00 0.000000e+00 0.000000e+00 3.462161e+01 1.101363e+01 0.000000e+00 1.101363e+01 5.687282e+00 0.000000e+00 0.000000e+00 0.000000e+00 0.000000e+00 4.276645e-01 -6.847811e-01 0.000000e+00 -6.847811e-01 3.164608e-01 0.000000e+00 0.000000e+00 0.000000e+00 0.000000e+00 1.950255e+01 5.815731e+00 0.000000e+00 5.815731e+00 1.650219e+00 0.000000e+00 0.000000e+00 0.000000e+00 0.000000e+00 -4.383402e+00 -4.439741e+00 0.000000e+00 -4.439741e+00 -4.146528e+00 0.000000e+00 0.000000e+00 0.000000e+00 0.000000e+00 2.151639e+02 7.330967e+01 0.000000e+00 7.330967e+01 2.502585e+02 0.000000e+00 0.000000e+00 0.000000e+00 0.000000e+00 2.550705e+00 -5.827776e+00 0.000000e+00 -5.827776e+00 -1.499356e+02 0.000000e+00 0.000000e+00 0.000000e+00 0.000000e+00 -1.239396e+00 3.298409e+00 0.000000e+00 3.298409e+00 -2.608007e+00 0.000000e+00 0.000000e+00 0.000000e+00 0.000000e+00 -2.826332e+00 2.157845e+00 0.000000e+00 2.157845e+00 -3.567098e+00 0.000000e+00 0.000000e+00 0.000000e+00 0.000000e+00 -3.164992e+00 8.600402e-01 0.000000e+00 8.600402e-01 -5.870465e+00 0.000000e+00 0.000000e+00 0.000000e+00 0.000000e+00 -1.924638e+00 6.255842e-01 0.000000e+00 6.255842e-01 -9.783606e+00 0.000000e+00 0.000000e+00 0.000000e+00 0.000000e+00 4.106479e-01 3.370455e+00 0.000000e+00 3.370455e+00 -1.416854e+01 0.000000e+00 0.000000e+00 0.000000e+00 0.000000e+00 1.502799e+00 8.295481e+00 0.000000e+00 8.295481e+00 -1.656990e+01 0.000000e+00 0.000000e+00 0.000000e+00 0.000000e+00 1.014383e+00 1.454484e+01 0.000000e+00 1.454484e+01 -1.686755e+01 0.000000e+00 0.000000e+00 0.000000e+00 0.000000e+00 -9.281066e-01 1.995652e+01 0.000000e+00 1.995652e+01 -1.542517e+01 0.000000e+00 0.000000e+00 0.000000e+00 0.000000e+00 -3.491553e+00 2.486771e+01 0.000000e+00 2.486771e+01 -1.294198e+01 0.000000e+00 0.000000e+00 0.000000e+00 0.000000e+00 -5.867040e+00 2.813126e+01 0.000000e+00 2.813126e+01 -9.240290e+00 0.000000e+00 0.000000e+00 0.000000e+00 0.000000e+00 -6.575554e+00 2.904311e+01 0.000000e+00 2.904311e+01 -4.889589e+00 0.000000e+00 0.000000e+00 0.000000e+00 0.000000e+00 -4.569555e+00 2.802307e+01 0.000000e+00 2.802307e+01 -1.745897e+00 0.000000e+00 0.000000e+00 0.000000e+00 0.000000e+00 3.104640e-01 2.646431e+01 0.000000e+00 2.646431e+01 -6.678145e-01 0.000000e+00 0.000000e+00 0.000000e+00 0.000000e+00 6.401365e+00 2.576151e+01 0.000000e+00 2.576151e+01 -8.591680e-01 0.000000e+00 0.000000e+00 0.000000e+00 0.000000e+00 1.151336e+01 2.589018e+01 0.000000e+00 2.589018e+01 -8.095800e-01 0.000000e+00 0.000000e+00 0.000000e+00 0.000000e+00 1.464884e+01 2.614193e+01 0.000000e+00 2.614193e+01 -5.202957e-02 0.000000e+00 0.000000e+00 0.000000e+00 0.000000e+00 1.531444e+01 2.579880e+01 0.000000e+00 2.579880e+01 1.935500e+00 0.000000e+00 0.000000e+00 0.000000e+00 0.000000e+00 1.340571e+01 2.438843e+01 0.000000e+00 2.438843e+01 4.925756e+00 0.000000e+00 0.000000e+00 0.000000e+00 0.000000e+00 8.613183e+00 2.083878e+01 0.000000e+00 2.083878e+01 7.875134e+00 0.000000e+00 0.000000e+00 0.000000e+00 0.000000e+00 3.471258e+00 1.519288e+01 0.000000e+00 1.519288e+01 9.081030e+00 0.000000e+00 0.000000e+00 0.000000e+00 0.000000e+00 1.387428e+00 8.895958e+00 0.000000e+00 8.895958e+00 1.018911e+01 0.000000e+00 0.000000e+00 0.000000e+00 0.000000e+00 6.731945e-01 3.232292e+00 0.000000e+00 3.232292e+00 9.124664e+00 0.000000e+00 0.000000e+00 0.000000e+00 0.000000e+00 1.622694e+00 -6.428686e-01 0.000000e+00 -6.428686e-01 7.091567e+00 0.000000e+00 0.000000e+00 0.000000e+00 0.000000e+00 4.023260e+00 -2.499086e+00 0.000000e+00 -2.499086e+00 3.389936e+00 0.000000e+00 0.000000e+00 0.000000e+00 0.000000e+00 5.268205e+00 -1.687296e+00 0.000000e+00 -1.687296e+00 1.691763e-01 0.000000e+00 0.000000e+00 0.000000e+00 0.000000e+00 5.117321e+00 3.250868e-01 0.000000e+00 3.250868e-01 -1.839050e+00 0.000000e+00 0.000000e+00 0.000000e+00 0.000000e+00 3.522960e+00 2.330396e+00 0.000000e+00 2.330396e+00 -2.522865e+00 0.000000e+00 0.000000e+00 0.000000e+00 0.000000e+00 -3.063341e+00 -8.099092e+00 0.000000e+00 -8.099092e+00 -1.470934e+01 0.000000e+00 0.000000e+00 0.000000e+00 0.000000e+00 7.381535e-02 -1.084803e+01 0.000000e+00 -1.084803e+01 -4.417552e+01 0.000000e+00 0.000000e+00 0.000000e+00 0.000000e+00 2.180215e+00 -8.494744e+00 0.000000e+00 -8.494744e+00 -8.830488e+01 0.000000e+00 0.000000e+00 0.000000e+00 0.000000e+00 2.263339e+00 -4.284054e+00 0.000000e+00 -4.284054e+00 -1.291313e+02 0.000000e+00 0.000000e+00 0.000000e+00 0.000000e+00 1.153329e+02 3.282567e+01 0.000000e+00 3.282567e+01 1.688653e+01 0.000000e+00 0.000000e+00 0.000000e+00 0.000000e+00 5.728821e+01 1.569938e+00 0.000000e+00 1.569938e+00 -5.175535e-01 0.000000e+00 0.000000e+00 0.000000e+00 0.000000e+00 5.328100e+01 2.765254e+00 0.000000e+00 2.765254e+00 4.054551e-01 0.000000e+00 0.000000e+00 0.000000e+00 0.000000e+00 4.833733e+01 2.939251e+00 0.000000e+00 2.939251e+00 -2.608893e-01 0.000000e+00 0.000000e+00 0.000000e+00 0.000000e+00 4.320904e+01 3.347030e+00 0.000000e+00 3.347030e+00 -3.228459e-01 0.000000e+00 0.000000e+00 0.000000e+00 0.000000e+00 3.776925e+01 3.785918e+00 0.000000e+00 3.785918e+00 -2.383147e-01 0.000000e+00 0.000000e+00 0.000000e+00 0.000000e+00 3.186828e+01 4.338675e+00 0.000000e+00 4.338675e+00 -3.233546e-01 0.000000e+00 0.000000e+00 0.000000e+00 0.000000e+00 2.482196e+01 4.970134e+00 0.000000e+00 4.970134e+00 -7.841483e-02 0.000000e+00 0.000000e+00 0.000000e+00 0.000000e+00 1.356957e+00 -6.072352e-01 0.000000e+00 -6.072352e-01 -1.261992e-01 0.000000e+00 0.000000e+00 0.000000e+00 0.000000e+00 1.978108e+00 -3.321874e-01 0.000000e+00 -3.321874e-01 -2.981221e-01 0.000000e+00 0.000000e+00 0.000000e+00 0.000000e+00 1.706214e+00 6.739779e-01 0.000000e+00 6.739779e-01 -8.442624e-01 0.000000e+00 0.000000e+00 0.000000e+00 0.000000e+00 -1.714054e+00 2.226486e+00 0.000000e+00 2.226486e+00 -9.890263e-01 0.000000e+00 0.000000e+00 0.000000e+00 0.000000e+00 -9.130277e+00 4.076692e+00 0.000000e+00 4.076692e+00 -1.015943e+00 0.000000e+00 0.000000e+00 0.000000e+00 0.000000e+00 -2.044247e+01 5.784825e+00 0.000000e+00 5.784825e+00 -7.508127e-01 0.000000e+00 0.000000e+00 0.000000e+00 0.000000e+00 -3.337677e+01 6.851395e+00 0.000000e+00 6.851395e+00 -2.997825e-01 0.000000e+00 0.000000e+00 0.000000e+00 0.000000e+00 -4.824202e+01 7.062015e+00 0.000000e+00 7.062015e+00 2.107812e-01 0.000000e+00 0.000000e+00 0.000000e+00 0.000000e+00 -6.162330e+01 6.313556e+00 0.000000e+00 6.313556e+00 1.036322e+00 0.000000e+00 0.000000e+00 0.000000e+00 0.000000e+00 -7.142262e+01 4.369252e+00 0.000000e+00 4.369252e+00 1.963356e+00 0.000000e+00 0.000000e+00 0.000000e+00 0.000000e+00 -7.376427e+01 3.122766e-01 0.000000e+00 3.122766e-01 3.399994e+00 0.000000e+00 0.000000e+00 0.000000e+00 0.000000e+00 -6.468543e+01 -6.272753e+00 0.000000e+00 -6.272753e+00 3.655522e+00 0.000000e+00 0.000000e+00 0.000000e+00 0.000000e+00 -4.356062e+01 -9.866691e+00 0.000000e+00 -9.866691e+00 1.964119e+00 0.000000e+00 0.000000e+00 0.000000e+00 0.000000e+00 -1.738416e+01 -8.636856e+00 0.000000e+00 -8.636856e+00 -2.174539e+00 0.000000e+00 0.000000e+00 0.000000e+00 0.000000e+00 2.804267e+01 1.047083e+01 0.000000e+00 1.047083e+01 3.432456e+00 0.000000e+00 0.000000e+00 0.000000e+00 0.000000e+00 -2.922727e-01 -7.769695e-01 0.000000e+00 -7.769695e-01 -1.218303e+00 0.000000e+00 0.000000e+00 0.000000e+00 0.000000e+00 1.719101e-01 -6.534207e-01 0.000000e+00 -6.534207e-01 -3.241812e+00 0.000000e+00 0.000000e+00 0.000000e+00 0.000000e+00 5.028957e-01 1.040595e-01 0.000000e+00 1.040595e-01 -4.064659e+00 0.000000e+00 0.000000e+00 0.000000e+00 0.000000e+00 3.728599e-01 8.744006e-01 0.000000e+00 8.744006e-01 -3.206714e+00 0.000000e+00 0.000000e+00 0.000000e+00 0.000000e+00 1.086581e-01 1.304201e+00 0.000000e+00 1.304201e+00 -1.046414e+00 0.000000e+00 0.000000e+00 0.000000e+00 0.000000e+00 -2.281452e-01 1.221460e+00 0.000000e+00 1.221460e+00 1.078833e+00 0.000000e+00 0.000000e+00 0.000000e+00 0.000000e+00 -3.362079e-01 6.541364e-01 0.000000e+00 6.541364e-01 2.720466e+00 0.000000e+00 0.000000e+00 0.000000e+00 0.000000e+00 -3.493758e-01 7.245253e-02 0.000000e+00 7.245253e-02 3.230914e+00 0.000000e+00 0.000000e+00 0.000000e+00 0.000000e+00 -2.877014e-01 -5.093163e-01 0.000000e+00 -5.093163e-01 2.449949e+00 0.000000e+00 0.000000e+00 0.000000e+00 0.000000e+00 4.791848e-02 -7.196510e-01 0.000000e+00 -7.196510e-01 1.083445e+00 0.000000e+00 0.000000e+00 0.000000e+00 0.000000e+00 3.013028e+01 7.395732e+00 0.000000e+00 7.395732e+00 1.596945e+00 0.000000e+00 0.000000e+00 0.000000e+00 0.000000e+00 1.689099e+01 5.550220e+00 0.000000e+00 5.550220e+00 5.670046e-01 0.000000e+00 0.000000e+00 0.000000e+00 0.000000e+00 5.931811e+00 4.537922e+00 0.000000e+00 4.537922e+00 8.788209e-01 0.000000e+00 0.000000e+00 0.000000e+00 0.000000e+00 -3.295589e+00 2.999974e+00 0.000000e+00 2.999974e+00 1.371200e+00 0.000000e+00 0.000000e+00 0.000000e+00 0.000000e+00 -8.180258e+00 8.280197e-01 0.000000e+00 8.280197e-01 1.338923e+00 0.000000e+00 0.000000e+00 0.000000e+00 0.000000e+00 -7.698915e+00 -8.619856e-01 0.000000e+00 -8.619856e-01 8.132038e-01 0.000000e+00 0.000000e+00 0.000000e+00 0.000000e+00 -4.477363e+00 -1.518208e+00 0.000000e+00 -1.518208e+00 1.303855e-01 0.000000e+00 0.000000e+00 0.000000e+00 0.000000e+00 -1.122368e+00 -1.154439e+00 0.000000e+00 -1.154439e+00 -5.928673e-01 0.000000e+00 0.000000e+00 0.000000e+00 0.000000e+00 -2.321455e+01 -6.434202e+00 0.000000e+00 -6.434202e+00 -1.399455e+02 0.000000e+00 0.000000e+00 0.000000e+00 0.000000e+00 -1.169599e+01 -4.746245e+00 0.000000e+00 -4.746245e+00 -1.338299e+02 0.000000e+00 0.000000e+00 0.000000e+00 0.000000e+00 -6.801521e+00 -2.909693e+00 0.000000e+00 -2.909693e+00 -1.269526e+02 0.000000e+00 0.000000e+00 0.000000e+00 0.000000e+00 -3.309338e+00 -2.080328e+00 0.000000e+00 -2.080328e+00 -1.199092e+02 0.000000e+00 0.000000e+00 0.000000e+00 0.000000e+00 -4.966780e-01 -1.662534e+00 0.000000e+00 -1.662534e+00 -1.132621e+02 0.000000e+00 0.000000e+00 0.000000e+00 0.000000e+00 1.716170e+00 -1.445774e+00 0.000000e+00 -1.445774e+00 -1.067247e+02 0.000000e+00 0.000000e+00 0.000000e+00 0.000000e+00 3.724881e+00 -1.367478e+00 0.000000e+00 -1.367478e+00 -1.004360e+02 0.000000e+00 0.000000e+00 0.000000e+00 0.000000e+00 5.544791e+00 -1.306546e+00 0.000000e+00 -1.306546e+00 -9.441785e+01 0.000000e+00 0.000000e+00 0.000000e+00 0.000000e+00 7.389701e+00 -1.338456e+00 0.000000e+00 -1.338456e+00 -8.861305e+01 0.000000e+00 0.000000e+00 0.000000e+00 0.000000e+00 9.251588e+00 -1.368408e+00 0.000000e+00 -1.368408e+00 -8.290428e+01 0.000000e+00 0.000000e+00 0.000000e+00 0.000000e+00 1.135010e+01 -1.421839e+00 0.000000e+00 -1.421839e+00 -7.731951e+01 0.000000e+00 0.000000e+00 0.000000e+00 0.000000e+00 1.344685e+01 -1.394858e+00 0.000000e+00 -1.394858e+00 -7.186648e+01 0.000000e+00 0.000000e+00 0.000000e+00 0.000000e+00 1.562310e+01 -1.409805e+00 0.000000e+00 -1.409805e+00 -6.668603e+01 0.000000e+00 0.000000e+00 0.000000e+00 0.000000e+00 1.792993e+01 -1.433252e+00 0.000000e+00 -1.433252e+00 -6.187879e+01 0.000000e+00 0.000000e+00 0.000000e+00 0.000000e+00 2.028791e+01 -1.423457e+00 0.000000e+00 -1.423457e+00 -5.693893e+01 0.000000e+00 0.000000e+00 0.000000e+00 0.000000e+00 2.269914e+01 -1.507628e+00 0.000000e+00 -1.507628e+00 -5.195649e+01 0.000000e+00 0.000000e+00 0.000000e+00 0.000000e+00 2.533609e+01 -1.590779e+00 0.000000e+00 -1.590779e+00 -4.724125e+01 0.000000e+00 0.000000e+00 0.000000e+00 0.000000e+00 2.800660e+01 -1.634648e+00 0.000000e+00 -1.634648e+00 -4.265092e+01 0.000000e+00 0.000000e+00 0.000000e+00 0.000000e+00 3.086530e+01 -1.736123e+00 0.000000e+00 -1.736123e+00 -3.814911e+01 0.000000e+00 0.000000e+00 0.000000e+00 0.000000e+00 3.376783e+01 -1.785574e+00 0.000000e+00 -1.785574e+00 -3.371104e+01 0.000000e+00 0.000000e+00 0.000000e+00 0.000000e+00 3.678554e+01 -1.843580e+00 0.000000e+00 -1.843580e+00 -2.908848e+01 0.000000e+00 0.000000e+00 0.000000e+00 0.000000e+00 3.997713e+01 -1.926326e+00 0.000000e+00 -1.926326e+00 -2.454012e+01 0.000000e+00 0.000000e+00 0.000000e+00 0.000000e+00 4.330744e+01 -1.976810e+00 0.000000e+00 -1.976810e+00 -2.021137e+01 0.000000e+00 0.000000e+00 0.000000e+00 0.000000e+00 4.674232e+01 -2.033581e+00 0.000000e+00 -2.033581e+00 -1.596400e+01 0.000000e+00 0.000000e+00 0.000000e+00 0.000000e+00 5.030134e+01 -2.132096e+00 0.000000e+00 -2.132096e+00 -1.163778e+01 0.000000e+00 0.000000e+00 0.000000e+00 0.000000e+00 5.407931e+01 -2.221250e+00 0.000000e+00 -2.221250e+00 -7.213361e+00 0.000000e+00 0.000000e+00 0.000000e+00 0.000000e+00 5.792321e+01 -2.254831e+00 0.000000e+00 -2.254831e+00 -2.534939e+00 0.000000e+00 0.000000e+00 0.000000e+00 0.000000e+00 6.197538e+01 -2.335760e+00 0.000000e+00 -2.335760e+00 2.317330e+00 0.000000e+00 0.000000e+00 0.000000e+00 0.000000e+00 6.617530e+01 -2.449633e+00 0.000000e+00 -2.449633e+00 6.962637e+00 0.000000e+00 0.000000e+00 0.000000e+00 0.000000e+00 7.060328e+01 -2.540536e+00 0.000000e+00 -2.540536e+00 1.169178e+01 0.000000e+00 0.000000e+00 0.000000e+00 0.000000e+00 7.522465e+01 -2.654781e+00 0.000000e+00 -2.654781e+00 1.695651e+01 0.000000e+00 0.000000e+00 0.000000e+00 0.000000e+00 7.997560e+01 -2.840661e+00 0.000000e+00 -2.840661e+00 2.256542e+01 0.000000e+00 0.000000e+00 0.000000e+00 0.000000e+00 8.505488e+01 -3.074343e+00 0.000000e+00 -3.074343e+00 2.825496e+01 0.000000e+00 0.000000e+00 0.000000e+00 0.000000e+00 9.056703e+01 -3.357334e+00 0.000000e+00 -3.357334e+00 3.386250e+01 0.000000e+00 0.000000e+00 0.000000e+00 0.000000e+00 9.651946e+01 -3.512027e+00 0.000000e+00 -3.512027e+00 3.968543e+01 0.000000e+00 0.000000e+00 0.000000e+00 0.000000e+00 1.028448e+02 -3.552793e+00 0.000000e+00 -3.552793e+00 4.636682e+01 0.000000e+00 0.000000e+00 0.000000e+00 0.000000e+00 1.095192e+02 -3.629948e+00 0.000000e+00 -3.629948e+00 5.370842e+01 0.000000e+00 0.000000e+00 0.000000e+00 0.000000e+00 1.167167e+02 -3.843746e+00 0.000000e+00 -3.843746e+00 6.119923e+01 0.000000e+00 0.000000e+00 0.000000e+00 0.000000e+00 1.242325e+02 -4.430704e+00 0.000000e+00 -4.430704e+00 6.937683e+01 0.000000e+00 0.000000e+00 0.000000e+00 0.000000e+00 1.330958e+02 -5.261553e+00 0.000000e+00 -5.261553e+00 7.831184e+01 0.000000e+00 0.000000e+00 0.000000e+00 0.000000e+00 1.429613e+02 -5.976261e+00 0.000000e+00 -5.976261e+00 8.810928e+01 0.000000e+00 0.000000e+00 0.000000e+00 0.000000e+00 1.543107e+02 -6.913354e+00 0.000000e+00 -6.913354e+00 9.916136e+01 0.000000e+00 0.000000e+00 0.000000e+00 0.000000e+00 1.678725e+02 -7.798218e+00 0.000000e+00 -7.798218e+00 1.123981e+02 0.000000e+00 0.000000e+00 0.000000e+00 0.000000e+00 1.837125e+02 -9.419174e+00 0.000000e+00 -9.419174e+00 1.282970e+02 0.000000e+00 0.000000e+00 0.000000e+00 0.000000e+00 2.023351e+02 -1.282840e+01 0.000000e+00 -1.282840e+01 1.469151e+02 0.000000e+00 0.000000e+00 0.000000e+00 0.000000e+00 2.263558e+02 -1.865465e+01 0.000000e+00 -1.865465e+01 1.709178e+02 0.000000e+00 0.000000e+00 0.000000e+00 0.000000e+00 2.586013e+02 -2.948810e+01 0.000000e+00 -2.948810e+01 2.048522e+02 0.000000e+00 0.000000e+00 0.000000e+00 0.000000e+00 3.004620e+02 -4.953667e+01 0.000000e+00 -4.953667e+01 2.591204e+02 0.000000e+00 0.000000e+00 0.000000e+00 0.000000e+00 3.461669e+02 -8.280295e+01 0.000000e+00 -8.280295e+01 3.630765e+02 0.000000e+00 0.000000e+00 0.000000e+00 0.000000e+00 -9.793717e+00 -8.734848e+00 0.000000e+00 -8.734848e+00 -1.421955e+02 0.000000e+00 0.000000e+00 0.000000e+00 0.000000e+00 -3.595323e+00 -3.497483e+00 0.000000e+00 -3.497483e+00 -1.239045e+02 0.000000e+00 0.000000e+00 0.000000e+00 0.000000e+00 1.141013e+00 -2.247853e+00 0.000000e+00 -2.247853e+00 -1.100896e+02 0.000000e+00 0.000000e+00 0.000000e+00 0.000000e+00 4.819214e+00 -2.016686e+00 0.000000e+00 -2.016686e+00 -9.755228e+01 0.000000e+00 0.000000e+00 0.000000e+00 0.000000e+00 8.269442e+00 -2.116008e+00 0.000000e+00 -2.116008e+00 -8.566875e+01 0.000000e+00 0.000000e+00 0.000000e+00 0.000000e+00 1.237536e+01 -2.328067e+00 0.000000e+00 -2.328067e+00 -7.449041e+01 0.000000e+00 0.000000e+00 0.000000e+00 0.000000e+00 1.674187e+01 -2.312826e+00 0.000000e+00 -2.312826e+00 -6.426313e+01 0.000000e+00 0.000000e+00 0.000000e+00 0.000000e+00 2.143664e+01 -2.504471e+00 0.000000e+00 -2.504471e+00 -5.439617e+01 0.000000e+00 0.000000e+00 0.000000e+00 0.000000e+00 2.659461e+01 -2.657585e+00 0.000000e+00 -2.657585e+00 -4.491953e+01 0.000000e+00 0.000000e+00 0.000000e+00 0.000000e+00 3.202397e+01 -3.104384e+00 0.000000e+00 -3.104384e+00 -3.588071e+01 0.000000e+00 0.000000e+00 0.000000e+00 0.000000e+00 3.824066e+01 -3.441124e+00 0.000000e+00 -3.441124e+00 -2.682155e+01 0.000000e+00 0.000000e+00 0.000000e+00 0.000000e+00 4.477900e+01 -3.616075e+00 0.000000e+00 -3.616075e+00 -1.805827e+01 0.000000e+00 0.000000e+00 0.000000e+00 0.000000e+00 5.183360e+01 -4.087587e+00 0.000000e+00 -4.087587e+00 -9.421793e+00 0.000000e+00 0.000000e+00 0.000000e+00 0.000000e+00 5.961661e+01 -4.394391e+00 0.000000e+00 -4.394391e+00 -1.588724e-01 0.000000e+00 0.000000e+00 0.000000e+00 0.000000e+00 6.800280e+01 -4.514319e+00 0.000000e+00 -4.514319e+00 9.445220e+00 0.000000e+00 0.000000e+00 0.000000e+00 0.000000e+00 7.709194e+01 -5.208335e+00 0.000000e+00 -5.208335e+00 1.985253e+01 0.000000e+00 0.000000e+00 0.000000e+00 0.000000e+00 8.734017e+01 -5.964494e+00 0.000000e+00 -5.964494e+00 3.131223e+01 0.000000e+00 0.000000e+00 0.000000e+00 0.000000e+00 9.877716e+01 -6.804968e+00 0.000000e+00 -6.804968e+00 4.345823e+01 0.000000e+00 0.000000e+00 0.000000e+00 0.000000e+00 1.124923e+02 -6.832618e+00 0.000000e+00 -6.832618e+00 5.773375e+01 0.000000e+00 0.000000e+00 0.000000e+00 0.000000e+00 1.269562e+02 -9.103770e+00 0.000000e+00 -9.103770e+00 7.398426e+01 0.000000e+00 0.000000e+00 0.000000e+00 0.000000e+00 1.457181e+02 -1.207910e+01 0.000000e+00 -1.207910e+01 9.443117e+01 0.000000e+00 0.000000e+00 0.000000e+00 0.000000e+00 1.716482e+02 -1.442326e+01 0.000000e+00 -1.442326e+01 1.209183e+02 0.000000e+00 0.000000e+00 0.000000e+00 0.000000e+00 2.017800e+02 -2.382152e+01 0.000000e+00 -2.382152e+01 1.598664e+02 0.000000e+00 0.000000e+00 0.000000e+00 0.000000e+00 2.363301e+02 -4.288176e+01 0.000000e+00 -4.288176e+01 2.310629e+02 0.000000e+00 0.000000e+00 0.000000e+00 0.000000e+00 2.262802e+02 -1.594681e+01 0.000000e+00 -1.594681e+01 3.899189e+02 0.000000e+00 0.000000e+00 0.000000e+00 0.000000e+00 6.675562e+01 9.548658e+00 0.000000e+00 9.548658e+00 2.986908e+00 0.000000e+00 0.000000e+00 0.000000e+00 0.000000e+00 4.862089e+01 6.695153e+00 0.000000e+00 6.695153e+00 1.976785e-01 0.000000e+00 0.000000e+00 0.000000e+00 0.000000e+00 3.653172e+01 6.753006e+00 0.000000e+00 6.753006e+00 -3.708374e-01 0.000000e+00 0.000000e+00 0.000000e+00 0.000000e+00 2.598633e+01 7.842943e+00 0.000000e+00 7.842943e+00 2.543428e-01 0.000000e+00 0.000000e+00 0.000000e+00 0.000000e+00 3.083046e+01 1.051280e+01 0.000000e+00 1.051280e+01 2.455605e+00 0.000000e+00 0.000000e+00 0.000000e+00 0.000000e+00 2.926918e+01 1.085650e+01 0.000000e+00 1.085650e+01 3.946756e+00 0.000000e+00 0.000000e+00 0.000000e+00 0.000000e+00 1.218923e+01 8.966902e+00 0.000000e+00 8.966902e+00 1.164786e+00 0.000000e+00 0.000000e+00 0.000000e+00 0.000000e+00 -3.257198e+00 2.592485e+00 0.000000e+00 2.592485e+00 1.718345e+00 0.000000e+00 0.000000e+00 0.000000e+00 0.000000e+00 -3.743117e+00 -1.773939e+00 0.000000e+00 -1.773939e+00 4.821230e-01 0.000000e+00 0.000000e+00 0.000000e+00 0.000000e+00 -1.192175e-01 -1.297687e+00 0.000000e+00 -1.297687e+00 -1.503209e+00 0.000000e+00 0.000000e+00 0.000000e+00 0.000000e+00 9.756461e-01 5.923920e-01 0.000000e+00 5.923920e-01 -3.088722e+00 0.000000e+00 0.000000e+00 0.000000e+00 0.000000e+00 -1.180908e-01 1.847528e+00 0.000000e+00 1.847528e+00 -6.133747e-01 0.000000e+00 0.000000e+00 0.000000e+00 0.000000e+00 -6.021585e-01 4.588271e-01 0.000000e+00 4.588271e-01 1.418780e+00 0.000000e+00 0.000000e+00 0.000000e+00 0.000000e+00 -2.913505e-01 -6.913955e-01 0.000000e+00 -6.913955e-01 5.371941e-01 0.000000e+00 0.000000e+00 0.000000e+00 0.000000e+00 4.852651e-01 -6.391089e-01 0.000000e+00 -6.391089e-01 -3.275812e-02 0.000000e+00 0.000000e+00 0.000000e+00 0.000000e+00 4.783610e-01 3.394031e-01 0.000000e+00 3.394031e-01 -1.154684e+00 0.000000e+00 0.000000e+00 0.000000e+00 0.000000e+00 -6.332794e+00 5.291205e+00 0.000000e+00 5.291205e+00 -1.701031e+00 0.000000e+00 0.000000e+00 0.000000e+00 0.000000e+00 -2.387399e+01 1.052467e+01 0.000000e+00 1.052467e+01 -7.766485e-01 0.000000e+00 0.000000e+00 0.000000e+00 0.000000e+00 -4.537073e+01 1.068800e+01 0.000000e+00 1.068800e+01 1.179684e+00 0.000000e+00 0.000000e+00 0.000000e+00 0.000000e+00 -5.868105e+01 3.053461e+00 0.000000e+00 3.053461e+00 4.055963e+00 0.000000e+00 0.000000e+00 0.000000e+00 0.000000e+00 -4.643510e+01 -1.274969e+01 0.000000e+00 -1.274969e+01 3.749554e+00 0.000000e+00 0.000000e+00 0.000000e+00 0.000000e+00 -2.726287e+01 -1.573081e+01 0.000000e+00 -1.573081e+01 -7.601228e-01 0.000000e+00 0.000000e+00 0.000000e+00 0.000000e+00 -9.329928e+00 -1.104921e+01 0.000000e+00 -1.104921e+01 -7.247185e+00 0.000000e+00 0.000000e+00 0.000000e+00 0.000000e+00 -2.718149e+00 -1.521262e+01 0.000000e+00 -1.521262e+01 -2.421876e+01 0.000000e+00 0.000000e+00 0.000000e+00 0.000000e+00 1.844165e+00 2.757890e+00 0.000000e+00 2.757890e+00 -2.380075e+00 0.000000e+00 0.000000e+00 0.000000e+00 0.000000e+00 3.655174e+00 1.098199e+00 0.000000e+00 1.098199e+00 -2.288947e+00 0.000000e+00 0.000000e+00 0.000000e+00 0.000000e+00 4.369821e+00 -1.005101e+00 0.000000e+00 -1.005101e+00 -1.230088e+00 0.000000e+00 0.000000e+00 0.000000e+00 0.000000e+00 4.061710e+00 -2.488728e+00 0.000000e+00 -2.488728e+00 1.272791e+00 0.000000e+00 0.000000e+00 0.000000e+00 0.000000e+00 2.191308e+00 -2.085080e+00 0.000000e+00 -2.085080e+00 4.186220e+00 0.000000e+00 0.000000e+00 0.000000e+00 0.000000e+00 5.649127e-01 6.852976e-01 0.000000e+00 6.852976e-01 6.546093e+00 0.000000e+00 0.000000e+00 0.000000e+00 0.000000e+00 9.442146e-01 5.328820e+00 0.000000e+00 5.328820e+00 8.134930e+00 0.000000e+00 0.000000e+00 0.000000e+00 0.000000e+00 3.128898e+00 1.105379e+01 0.000000e+00 1.105379e+01 8.386100e+00 0.000000e+00 0.000000e+00 0.000000e+00 0.000000e+00 7.186088e+00 1.687772e+01 0.000000e+00 1.687772e+01 7.291752e+00 0.000000e+00 0.000000e+00 0.000000e+00 0.000000e+00 1.247379e+01 2.125420e+01 0.000000e+00 2.125420e+01 5.623670e+00 0.000000e+00 0.000000e+00 0.000000e+00 0.000000e+00 1.587770e+01 2.394657e+01 0.000000e+00 2.394657e+01 3.188130e+00 0.000000e+00 0.000000e+00 0.000000e+00 0.000000e+00 1.641247e+01 2.520368e+01 0.000000e+00 2.520368e+01 1.023615e+00 0.000000e+00 0.000000e+00 0.000000e+00 0.000000e+00 1.412540e+01 2.576123e+01 0.000000e+00 2.576123e+01 -1.135080e-01 0.000000e+00 0.000000e+00 0.000000e+00 0.000000e+00 9.505094e+00 2.593563e+01 0.000000e+00 2.593563e+01 -2.459756e-01 0.000000e+00 0.000000e+00 0.000000e+00 0.000000e+00 3.307388e+00 2.642875e+01 0.000000e+00 2.642875e+01 7.950955e-02 0.000000e+00 0.000000e+00 0.000000e+00 0.000000e+00 -2.736453e+00 2.740884e+01 0.000000e+00 2.740884e+01 -2.209019e-01 0.000000e+00 0.000000e+00 0.000000e+00 0.000000e+00 -6.719486e+00 2.831249e+01 0.000000e+00 2.831249e+01 -2.240519e+00 0.000000e+00 0.000000e+00 0.000000e+00 0.000000e+00 -8.006308e+00 2.799686e+01 0.000000e+00 2.799686e+01 -5.960551e+00 0.000000e+00 0.000000e+00 0.000000e+00 0.000000e+00 -6.793668e+00 2.571208e+01 0.000000e+00 2.571208e+01 -9.761372e+00 0.000000e+00 0.000000e+00 0.000000e+00 0.000000e+00 -4.440938e+00 2.150754e+01 0.000000e+00 2.150754e+01 -1.256733e+01 0.000000e+00 0.000000e+00 0.000000e+00 0.000000e+00 -1.896683e+00 1.651184e+01 0.000000e+00 1.651184e+01 -1.441560e+01 0.000000e+00 0.000000e+00 0.000000e+00 0.000000e+00 -1.269526e-01 1.074677e+01 0.000000e+00 1.074677e+01 -1.518625e+01 0.000000e+00 0.000000e+00 0.000000e+00 0.000000e+00 -4.607803e-03 5.338007e+00 0.000000e+00 5.338007e+00 -1.367252e+01 0.000000e+00 0.000000e+00 0.000000e+00 0.000000e+00 -1.288344e+00 1.575880e+00 0.000000e+00 1.575880e+00 -1.029035e+01 0.000000e+00 0.000000e+00 0.000000e+00 0.000000e+00 -2.560648e+00 5.340746e-01 0.000000e+00 5.340746e-01 -6.493782e+00 0.000000e+00 0.000000e+00 0.000000e+00 0.000000e+00 -2.835958e+00 1.394592e+00 0.000000e+00 1.394592e+00 -3.813534e+00 0.000000e+00 0.000000e+00 0.000000e+00 0.000000e+00 -1.865716e+00 2.584827e+00 0.000000e+00 2.584827e+00 -2.397661e+00 0.000000e+00 0.000000e+00 0.000000e+00 0.000000e+00 -1.888067e-01 3.244306e+00 0.000000e+00 3.244306e+00 -2.137751e+00 0.000000e+00 0.000000e+00 0.000000e+00 0.000000e+00 -6.600852e+00 -5.422910e+00 0.000000e+00 -5.422910e+00 -1.314655e+02 0.000000e+00 0.000000e+00 0.000000e+00 0.000000e+00 -9.783904e-01 -2.656617e+00 0.000000e+00 -2.656617e+00 -1.167952e+02 0.000000e+00 0.000000e+00 0.000000e+00 0.000000e+00 3.006511e+00 -2.120252e+00 0.000000e+00 -2.120252e+00 -1.037652e+02 0.000000e+00 0.000000e+00 0.000000e+00 0.000000e+00 6.509666e+00 -2.020141e+00 0.000000e+00 -2.020141e+00 -9.155516e+01 0.000000e+00 0.000000e+00 0.000000e+00 0.000000e+00 1.026746e+01 -2.256894e+00 0.000000e+00 -2.256894e+00 -8.001808e+01 0.000000e+00 0.000000e+00 0.000000e+00 0.000000e+00 1.459195e+01 -2.323419e+00 0.000000e+00 -2.323419e+00 -6.930053e+01 0.000000e+00 0.000000e+00 0.000000e+00 0.000000e+00 1.896757e+01 -2.403740e+00 0.000000e+00 -2.403740e+00 -5.930082e+01 0.000000e+00 0.000000e+00 0.000000e+00 0.000000e+00 2.394473e+01 -2.637335e+00 0.000000e+00 -2.637335e+00 -4.963792e+01 0.000000e+00 0.000000e+00 0.000000e+00 0.000000e+00 2.931112e+01 -2.874901e+00 0.000000e+00 -2.874901e+00 -4.030504e+01 0.000000e+00 0.000000e+00 0.000000e+00 0.000000e+00 3.504347e+01 -3.332533e+00 0.000000e+00 -3.332533e+00 -3.136902e+01 0.000000e+00 0.000000e+00 0.000000e+00 0.000000e+00 4.146625e+01 -3.511037e+00 0.000000e+00 -3.511037e+00 -2.239050e+01 0.000000e+00 0.000000e+00 0.000000e+00 0.000000e+00 4.821567e+01 -3.877769e+00 0.000000e+00 -3.877769e+00 -1.374223e+01 0.000000e+00 0.000000e+00 0.000000e+00 0.000000e+00 5.560086e+01 -4.265017e+00 0.000000e+00 -4.265017e+00 -4.820718e+00 0.000000e+00 0.000000e+00 0.000000e+00 0.000000e+00 6.385812e+01 -4.333089e+00 0.000000e+00 -4.333089e+00 4.590061e+00 0.000000e+00 0.000000e+00 0.000000e+00 0.000000e+00 7.238835e+01 -4.829888e+00 0.000000e+00 -4.829888e+00 1.442189e+01 0.000000e+00 0.000000e+00 0.000000e+00 0.000000e+00 8.219619e+01 -5.574109e+00 0.000000e+00 -5.574109e+00 2.565200e+01 0.000000e+00 0.000000e+00 0.000000e+00 0.000000e+00 9.291206e+01 -6.454371e+00 0.000000e+00 -6.454371e+00 3.718735e+01 0.000000e+00 0.000000e+00 0.000000e+00 0.000000e+00 1.053480e+02 -6.913576e+00 0.000000e+00 -6.913576e+00 5.035181e+01 0.000000e+00 0.000000e+00 0.000000e+00 0.000000e+00 1.193550e+02 -7.648568e+00 0.000000e+00 -7.648568e+00 6.552115e+01 0.000000e+00 0.000000e+00 0.000000e+00 0.000000e+00 1.358851e+02 -1.059640e+01 0.000000e+00 -1.059640e+01 8.383238e+01 0.000000e+00 0.000000e+00 0.000000e+00 0.000000e+00 1.574679e+02 -1.332324e+01 0.000000e+00 -1.332324e+01 1.065570e+02 0.000000e+00 0.000000e+00 0.000000e+00 0.000000e+00 1.860133e+02 -1.787242e+01 0.000000e+00 -1.787242e+01 1.383892e+02 0.000000e+00 0.000000e+00 0.000000e+00 0.000000e+00 2.195509e+02 -3.187891e+01 0.000000e+00 -3.187891e+01 1.888790e+02 0.000000e+00 0.000000e+00 0.000000e+00 0.000000e+00 2.452746e+02 -5.159815e+01 0.000000e+00 -5.159815e+01 2.950305e+02 0.000000e+00 0.000000e+00 0.000000e+00 0.000000e+00 8.066742e+01 1.472386e+01 0.000000e+00 1.472386e+01 1.365748e+00 0.000000e+00 0.000000e+00 0.000000e+00 0.000000e+00 5.648961e+01 7.421654e+00 0.000000e+00 7.421654e+00 8.945263e-01 0.000000e+00 0.000000e+00 0.000000e+00 0.000000e+00 4.221957e+01 6.585327e+00 0.000000e+00 6.585327e+00 -7.213737e-02 0.000000e+00 0.000000e+00 0.000000e+00 0.000000e+00 3.127184e+01 7.174110e+00 0.000000e+00 7.174110e+00 -6.838796e-01 0.000000e+00 0.000000e+00 0.000000e+00 0.000000e+00 2.791873e+01 1.156374e+01 0.000000e+00 1.156374e+01 3.927321e+00 0.000000e+00 0.000000e+00 0.000000e+00 0.000000e+00 2.100636e+01 9.957706e+00 0.000000e+00 9.957706e+00 1.470605e+00 0.000000e+00 0.000000e+00 0.000000e+00 0.000000e+00 3.537767e+00 6.722291e+00 0.000000e+00 6.722291e+00 1.852633e+00 0.000000e+00 0.000000e+00 0.000000e+00 0.000000e+00 -5.092991e+00 -2.409070e-01 0.000000e+00 -2.409070e-01 1.293582e+00 0.000000e+00 0.000000e+00 0.000000e+00 0.000000e+00 -1.599472e+00 -1.939261e+00 0.000000e+00 -1.939261e+00 -4.918880e-01 0.000000e+00 0.000000e+00 0.000000e+00 0.000000e+00 8.766540e-01 -7.058805e-01 0.000000e+00 -7.058805e-01 -2.898768e+00 0.000000e+00 0.000000e+00 0.000000e+00 0.000000e+00 4.928061e-01 1.553732e+00 0.000000e+00 1.553732e+00 -2.119631e+00 0.000000e+00 0.000000e+00 0.000000e+00 0.000000e+00 -6.501871e-01 1.362906e+00 0.000000e+00 1.362906e+00 5.476164e-01 0.000000e+00 0.000000e+00 0.000000e+00 0.000000e+00 -5.603096e-01 -2.530000e-01 0.000000e+00 -2.530000e-01 1.160965e+00 0.000000e+00 0.000000e+00 0.000000e+00 0.000000e+00 -3.437654e+01 1.151974e+01 0.000000e+00 1.151974e+01 -1.202082e-02 0.000000e+00 0.000000e+00 0.000000e+00 0.000000e+00 -1.492949e+00 2.562242e+00 0.000000e+00 2.562242e+00 -1.691538e+00 0.000000e+00 0.000000e+00 0.000000e+00 0.000000e+00 -1.408988e+01 8.123397e+00 0.000000e+00 8.123397e+00 -1.532640e+00 0.000000e+00 0.000000e+00 0.000000e+00 0.000000e+00 -5.398733e+01 8.072824e+00 0.000000e+00 8.072824e+00 2.433455e+00 0.000000e+00 0.000000e+00 0.000000e+00 0.000000e+00 -5.501632e+01 -5.850439e+00 0.000000e+00 -5.850439e+00 5.924144e+00 0.000000e+00 0.000000e+00 0.000000e+00 0.000000e+00 -1.048098e+00 -1.739564e+01 0.000000e+00 -1.739564e+01 -4.272523e+01 0.000000e+00 0.000000e+00 0.000000e+00 0.000000e+00 3.137514e+00 -3.887949e+00 0.000000e+00 -3.887949e+00 -1.074154e+02 0.000000e+00 0.000000e+00 0.000000e+00 0.000000e+00 5.862421e+00 -3.839214e+00 0.000000e+00 -3.839214e+00 -9.473504e+01 0.000000e+00 0.000000e+00 0.000000e+00 0.000000e+00 1.985496e+01 -5.354715e+00 0.000000e+00 -5.354715e+00 -5.644309e+01 0.000000e+00 0.000000e+00 0.000000e+00 0.000000e+00 1.562780e+01 -4.696974e+00 0.000000e+00 -4.696974e+00 -6.681670e+01 0.000000e+00 0.000000e+00 0.000000e+00 0.000000e+00 4.334266e+00 -3.876184e+00 0.000000e+00 -3.876184e+00 -1.009362e+02 0.000000e+00 0.000000e+00 0.000000e+00 0.000000e+00 1.762965e+01 -4.849717e+00 0.000000e+00 -4.849717e+00 -6.149292e+01 0.000000e+00 0.000000e+00 0.000000e+00 0.000000e+00 1.346841e+01 -4.899944e+00 0.000000e+00 -4.899944e+00 -7.178331e+01 0.000000e+00 0.000000e+00 0.000000e+00 0.000000e+00 4.245932e+01 -7.004846e+00 0.000000e+00 -7.004846e+00 -2.013727e+01 0.000000e+00 0.000000e+00 0.000000e+00 0.000000e+00 3.614381e+01 -6.925068e+00 0.000000e+00 -6.925068e+00 -2.909330e+01 0.000000e+00 0.000000e+00 0.000000e+00 0.000000e+00 1.722204e+02 -3.410082e+01 0.000000e+00 -3.410082e+01 1.504798e+02 0.000000e+00 0.000000e+00 0.000000e+00 0.000000e+00 3.950736e+01 -6.964054e+00 0.000000e+00 -6.964054e+00 -2.462618e+01 0.000000e+00 0.000000e+00 0.000000e+00 0.000000e+00 3.300986e+01 -6.703835e+00 0.000000e+00 -6.703835e+00 -3.362482e+01 0.000000e+00 0.000000e+00 0.000000e+00 0.000000e+00 5.672478e+01 -8.761157e+00 0.000000e+00 -8.761157e+00 -2.248779e+00 0.000000e+00 0.000000e+00 0.000000e+00 0.000000e+00 6.517364e+01 -8.937415e+00 0.000000e+00 -8.937415e+00 7.224028e+00 0.000000e+00 0.000000e+00 0.000000e+00 0.000000e+00 6.072383e+01 -8.933013e+00 0.000000e+00 -8.933013e+00 2.358359e+00 0.000000e+00 0.000000e+00 0.000000e+00 0.000000e+00 5.265630e+01 -8.500198e+00 0.000000e+00 -8.500198e+00 -6.991869e+00 0.000000e+00 0.000000e+00 0.000000e+00 0.000000e+00 7.830552e+01 -1.107880e+01 0.000000e+00 -1.107880e+01 2.308959e+01 0.000000e+00 0.000000e+00 0.000000e+00 0.000000e+00 1.067940e+02 -1.409537e+01 0.000000e+00 -1.409537e+01 5.572505e+01 0.000000e+00 0.000000e+00 0.000000e+00 0.000000e+00 8.864014e+01 -1.229255e+01 0.000000e+00 -1.229255e+01 3.529032e+01 0.000000e+00 0.000000e+00 0.000000e+00 0.000000e+00 9.974558e+01 -1.382502e+01 0.000000e+00 -1.382502e+01 4.862826e+01 0.000000e+00 0.000000e+00 0.000000e+00 0.000000e+00 1.531837e+02 -2.625944e+01 0.000000e+00 -2.625944e+01 1.176710e+02 0.000000e+00 0.000000e+00 0.000000e+00 0.000000e+00 1.336886e+02 -2.146629e+01 0.000000e+00 -2.146629e+01 9.115275e+01 0.000000e+00 0.000000e+00 0.000000e+00 0.000000e+00 9.365118e+01 -1.323179e+01 0.000000e+00 -1.323179e+01 4.164524e+01 0.000000e+00 0.000000e+00 0.000000e+00 0.000000e+00 1.423485e+02 -2.418762e+01 0.000000e+00 -2.418762e+01 1.036426e+02 0.000000e+00 0.000000e+00 0.000000e+00 0.000000e+00 1.254164e+02 -1.876060e+01 0.000000e+00 -1.876060e+01 7.957535e+01 0.000000e+00 0.000000e+00 0.000000e+00 0.000000e+00 1.680668e+02 -2.792092e+01 0.000000e+00 -2.792092e+01 1.316427e+02 0.000000e+00 0.000000e+00 0.000000e+00 0.000000e+00 5.411364e+01 1.522841e+01 0.000000e+00 1.522841e+01 2.694114e+00 0.000000e+00 0.000000e+00 0.000000e+00 0.000000e+00 1.534682e+02 -1.738964e+01 0.000000e+00 -1.738964e+01 3.131295e+02 0.000000e+00 0.000000e+00 0.000000e+00 0.000000e+00 4.031741e+01 1.191728e+01 0.000000e+00 1.191728e+01 -2.549788e-02 0.000000e+00 0.000000e+00 0.000000e+00 0.000000e+00 6.443528e+01 1.961372e+01 0.000000e+00 1.961372e+01 6.447953e+00 0.000000e+00 0.000000e+00 0.000000e+00 0.000000e+00 7.805796e+01 3.009121e+01 0.000000e+00 3.009121e+01 1.471064e+01 0.000000e+00 0.000000e+00 0.000000e+00 0.000000e+00 1.755497e+02 -4.428997e+01 0.000000e+00 -4.428997e+01 2.602661e+02 0.000000e+00 0.000000e+00 0.000000e+00 0.000000e+00 4.634399e+01 1.310203e+01 0.000000e+00 1.310203e+01 1.011679e+00 0.000000e+00 0.000000e+00 0.000000e+00 0.000000e+00 1.243982e+02 4.724320e+01 0.000000e+00 4.724320e+01 1.246146e+01 0.000000e+00 0.000000e+00 0.000000e+00 0.000000e+00 1.719980e+01 1.561502e+01 0.000000e+00 1.561502e+01 2.705510e+00 0.000000e+00 0.000000e+00 0.000000e+00 0.000000e+00 3.232284e+01 1.045134e+01 0.000000e+00 1.045134e+01 -4.500055e-01 0.000000e+00 0.000000e+00 0.000000e+00 0.000000e+00 2.281371e+01 1.440547e+01 0.000000e+00 1.440547e+01 3.518626e+00 0.000000e+00 0.000000e+00 0.000000e+00 0.000000e+00 -9.937933e-01 -9.366510e-02 0.000000e+00 -9.366510e-02 -1.825123e+00 0.000000e+00 0.000000e+00 0.000000e+00 0.000000e+00 1.088682e+01 1.506567e+01 0.000000e+00 1.506567e+01 3.704323e+00 0.000000e+00 0.000000e+00 0.000000e+00 0.000000e+00 -1.424874e+00 1.049010e+00 0.000000e+00 1.049010e+00 -6.449198e-01 0.000000e+00 0.000000e+00 0.000000e+00 0.000000e+00 1.683052e+00 1.624341e+00 0.000000e+00 1.624341e+00 -2.471823e+00 0.000000e+00 0.000000e+00 0.000000e+00 0.000000e+00 -8.462089e-01 -1.459932e+00 0.000000e+00 -1.459932e+00 2.311675e+00 0.000000e+00 0.000000e+00 0.000000e+00 0.000000e+00 -2.995230e-03 -2.600050e+00 0.000000e+00 -2.600050e+00 -1.318333e-02 0.000000e+00 0.000000e+00 0.000000e+00 0.000000e+00 1.966325e-01 -4.997818e+00 0.000000e+00 -4.997818e+00 -1.212107e+02 0.000000e+00 0.000000e+00 0.000000e+00 0.000000e+00 9.896469e-01 -1.939097e+00 0.000000e+00 -1.939097e+00 -1.485323e+00 0.000000e+00 0.000000e+00 0.000000e+00 0.000000e+00 2.344877e+00 -3.787980e-01 0.000000e+00 -3.787980e-01 -2.258692e+00 0.000000e+00 0.000000e+00 0.000000e+00 0.000000e+00 -1.579924e+01 1.551410e+01 0.000000e+00 1.551410e+01 -2.363664e+00 0.000000e+00 0.000000e+00 0.000000e+00 0.000000e+00 -1.326556e+00 2.757902e-01 0.000000e+00 2.757902e-01 -1.210956e+00 0.000000e+00 0.000000e+00 0.000000e+00 0.000000e+00 -9.310767e+00 1.151793e+01 0.000000e+00 1.151793e+01 -3.387094e+00 0.000000e+00 0.000000e+00 0.000000e+00 0.000000e+00 -2.224309e+01 1.889242e+01 0.000000e+00 1.889242e+01 -5.699928e-01 0.000000e+00 0.000000e+00 0.000000e+00 0.000000e+00 -5.125317e-01 6.465619e-02 0.000000e+00 6.465619e-02 -1.636471e+00 0.000000e+00 0.000000e+00 0.000000e+00 0.000000e+00 -3.535788e+01 1.586710e+01 0.000000e+00 1.586710e+01 4.443160e+00 0.000000e+00 0.000000e+00 0.000000e+00 0.000000e+00 -3.673348e+01 -1.751307e+01 0.000000e+00 -1.751307e+01 1.239169e+01 0.000000e+00 0.000000e+00 0.000000e+00 0.000000e+00 -4.312231e+00 7.057979e+00 0.000000e+00 7.057979e+00 -3.799061e+00 0.000000e+00 0.000000e+00 0.000000e+00 0.000000e+00 -2.950002e+01 1.853088e+01 0.000000e+00 1.853088e+01 1.834967e+00 0.000000e+00 0.000000e+00 0.000000e+00 0.000000e+00 -2.809159e+01 -2.475896e+01 0.000000e+00 -2.475896e+01 5.191030e+00 0.000000e+00 0.000000e+00 0.000000e+00 0.000000e+00 -4.800592e+00 -2.751087e+01 0.000000e+00 -2.751087e+01 -2.570069e+01 0.000000e+00 0.000000e+00 0.000000e+00 0.000000e+00 -1.728663e+01 -2.583758e+01 0.000000e+00 -2.583758e+01 -4.426899e+00 0.000000e+00 0.000000e+00 0.000000e+00 0.000000e+00 1.687390e+00 -4.156812e+00 0.000000e+00 -4.156812e+00 -1.140773e+02 0.000000e+00 0.000000e+00 0.000000e+00 0.000000e+00 8.350484e+01 -1.148159e+01 0.000000e+00 -1.148159e+01 2.897005e+01 0.000000e+00 0.000000e+00 0.000000e+00 0.000000e+00 1.635965e+02 8.893921e+01 0.000000e+00 8.893921e+01 3.034409e+02 0.000000e+00 0.000000e+00 0.000000e+00 0.000000e+00 -1.505199e+00 2.891284e+00 0.000000e+00 2.891284e+00 -3.577799e+00 0.000000e+00 0.000000e+00 0.000000e+00 0.000000e+00 1.017145e+00 -1.330235e+01 0.000000e+00 -1.330235e+01 -6.535449e+01 0.000000e+00 0.000000e+00 0.000000e+00 0.000000e+00 2.490002e+01 -5.453541e+00 0.000000e+00 -5.453541e+00 -4.719571e+01 0.000000e+00 0.000000e+00 0.000000e+00 0.000000e+00 2.731683e+00 -2.184865e+00 0.000000e+00 -2.184865e+00 -7.331083e-01 0.000000e+00 0.000000e+00 0.000000e+00 0.000000e+00 1.874160e+00 -2.744102e+00 0.000000e+00 -2.744102e+00 1.457141e+00 0.000000e+00 0.000000e+00 0.000000e+00 0.000000e+00 -1.175600e+00 1.771820e+00 0.000000e+00 1.771820e+00 3.783378e+00 0.000000e+00 0.000000e+00 0.000000e+00 0.000000e+00 5.362379e+00 1.147952e+01 0.000000e+00 1.147952e+01 5.010629e+00 0.000000e+00 0.000000e+00 0.000000e+00 0.000000e+00 1.611296e+01 2.034237e+01 0.000000e+00 2.034237e+01 3.403730e+00 0.000000e+00 0.000000e+00 0.000000e+00 0.000000e+00 1.786547e+01 2.446623e+01 0.000000e+00 2.446623e+01 7.220002e-01 0.000000e+00 0.000000e+00 0.000000e+00 0.000000e+00 6.958487e+00 2.640206e+01 0.000000e+00 2.640206e+01 1.215193e+00 0.000000e+00 0.000000e+00 0.000000e+00 0.000000e+00 -6.587975e+00 2.758525e+01 0.000000e+00 2.758525e+01 6.330295e-01 0.000000e+00 0.000000e+00 0.000000e+00 0.000000e+00 -1.014291e+01 2.711639e+01 0.000000e+00 2.711639e+01 -1.798787e+00 0.000000e+00 0.000000e+00 0.000000e+00 0.000000e+00 -1.075793e+01 2.516629e+01 0.000000e+00 2.516629e+01 -5.058966e+00 0.000000e+00 0.000000e+00 0.000000e+00 0.000000e+00 -8.636957e+00 2.183437e+01 0.000000e+00 2.183437e+01 -7.784256e+00 0.000000e+00 0.000000e+00 0.000000e+00 0.000000e+00 -2.727113e+00 1.212023e+01 0.000000e+00 1.212023e+01 -1.091247e+01 0.000000e+00 0.000000e+00 0.000000e+00 0.000000e+00 -9.857209e-01 7.099301e+00 0.000000e+00 7.099301e+00 -1.072140e+01 0.000000e+00 0.000000e+00 0.000000e+00 0.000000e+00 -1.084774e+00 2.763187e+00 0.000000e+00 2.763187e+00 -8.562527e+00 0.000000e+00 0.000000e+00 0.000000e+00 0.000000e+00 -2.233157e+00 8.477140e-01 0.000000e+00 8.477140e-01 -3.127794e+00 0.000000e+00 0.000000e+00 0.000000e+00 0.000000e+00 -1.740736e+00 1.806215e+00 0.000000e+00 1.806215e+00 -1.639151e+00 0.000000e+00 0.000000e+00 0.000000e+00 0.000000e+00 1.644661e+02 9.278146e+01 0.000000e+00 9.278146e+01 1.184264e+02 0.000000e+00 0.000000e+00 0.000000e+00 0.000000e+00 8.997856e+01 5.023768e+01 0.000000e+00 5.023768e+01 4.048745e+01 0.000000e+00 0.000000e+00 0.000000e+00 0.000000e+00 1.290412e+00 -2.447047e+01 0.000000e+00 -2.447047e+01 -5.142586e+01 0.000000e+00 0.000000e+00 0.000000e+00 0.000000e+00 1.087274e+02 7.687843e+01 0.000000e+00 7.687843e+01 8.926897e+01 0.000000e+00 0.000000e+00 0.000000e+00 0.000000e+00 -3.295790e-01 -7.746781e+00 0.000000e+00 -7.746781e+00 -1.383760e+02 0.000000e+00 0.000000e+00 0.000000e+00 0.000000e+00 9.152493e+00 -4.529132e+00 0.000000e+00 -4.529132e+00 -8.263561e+01 0.000000e+00 0.000000e+00 0.000000e+00 0.000000e+00 4.581436e+01 -7.564284e+00 0.000000e+00 -7.564284e+00 -1.574684e+01 0.000000e+00 0.000000e+00 0.000000e+00 0.000000e+00 2.269741e+01 -5.559489e+00 0.000000e+00 -5.559489e+00 -5.198719e+01 0.000000e+00 0.000000e+00 0.000000e+00 0.000000e+00 6.877847e+01 -9.607393e+00 0.000000e+00 -9.607393e+00 1.223816e+01 0.000000e+00 0.000000e+00 0.000000e+00 0.000000e+00 1.137387e+02 -1.341518e+01 0.000000e+00 -1.341518e+01 6.203571e+01 0.000000e+00 0.000000e+00 0.000000e+00 0.000000e+00 1.236267e+02 4.391127e+01 0.000000e+00 4.391127e+01 3.065033e+02 0.000000e+00 0.000000e+00 0.000000e+00 0.000000e+00 3.564022e+01 1.118694e+01 0.000000e+00 1.118694e+01 -7.165817e-01 0.000000e+00 0.000000e+00 0.000000e+00 0.000000e+00 1.794930e+02 -4.090190e+01 0.000000e+00 -4.090190e+01 1.773842e+02 0.000000e+00 0.000000e+00 0.000000e+00 0.000000e+00 -3.944294e+01 1.069228e+01 0.000000e+00 1.069228e+01 7.949194e+00 0.000000e+00 0.000000e+00 0.000000e+00 0.000000e+00 2.983785e+01 1.244461e+01 0.000000e+00 1.244461e+01 1.348037e+00 0.000000e+00 0.000000e+00 0.000000e+00 0.000000e+00 -1.822326e+00 -1.521086e+01 0.000000e+00 -1.521086e+01 -7.162779e+01 0.000000e+00 0.000000e+00 0.000000e+00 0.000000e+00 -1.292564e+00 -2.894250e+01 0.000000e+00 -2.894250e+01 -3.569444e+01 0.000000e+00 0.000000e+00 0.000000e+00 0.000000e+00 7.371723e+00 -4.090017e+00 0.000000e+00 -4.090017e+00 -8.838716e+01 0.000000e+00 0.000000e+00 0.000000e+00 0.000000e+00 -3.739639e+01 -8.070008e+00 0.000000e+00 -8.070008e+00 1.528998e+01 0.000000e+00 0.000000e+00 0.000000e+00 0.000000e+00 1.153566e+02 8.246451e+01 0.000000e+00 8.246451e+01 1.842466e+02 0.000000e+00 0.000000e+00 0.000000e+00 0.000000e+00 -9.066342e+00 -2.421398e+01 0.000000e+00 -2.421398e+01 -1.361510e+01 0.000000e+00 0.000000e+00 0.000000e+00 0.000000e+00 4.247560e-01 2.696786e+00 0.000000e+00 2.696786e+00 -1.842716e+00 0.000000e+00 0.000000e+00 0.000000e+00 0.000000e+00 2.780841e+01 -5.665082e+00 0.000000e+00 -5.665082e+00 -4.252161e+01 0.000000e+00 0.000000e+00 0.000000e+00 0.000000e+00 -7.976527e-01 2.612791e+00 0.000000e+00 2.612791e+00 -1.200493e+00 0.000000e+00 0.000000e+00 0.000000e+00 0.000000e+00 -1.654412e+00 6.968256e-01 0.000000e+00 6.968256e-01 -5.051303e+00 0.000000e+00 0.000000e+00 0.000000e+00 0.000000e+00 -5.463554e+00 1.726328e+01 0.000000e+00 1.726328e+01 -9.679633e+00 0.000000e+00 0.000000e+00 0.000000e+00 0.000000e+00 -1.424973e+01 2.119766e+01 0.000000e+00 2.119766e+01 -3.530750e+00 0.000000e+00 0.000000e+00 0.000000e+00 0.000000e+00 -4.342447e-01 2.709518e+01 0.000000e+00 2.709518e+01 1.504307e+00 0.000000e+00 0.000000e+00 0.000000e+00 0.000000e+00 1.368379e+01 2.564013e+01 0.000000e+00 2.564013e+01 6.580180e-01 0.000000e+00 0.000000e+00 0.000000e+00 0.000000e+00 1.892896e+01 2.242261e+01 0.000000e+00 2.242261e+01 1.793575e+00 0.000000e+00 0.000000e+00 0.000000e+00 0.000000e+00 1.083942e+00 6.566644e+00 0.000000e+00 6.566644e+00 4.791224e+00 0.000000e+00 0.000000e+00 0.000000e+00 0.000000e+00 -7.270684e-01 -6.362871e+00 0.000000e+00 -6.362871e+00 -1.292999e+02 0.000000e+00 0.000000e+00 0.000000e+00 0.000000e+00 1.123683e+01 -4.785332e+00 0.000000e+00 -4.785332e+00 -7.699322e+01 0.000000e+00 0.000000e+00 0.000000e+00 0.000000e+00 3.018900e+01 -6.214559e+00 0.000000e+00 -6.214559e+00 -3.796924e+01 0.000000e+00 0.000000e+00 0.000000e+00 0.000000e+00 4.912357e+01 -8.058216e+00 0.000000e+00 -8.058216e+00 -1.151959e+01 0.000000e+00 0.000000e+00 0.000000e+00 0.000000e+00 7.321183e+01 -1.047840e+01 0.000000e+00 -1.047840e+01 1.756042e+01 0.000000e+00 0.000000e+00 0.000000e+00 0.000000e+00 1.186682e+02 -1.621644e+01 0.000000e+00 -1.621644e+01 6.971491e+01 0.000000e+00 0.000000e+00 0.000000e+00 0.000000e+00 1.821131e+02 -4.641590e+01 0.000000e+00 -4.641590e+01 2.140996e+02 0.000000e+00 0.000000e+00 0.000000e+00 0.000000e+00 -4.127528e+01 2.301912e+00 0.000000e+00 2.301912e+00 1.219382e+01 0.000000e+00 0.000000e+00 0.000000e+00 0.000000e+00 1.010017e+00 -1.928422e+01 0.000000e+00 -1.928422e+01 -7.288172e+01 0.000000e+00 0.000000e+00 0.000000e+00 0.000000e+00 1.733652e+00 -2.623135e+01 0.000000e+00 -2.623135e+01 -5.584677e+01 0.000000e+00 0.000000e+00 0.000000e+00 0.000000e+00 -4.807033e-01 -7.826134e+00 0.000000e+00 -7.826134e+00 -9.462288e+01 0.000000e+00 0.000000e+00 0.000000e+00 0.000000e+00 4.392002e+00 -2.464691e+01 0.000000e+00 -2.464691e+01 -6.431513e+01 0.000000e+00 0.000000e+00 0.000000e+00 0.000000e+00 3.152426e+00 -1.668503e+01 0.000000e+00 -1.668503e+01 -8.419653e+01 0.000000e+00 0.000000e+00 0.000000e+00 0.000000e+00 4.367177e+00 -5.181202e+00 0.000000e+00 -5.181202e+00 -1.049720e+02 0.000000e+00 0.000000e+00 0.000000e+00 0.000000e+00 3.354202e+01 -1.068676e+01 0.000000e+00 -1.068676e+01 -3.115457e+01 0.000000e+00 0.000000e+00 0.000000e+00 0.000000e+00 1.192085e+02 -2.779893e+01 0.000000e+00 -2.779893e+01 8.626890e+01 0.000000e+00 0.000000e+00 0.000000e+00 0.000000e+00 5.308387e+01 -1.347852e+01 0.000000e+00 -1.347852e+01 -4.137365e+00 0.000000e+00 0.000000e+00 0.000000e+00 0.000000e+00 -2.614337e+01 1.103702e+01 0.000000e+00 1.103702e+01 1.797377e+01 0.000000e+00 0.000000e+00 0.000000e+00 0.000000e+00 1.004643e+02 -2.179780e+01 0.000000e+00 -2.179780e+01 5.589922e+01 0.000000e+00 0.000000e+00 0.000000e+00 0.000000e+00 4.645827e+01 2.125905e+01 0.000000e+00 2.125905e+01 5.047266e+00 0.000000e+00 0.000000e+00 0.000000e+00 0.000000e+00 2.090282e+01 -9.176752e+00 0.000000e+00 -9.176752e+00 -5.333497e+01 0.000000e+00 0.000000e+00 0.000000e+00 0.000000e+00 5.357773e+01 2.570707e+01 0.000000e+00 2.570707e+01 1.006014e+01 0.000000e+00 0.000000e+00 0.000000e+00 0.000000e+00 2.536972e+01 1.548486e+01 0.000000e+00 1.548486e+01 2.553017e+00 0.000000e+00 0.000000e+00 0.000000e+00 0.000000e+00 3.643620e+01 1.589080e+01 0.000000e+00 1.589080e+01 2.106047e-01 0.000000e+00 0.000000e+00 0.000000e+00 0.000000e+00 9.553088e+01 3.453005e+01 0.000000e+00 3.453005e+01 2.592949e+02 0.000000e+00 0.000000e+00 0.000000e+00 0.000000e+00 3.295847e+01 1.410696e+01 0.000000e+00 1.410696e+01 -1.022571e-01 0.000000e+00 0.000000e+00 0.000000e+00 0.000000e+00 6.260449e+01 3.264661e+01 0.000000e+00 3.264661e+01 1.855568e+01 0.000000e+00 0.000000e+00 0.000000e+00 0.000000e+00 1.127436e+02 -1.404169e+01 0.000000e+00 -1.404169e+01 2.588872e+02 0.000000e+00 0.000000e+00 0.000000e+00 0.000000e+00 4.128353e+01 1.810151e+01 0.000000e+00 1.810151e+01 2.065198e+00 0.000000e+00 0.000000e+00 0.000000e+00 0.000000e+00 8.084643e+01 6.601014e+01 0.000000e+00 6.601014e+01 1.494430e+02 0.000000e+00 0.000000e+00 0.000000e+00 0.000000e+00 -2.750472e+01 -1.482452e+01 0.000000e+00 -1.482452e+01 2.402924e+01 0.000000e+00 0.000000e+00 0.000000e+00 0.000000e+00 -9.750569e+00 1.716186e+01 0.000000e+00 1.716186e+01 -5.357752e+00 0.000000e+00 0.000000e+00 0.000000e+00 0.000000e+00 -2.348806e+01 1.840353e+01 0.000000e+00 1.840353e+01 1.082336e+01 0.000000e+00 0.000000e+00 0.000000e+00 0.000000e+00 9.526657e-01 -3.336039e+01 0.000000e+00 -3.336039e+01 -3.535872e+01 0.000000e+00 0.000000e+00 0.000000e+00 0.000000e+00 7.995290e+00 -6.302987e+00 0.000000e+00 -6.302987e+00 -8.585236e+01 0.000000e+00 0.000000e+00 0.000000e+00 0.000000e+00 1.414329e+01 -7.358903e+00 0.000000e+00 -7.358903e+00 -6.869656e+01 0.000000e+00 0.000000e+00 0.000000e+00 0.000000e+00 -1.770003e+01 -3.272765e+01 0.000000e+00 -3.272765e+01 2.899369e+00 0.000000e+00 0.000000e+00 0.000000e+00 0.000000e+00 2.044940e+01 1.873755e+01 0.000000e+00 1.873755e+01 2.847770e+00 0.000000e+00 0.000000e+00 0.000000e+00 0.000000e+00 6.877159e+01 4.385355e+01 0.000000e+00 4.385355e+01 3.971305e+01 0.000000e+00 0.000000e+00 0.000000e+00 0.000000e+00 -5.677262e+00 1.243997e+01 0.000000e+00 1.243997e+01 -6.707983e+00 0.000000e+00 0.000000e+00 0.000000e+00 0.000000e+00 -5.531607e+00 2.721491e+01 0.000000e+00 2.721491e+01 3.043904e+00 0.000000e+00 0.000000e+00 0.000000e+00 0.000000e+00 1.155240e+01 2.625538e+01 0.000000e+00 2.625538e+01 2.489841e+00 0.000000e+00 0.000000e+00 0.000000e+00 0.000000e+00 -4.573422e+00 -3.462857e+01 0.000000e+00 -3.462857e+01 -2.106836e+01 0.000000e+00 0.000000e+00 0.000000e+00 0.000000e+00 -1.017039e+01 -3.244183e+01 0.000000e+00 -3.244183e+01 -1.011516e+01 0.000000e+00 0.000000e+00 0.000000e+00 0.000000e+00 2.086601e+01 2.251796e+01 0.000000e+00 2.251796e+01 8.829600e-01 0.000000e+00 0.000000e+00 0.000000e+00 0.000000e+00 1.911096e+01 2.456661e+01 0.000000e+00 2.456661e+01 1.563582e+00 0.000000e+00 0.000000e+00 0.000000e+00 0.000000e+00 2.723992e+00 2.710235e+01 0.000000e+00 2.710235e+01 3.143533e+00 0.000000e+00 0.000000e+00 0.000000e+00 0.000000e+00 -1.193677e+01 2.656502e+01 0.000000e+00 2.656502e+01 1.397921e+00 0.000000e+00 0.000000e+00 0.000000e+00 0.000000e+00 -1.497577e+01 2.424087e+01 0.000000e+00 2.424087e+01 -1.279316e+00 0.000000e+00 0.000000e+00 0.000000e+00 0.000000e+00 -2.769150e+00 7.691514e+00 0.000000e+00 7.691514e+00 -7.407735e+00 0.000000e+00 0.000000e+00 0.000000e+00 0.000000e+00 -1.336247e+00 4.116829e+00 0.000000e+00 4.116829e+00 -7.019307e+00 0.000000e+00 0.000000e+00 0.000000e+00 0.000000e+00 5.986299e+00 -2.127305e+01 0.000000e+00 -2.127305e+01 -7.459256e+01 0.000000e+00 0.000000e+00 0.000000e+00 0.000000e+00 4.968191e+00 -3.176555e+01 0.000000e+00 -3.176555e+01 -4.566850e+01 0.000000e+00 0.000000e+00 0.000000e+00 0.000000e+00 -2.315570e+01 -2.698580e+01 0.000000e+00 -2.698580e+01 1.695516e+01 0.000000e+00 0.000000e+00 0.000000e+00 0.000000e+00 5.211648e+00 -5.435986e+00 0.000000e+00 -5.435986e+00 -9.697682e+01 0.000000e+00 0.000000e+00 0.000000e+00 0.000000e+00 7.290465e+01 -1.645290e+01 0.000000e+00 -1.645290e+01 2.079635e+01 0.000000e+00 0.000000e+00 0.000000e+00 0.000000e+00 3.063130e+01 -9.913184e+00 0.000000e+00 -9.913184e+00 -3.621367e+01 0.000000e+00 0.000000e+00 0.000000e+00 0.000000e+00 1.855571e+01 -7.808962e+00 0.000000e+00 -7.808962e+00 -5.912697e+01 0.000000e+00 0.000000e+00 0.000000e+00 0.000000e+00 4.309138e+01 -1.099449e+01 0.000000e+00 -1.099449e+01 -1.824092e+01 0.000000e+00 0.000000e+00 0.000000e+00 0.000000e+00 9.279223e+01 -2.117796e+01 0.000000e+00 -2.117796e+01 4.810569e+01 0.000000e+00 0.000000e+00 0.000000e+00 0.000000e+00 1.126010e+02 -2.483143e+01 0.000000e+00 -2.483143e+01 7.393335e+01 0.000000e+00 0.000000e+00 0.000000e+00 0.000000e+00 1.341354e+02 -3.821855e+01 0.000000e+00 -3.821855e+01 2.280064e+02 0.000000e+00 0.000000e+00 0.000000e+00 0.000000e+00 1.324758e+02 -3.499424e+01 0.000000e+00 -3.499424e+01 1.162433e+02 0.000000e+00 0.000000e+00 0.000000e+00 0.000000e+00 6.098965e+01 -1.362429e+01 0.000000e+00 -1.362429e+01 5.762550e+00 0.000000e+00 0.000000e+00 0.000000e+00 0.000000e+00 8.826075e+01 -1.928750e+01 0.000000e+00 -1.928750e+01 4.051124e+01 0.000000e+00 0.000000e+00 0.000000e+00 0.000000e+00 4.003471e+01 -1.044760e+01 0.000000e+00 -1.044760e+01 -2.216923e+01 0.000000e+00 0.000000e+00 0.000000e+00 0.000000e+00 1.449743e+02 -3.722702e+01 0.000000e+00 -3.722702e+01 1.357024e+02 0.000000e+00 0.000000e+00 0.000000e+00 0.000000e+00 6.698982e+00 -5.701390e+00 0.000000e+00 -5.701390e+00 -9.150977e+01 0.000000e+00 0.000000e+00 0.000000e+00 0.000000e+00 7.433276e+01 6.185697e+01 0.000000e+00 6.185697e+01 9.580253e+01 0.000000e+00 0.000000e+00 0.000000e+00 0.000000e+00 1.256943e+02 -3.181746e+01 0.000000e+00 -3.181746e+01 1.010240e+02 0.000000e+00 0.000000e+00 0.000000e+00 0.000000e+00 -2.179098e+01 2.217651e+01 0.000000e+00 2.217651e+01 5.357052e+00 0.000000e+00 0.000000e+00 0.000000e+00 0.000000e+00 9.893931e+00 -7.372084e+00 0.000000e+00 -7.372084e+00 -7.913574e+01 0.000000e+00 0.000000e+00 0.000000e+00 0.000000e+00 8.357477e+01 -1.768688e+01 0.000000e+00 -1.768688e+01 3.323579e+01 0.000000e+00 0.000000e+00 0.000000e+00 0.000000e+00 -1.251076e+00 1.251910e+00 0.000000e+00 1.251910e+00 -4.635779e+00 0.000000e+00 0.000000e+00 0.000000e+00 0.000000e+00 1.091537e+02 -2.069183e+01 0.000000e+00 -2.069183e+01 6.374814e+01 0.000000e+00 0.000000e+00 0.000000e+00 0.000000e+00 2.333398e+01 1.955916e+01 0.000000e+00 1.955916e+01 1.626724e+00 0.000000e+00 0.000000e+00 0.000000e+00 0.000000e+00 4.919673e+01 -1.290197e+01 0.000000e+00 -1.290197e+01 -9.022485e+00 0.000000e+00 0.000000e+00 0.000000e+00 0.000000e+00 7.800550e+01 -1.710115e+01 0.000000e+00 -1.710115e+01 2.684177e+01 0.000000e+00 0.000000e+00 0.000000e+00 0.000000e+00 -1.219685e+01 2.584690e+01 0.000000e+00 2.584690e+01 4.499327e+00 0.000000e+00 0.000000e+00 0.000000e+00 0.000000e+00 1.637909e+01 -6.774565e+00 0.000000e+00 -6.774565e+00 -6.402971e+01 0.000000e+00 0.000000e+00 0.000000e+00 0.000000e+00 3.875650e+00 -4.755720e+00 0.000000e+00 -4.755720e+00 -1.121918e+02 0.000000e+00 0.000000e+00 0.000000e+00 0.000000e+00 2.600312e+01 -8.511987e+00 0.000000e+00 -8.511987e+00 -4.444083e+01 0.000000e+00 0.000000e+00 0.000000e+00 0.000000e+00 1.233614e+01 -7.779420e+00 0.000000e+00 -7.779420e+00 -7.387193e+01 0.000000e+00 0.000000e+00 0.000000e+00 0.000000e+00 -2.800698e+01 -7.112619e-01 0.000000e+00 -7.112619e-01 2.367203e+01 0.000000e+00 0.000000e+00 0.000000e+00 0.000000e+00 6.562174e+01 -1.364968e+01 0.000000e+00 -1.364968e+01 1.006327e+01 0.000000e+00 0.000000e+00 0.000000e+00 0.000000e+00 1.475450e+02 -4.257074e+01 0.000000e+00 -4.257074e+01 1.640131e+02 0.000000e+00 0.000000e+00 0.000000e+00 0.000000e+00 5.871740e+01 4.929920e+01 0.000000e+00 4.929920e+01 7.052210e+01 0.000000e+00 0.000000e+00 0.000000e+00 0.000000e+00 4.419761e+00 -5.690312e+00 0.000000e+00 -5.690312e+00 -1.332852e+02 0.000000e+00 0.000000e+00 0.000000e+00 0.000000e+00 2.328660e+01 -8.012538e+00 0.000000e+00 -8.012538e+00 -4.893806e+01 0.000000e+00 0.000000e+00 0.000000e+00 0.000000e+00 3.043779e+00 -5.185868e+00 0.000000e+00 -5.185868e+00 -1.195945e+02 0.000000e+00 0.000000e+00 0.000000e+00 0.000000e+00 4.158578e+00 -1.629614e+01 0.000000e+00 -1.629614e+01 -9.257209e+01 0.000000e+00 0.000000e+00 0.000000e+00 0.000000e+00 2.989198e+00 -5.704609e+00 0.000000e+00 -5.704609e+00 -1.250385e+02 0.000000e+00 0.000000e+00 0.000000e+00 0.000000e+00 5.741023e+01 -1.369523e+01 0.000000e+00 -1.369523e+01 8.433088e-01 0.000000e+00 0.000000e+00 0.000000e+00 0.000000e+00 3.724203e+01 -1.095038e+01 0.000000e+00 -1.095038e+01 -2.617396e+01 0.000000e+00 0.000000e+00 0.000000e+00 0.000000e+00 -1.959469e+01 2.353536e+01 0.000000e+00 2.353536e+01 1.702070e+00 0.000000e+00 0.000000e+00 0.000000e+00 0.000000e+00 5.799045e+00 -1.304531e+01 0.000000e+00 -1.304531e+01 -1.010578e+02 0.000000e+00 0.000000e+00 0.000000e+00 0.000000e+00 7.663257e+00 -2.778806e+01 0.000000e+00 -2.778806e+01 -5.593024e+01 0.000000e+00 0.000000e+00 0.000000e+00 0.000000e+00 -2.524591e+00 -8.865105e+00 0.000000e+00 -8.865105e+00 -1.118692e+02 0.000000e+00 0.000000e+00 0.000000e+00 0.000000e+00 2.129466e+00 -1.193855e+01 0.000000e+00 -1.193855e+01 -9.842105e+01 0.000000e+00 0.000000e+00 0.000000e+00 0.000000e+00 1.154041e+00 -6.225369e+00 0.000000e+00 -6.225369e+00 -1.107857e+02 0.000000e+00 0.000000e+00 0.000000e+00 0.000000e+00 3.632522e+00 -8.625705e+00 0.000000e+00 -8.625705e+00 -1.030296e+02 0.000000e+00 0.000000e+00 0.000000e+00 0.000000e+00 1.543652e+00 -3.178383e+00 0.000000e+00 -3.178383e+00 -1.191741e+02 0.000000e+00 0.000000e+00 0.000000e+00 0.000000e+00 5.470300e+00 -1.292358e+01 0.000000e+00 -1.292358e+01 -8.962102e+01 0.000000e+00 0.000000e+00 0.000000e+00 0.000000e+00 3.767485e+00 -5.987760e+00 0.000000e+00 -5.987760e+00 -1.084124e+02 0.000000e+00 0.000000e+00 0.000000e+00 0.000000e+00 -2.771360e+00 1.517867e+00 0.000000e+00 1.517867e+00 -1.315770e+02 0.000000e+00 0.000000e+00 0.000000e+00 0.000000e+00 5.786601e+00 -2.998283e+00 0.000000e+00 -2.998283e+00 -1.345259e+02 0.000000e+00 0.000000e+00 0.000000e+00 0.000000e+00 6.226298e+00 -1.749317e+01 0.000000e+00 -1.749317e+01 -8.286506e+01 0.000000e+00 0.000000e+00 0.000000e+00 0.000000e+00 5.005125e+00 -4.574067e+00 0.000000e+00 -4.574067e+00 -1.219262e+02 0.000000e+00 0.000000e+00 0.000000e+00 0.000000e+00 2.876082e+01 -8.707172e+00 0.000000e+00 -8.707172e+00 -4.034483e+01 0.000000e+00 0.000000e+00 0.000000e+00 0.000000e+00 4.608990e+01 -1.195562e+01 0.000000e+00 -1.195562e+01 -1.365699e+01 0.000000e+00 0.000000e+00 0.000000e+00 0.000000e+00 -1.169853e+01 2.009192e+01 0.000000e+00 2.009192e+01 2.057069e+01 0.000000e+00 0.000000e+00 0.000000e+00 0.000000e+00 2.378321e+01 -1.138509e+01 0.000000e+00 -1.138509e+01 -4.725725e+01 0.000000e+00 0.000000e+00 0.000000e+00 0.000000e+00 6.811898e+01 -1.530577e+01 0.000000e+00 -1.530577e+01 1.488702e+01 0.000000e+00 0.000000e+00 0.000000e+00 0.000000e+00 1.439893e+02 -4.364130e+01 0.000000e+00 -4.364130e+01 1.930095e+02 0.000000e+00 0.000000e+00 0.000000e+00 0.000000e+00 2.837937e+01 1.697527e+01 0.000000e+00 1.697527e+01 1.074263e+00 0.000000e+00 0.000000e+00 0.000000e+00 0.000000e+00 3.906984e+00 -3.791313e+01 0.000000e+00 -3.791313e+01 -2.625952e+01 0.000000e+00 0.000000e+00 0.000000e+00 0.000000e+00 3.802829e+01 2.457863e+01 0.000000e+00 2.457863e+01 6.659754e+00 0.000000e+00 0.000000e+00 0.000000e+00 0.000000e+00 7.661985e+01 1.549734e+01 0.000000e+00 1.549734e+01 2.219670e+02 0.000000e+00 0.000000e+00 0.000000e+00 0.000000e+00 -1.023966e+01 2.456177e+01 0.000000e+00 2.456177e+01 1.040641e+01 0.000000e+00 0.000000e+00 0.000000e+00 0.000000e+00 -1.853015e+00 -3.899540e+01 0.000000e+00 -3.899540e+01 -1.490530e+01 0.000000e+00 0.000000e+00 0.000000e+00 0.000000e+00 1.143402e+02 -4.036576e+01 0.000000e+00 -4.036576e+01 1.296948e+02 0.000000e+00 0.000000e+00 0.000000e+00 0.000000e+00 7.864876e+01 4.960950e+01 0.000000e+00 4.960950e+01 2.034238e+02 0.000000e+00 0.000000e+00 0.000000e+00 0.000000e+00 2.533313e+01 2.113362e+01 0.000000e+00 2.113362e+01 9.165432e-01 0.000000e+00 0.000000e+00 0.000000e+00 0.000000e+00 4.848145e+00 -6.893828e+00 0.000000e+00 -6.893828e+00 -9.903272e+01 0.000000e+00 0.000000e+00 0.000000e+00 0.000000e+00 5.932786e+00 -7.740094e+00 0.000000e+00 -7.740094e+00 -1.140911e+02 0.000000e+00 0.000000e+00 0.000000e+00 0.000000e+00 5.239412e+01 3.898729e+01 0.000000e+00 3.898729e+01 3.512111e+01 0.000000e+00 0.000000e+00 0.000000e+00 0.000000e+00 5.503002e+01 4.316421e+01 0.000000e+00 4.316421e+01 1.384102e+02 0.000000e+00 0.000000e+00 0.000000e+00 0.000000e+00 5.620176e+00 -9.565080e+00 0.000000e+00 -9.565080e+00 -9.523483e+01 0.000000e+00 0.000000e+00 0.000000e+00 0.000000e+00 -9.143619e+00 -3.763947e+01 0.000000e+00 -3.763947e+01 -4.257416e+00 0.000000e+00 0.000000e+00 0.000000e+00 0.000000e+00 1.653467e+01 2.639992e+01 0.000000e+00 2.639992e+01 4.307110e+00 0.000000e+00 0.000000e+00 0.000000e+00 0.000000e+00 8.042453e+00 -1.233384e+01 0.000000e+00 -1.233384e+01 -8.282144e+01 0.000000e+00 0.000000e+00 0.000000e+00 0.000000e+00 4.076884e+01 2.839183e+01 0.000000e+00 2.839183e+01 1.302776e+01 0.000000e+00 0.000000e+00 0.000000e+00 0.000000e+00 4.269571e+01 -1.493266e+01 0.000000e+00 -1.493266e+01 -1.637078e+01 0.000000e+00 0.000000e+00 0.000000e+00 0.000000e+00 4.644381e+01 4.354142e+01 0.000000e+00 4.354142e+01 1.041077e+02 0.000000e+00 0.000000e+00 0.000000e+00 0.000000e+00 2.753189e+01 -1.226653e+01 0.000000e+00 -1.226653e+01 -4.060256e+01 0.000000e+00 0.000000e+00 0.000000e+00 0.000000e+00 -1.590830e+01 1.015245e+01 0.000000e+00 1.015245e+01 3.080378e+01 0.000000e+00 0.000000e+00 0.000000e+00 0.000000e+00 1.024365e+02 -3.274879e+01 0.000000e+00 -3.274879e+01 8.134327e+01 0.000000e+00 0.000000e+00 0.000000e+00 0.000000e+00 6.176468e+01 3.450837e+01 0.000000e+00 3.450837e+01 1.774761e+02 0.000000e+00 0.000000e+00 0.000000e+00 0.000000e+00 8.538639e+01 -2.615300e+01 0.000000e+00 -2.615300e+01 4.573131e+01 0.000000e+00 0.000000e+00 0.000000e+00 0.000000e+00 7.098494e+01 -2.257087e+01 0.000000e+00 -2.257087e+01 2.522829e+01 0.000000e+00 0.000000e+00 0.000000e+00 0.000000e+00 8.989552e+01 -1.754661e+01 0.000000e+00 -1.754661e+01 2.160329e+02 0.000000e+00 0.000000e+00 0.000000e+00 0.000000e+00 3.440869e+01 -1.532117e+01 0.000000e+00 -1.532117e+01 -2.775444e+01 0.000000e+00 0.000000e+00 0.000000e+00 0.000000e+00 4.607996e+01 3.310322e+01 0.000000e+00 3.310322e+01 2.237478e+01 0.000000e+00 0.000000e+00 0.000000e+00 0.000000e+00 2.540858e+01 2.378650e+01 0.000000e+00 2.378650e+01 2.687412e+00 0.000000e+00 0.000000e+00 0.000000e+00 0.000000e+00 3.876351e+01 -1.496670e+01 0.000000e+00 -1.496670e+01 -2.166114e+01 0.000000e+00 0.000000e+00 0.000000e+00 0.000000e+00 4.401974e+01 4.054718e+01 0.000000e+00 4.054718e+01 5.712311e+01 0.000000e+00 0.000000e+00 0.000000e+00 0.000000e+00 3.086500e+01 1.917545e+01 0.000000e+00 1.917545e+01 8.103622e-01 0.000000e+00 0.000000e+00 0.000000e+00 0.000000e+00 1.247184e+02 -4.156348e+01 0.000000e+00 -4.156348e+01 1.492982e+02 0.000000e+00 0.000000e+00 0.000000e+00 0.000000e+00 3.431658e+01 2.113460e+01 0.000000e+00 2.113460e+01 2.437401e+00 0.000000e+00 0.000000e+00 0.000000e+00 0.000000e+00 6.464046e+00 -8.044768e+00 0.000000e+00 -8.044768e+00 -9.045990e+01 0.000000e+00 0.000000e+00 0.000000e+00 0.000000e+00 1.095322e+02 -3.856394e+01 0.000000e+00 -3.856394e+01 1.100584e+02 0.000000e+00 0.000000e+00 0.000000e+00 0.000000e+00 5.786794e+01 -1.845673e+01 0.000000e+00 -1.845673e+01 4.630074e+00 0.000000e+00 0.000000e+00 0.000000e+00 0.000000e+00 8.247954e+01 -2.320700e+01 0.000000e+00 -2.320700e+01 3.798957e+01 0.000000e+00 0.000000e+00 0.000000e+00 0.000000e+00 3.050363e+01 -1.450866e+01 0.000000e+00 -1.450866e+01 -3.367011e+01 0.000000e+00 0.000000e+00 0.000000e+00 0.000000e+00 1.268811e+01 -1.035328e+01 0.000000e+00 -1.035328e+01 -6.922225e+01 0.000000e+00 0.000000e+00 0.000000e+00 0.000000e+00 4.861356e+01 -1.814017e+01 0.000000e+00 -1.814017e+01 -6.059502e+00 0.000000e+00 0.000000e+00 0.000000e+00 0.000000e+00 6.244566e+00 -2.412960e+00 0.000000e+00 -2.412960e+00 -1.462051e+02 0.000000e+00 0.000000e+00 0.000000e+00 0.000000e+00 8.623018e+00 -1.723700e+01 0.000000e+00 -1.723700e+01 -7.566461e+01 0.000000e+00 0.000000e+00 0.000000e+00 0.000000e+00 2.075464e+01 -1.344964e+01 0.000000e+00 -1.344964e+01 -5.162552e+01 0.000000e+00 0.000000e+00 0.000000e+00 0.000000e+00 1.580588e+01 -9.221254e+00 0.000000e+00 -9.221254e+00 -6.383060e+01 0.000000e+00 0.000000e+00 0.000000e+00 0.000000e+00 -1.895292e+01 -5.017877e+00 0.000000e+00 -5.017877e+00 3.624618e+01 0.000000e+00 0.000000e+00 0.000000e+00 0.000000e+00 5.318215e+01 -1.873580e+01 0.000000e+00 -1.873580e+01 -1.845260e-01 0.000000e+00 0.000000e+00 0.000000e+00 0.000000e+00 6.814258e+00 2.729528e+01 0.000000e+00 2.729528e+01 5.533773e+00 0.000000e+00 0.000000e+00 0.000000e+00 0.000000e+00 1.107749e+02 -3.526646e+01 0.000000e+00 -3.526646e+01 9.420009e+01 0.000000e+00 0.000000e+00 0.000000e+00 0.000000e+00 9.119907e+00 -9.297815e+00 0.000000e+00 -9.297815e+00 -8.302028e+01 0.000000e+00 0.000000e+00 0.000000e+00 0.000000e+00 6.162153e+01 -1.938855e+01 0.000000e+00 -1.938855e+01 1.074689e+01 0.000000e+00 0.000000e+00 0.000000e+00 0.000000e+00 -1.805013e+01 -2.035598e+01 0.000000e+00 -2.035598e+01 3.403883e+01 0.000000e+00 0.000000e+00 0.000000e+00 0.000000e+00 9.104432e+00 -2.270619e+01 0.000000e+00 -2.270619e+01 -6.635768e+01 0.000000e+00 0.000000e+00 0.000000e+00 0.000000e+00 4.509979e+01 -1.678540e+01 0.000000e+00 -1.678540e+01 -1.163622e+01 0.000000e+00 0.000000e+00 0.000000e+00 0.000000e+00 -1.088498e+01 -1.060629e+01 0.000000e+00 -1.060629e+01 4.951966e+01 0.000000e+00 0.000000e+00 0.000000e+00 0.000000e+00 1.839678e+01 -1.137729e+01 0.000000e+00 -1.137729e+01 -5.765037e+01 0.000000e+00 0.000000e+00 0.000000e+00 0.000000e+00 -1.396782e+01 -3.608833e+01 0.000000e+00 -3.608833e+01 1.188494e+01 0.000000e+00 0.000000e+00 0.000000e+00 0.000000e+00 6.628065e+01 -2.153109e+01 0.000000e+00 -2.153109e+01 1.817895e+01 0.000000e+00 0.000000e+00 0.000000e+00 0.000000e+00 1.007285e+02 -2.849044e+01 0.000000e+00 -2.849044e+01 6.698029e+01 0.000000e+00 0.000000e+00 0.000000e+00 0.000000e+00 8.674072e+00 -3.424361e+01 0.000000e+00 -3.424361e+01 -3.763677e+01 0.000000e+00 0.000000e+00 0.000000e+00 0.000000e+00 2.343784e+01 -1.540250e+01 0.000000e+00 -1.540250e+01 -4.461016e+01 0.000000e+00 0.000000e+00 0.000000e+00 0.000000e+00 2.218498e+00 -4.143919e+01 0.000000e+00 -4.143919e+01 -6.958936e+00 0.000000e+00 0.000000e+00 0.000000e+00 0.000000e+00 1.044559e+01 -1.128453e+01 0.000000e+00 -1.128453e+01 -7.526108e+01 0.000000e+00 0.000000e+00 0.000000e+00 0.000000e+00 2.782894e+01 2.896502e+01 0.000000e+00 2.896502e+01 1.416020e+01 0.000000e+00 0.000000e+00 0.000000e+00 0.000000e+00 3.473121e+01 3.542289e+01 0.000000e+00 3.542289e+01 4.064419e+01 0.000000e+00 0.000000e+00 0.000000e+00 0.000000e+00 7.656575e+01 -2.301373e+01 0.000000e+00 -2.301373e+01 3.200470e+01 0.000000e+00 0.000000e+00 0.000000e+00 0.000000e+00 -1.372475e+01 -3.152564e+01 0.000000e+00 -3.152564e+01 2.741265e+01 0.000000e+00 0.000000e+00 0.000000e+00 0.000000e+00 2.992051e+01 3.198695e+01 0.000000e+00 3.198695e+01 2.550188e+01 0.000000e+00 0.000000e+00 0.000000e+00 0.000000e+00 1.102935e+01 -1.608394e+01 0.000000e+00 -1.608394e+01 -7.007020e+01 0.000000e+00 0.000000e+00 0.000000e+00 0.000000e+00 -3.546103e+00 2.686260e+01 0.000000e+00 2.686260e+01 5.740924e+00 0.000000e+00 0.000000e+00 0.000000e+00 0.000000e+00 6.366468e+01 -2.764640e+01 0.000000e+00 -2.764640e+01 2.388625e+01 0.000000e+00 0.000000e+00 0.000000e+00 0.000000e+00 1.156636e+01 -2.170361e+01 0.000000e+00 -2.170361e+01 -6.051361e+01 0.000000e+00 0.000000e+00 0.000000e+00 0.000000e+00 1.214646e+01 -2.885631e+01 0.000000e+00 -2.885631e+01 -4.744329e+01 0.000000e+00 0.000000e+00 0.000000e+00 0.000000e+00 1.031299e+01 2.774123e+01 0.000000e+00 2.774123e+01 9.519791e+00 0.000000e+00 0.000000e+00 0.000000e+00 0.000000e+00 8.960357e+01 -2.909801e+01 0.000000e+00 -2.909801e+01 5.702179e+01 0.000000e+00 0.000000e+00 0.000000e+00 0.000000e+00 -4.176127e-01 2.156425e+01 0.000000e+00 2.156425e+01 3.365092e+01 0.000000e+00 0.000000e+00 0.000000e+00 0.000000e+00 2.047183e+00 2.620792e+01 0.000000e+00 2.620792e+01 1.751958e+01 0.000000e+00 0.000000e+00 0.000000e+00 0.000000e+00 1.730722e+00 2.742194e+01 0.000000e+00 2.742194e+01 8.961310e+00 0.000000e+00 0.000000e+00 0.000000e+00 0.000000e+00 8.991474e+01 -3.531695e+01 0.000000e+00 -3.531695e+01 7.331049e+01 0.000000e+00 0.000000e+00 0.000000e+00 0.000000e+00 -7.748955e+00 7.491426e+00 0.000000e+00 7.491426e+00 4.652358e+01 0.000000e+00 0.000000e+00 0.000000e+00 0.000000e+00 -8.664170e+00 -2.577935e+01 0.000000e+00 -2.577935e+01 4.408010e+01 0.000000e+00 0.000000e+00 0.000000e+00 0.000000e+00 6.946724e+01 -2.851263e+01 0.000000e+00 -2.851263e+01 3.184271e+01 0.000000e+00 0.000000e+00 0.000000e+00 0.000000e+00 1.723995e+01 -1.513472e+01 0.000000e+00 -1.513472e+01 -5.754270e+01 0.000000e+00 0.000000e+00 0.000000e+00 0.000000e+00 3.090898e+01 3.269776e+01 0.000000e+00 3.269776e+01 8.414264e+01 0.000000e+00 0.000000e+00 0.000000e+00 0.000000e+00 6.327326e+01 5.086979e-01 0.000000e+00 5.086979e-01 1.860355e+02 0.000000e+00 0.000000e+00 0.000000e+00 0.000000e+00 7.776894e+01 -3.258464e+01 0.000000e+00 -3.258464e+01 5.065902e+01 0.000000e+00 0.000000e+00 0.000000e+00 0.000000e+00 1.089016e+02 -3.473563e+01 0.000000e+00 -3.473563e+01 1.985116e+02 0.000000e+00 0.000000e+00 0.000000e+00 0.000000e+00 4.329984e+01 -2.202071e+01 0.000000e+00 -2.202071e+01 -9.105958e+00 0.000000e+00 0.000000e+00 0.000000e+00 0.000000e+00 1.140304e+02 -4.060896e+01 0.000000e+00 -4.060896e+01 1.734305e+02 0.000000e+00 0.000000e+00 0.000000e+00 0.000000e+00 2.217891e+01 2.730963e+01 0.000000e+00 2.730963e+01 7.945882e+00 0.000000e+00 0.000000e+00 0.000000e+00 0.000000e+00 1.326992e+01 -3.486205e+01 0.000000e+00 -3.486205e+01 -3.039389e+01 0.000000e+00 0.000000e+00 0.000000e+00 0.000000e+00 4.718570e+01 1.642240e+01 0.000000e+00 1.642240e+01 1.557996e+02 0.000000e+00 0.000000e+00 0.000000e+00 0.000000e+00 -5.117014e+00 -4.039080e+01 0.000000e+00 -4.039080e+01 2.984872e+00 0.000000e+00 0.000000e+00 0.000000e+00 0.000000e+00 9.608133e+00 -3.961666e+01 0.000000e+00 -3.961666e+01 -1.637219e+01 0.000000e+00 0.000000e+00 0.000000e+00 0.000000e+00 9.000259e+01 -4.060952e+01 0.000000e+00 -4.060952e+01 1.217054e+02 0.000000e+00 0.000000e+00 0.000000e+00 0.000000e+00 5.331689e+01 -2.456513e+01 0.000000e+00 -2.456513e+01 6.469208e+00 0.000000e+00 0.000000e+00 0.000000e+00 0.000000e+00 3.004440e+01 2.519012e+01 0.000000e+00 2.519012e+01 5.489699e+00 0.000000e+00 0.000000e+00 0.000000e+00 0.000000e+00 2.958744e+01 -2.036906e+01 0.000000e+00 -2.036906e+01 -3.109203e+01 0.000000e+00 0.000000e+00 0.000000e+00 0.000000e+00 5.935555e+01 -2.589719e+01 0.000000e+00 -2.589719e+01 1.505102e+01 0.000000e+00 0.000000e+00 0.000000e+00 0.000000e+00 9.028103e+01 -3.880347e+01 0.000000e+00 -3.880347e+01 9.415589e+01 0.000000e+00 0.000000e+00 0.000000e+00 0.000000e+00 4.768146e+01 -2.390925e+01 0.000000e+00 -2.390925e+01 -1.487843e+00 0.000000e+00 0.000000e+00 0.000000e+00 0.000000e+00 1.513252e+01 -1.185416e+01 0.000000e+00 -1.185416e+01 -6.314545e+01 0.000000e+00 0.000000e+00 0.000000e+00 0.000000e+00 -7.533436e+00 -3.860449e+01 0.000000e+00 -3.860449e+01 1.866051e+01 0.000000e+00 0.000000e+00 0.000000e+00 0.000000e+00 1.957859e+01 -1.759751e+01 0.000000e+00 -1.759751e+01 -4.980704e+01 0.000000e+00 0.000000e+00 0.000000e+00 0.000000e+00 1.300588e+01 -1.416514e+01 0.000000e+00 -1.416514e+01 -6.579320e+01 0.000000e+00 0.000000e+00 0.000000e+00 0.000000e+00 3.478007e+01 -2.024462e+01 0.000000e+00 -2.024462e+01 -2.265395e+01 0.000000e+00 0.000000e+00 0.000000e+00 0.000000e+00 3.474132e+01 2.389751e+01 0.000000e+00 2.389751e+01 1.201655e+02 0.000000e+00 0.000000e+00 0.000000e+00 0.000000e+00 9.512145e+01 -3.854315e+01 0.000000e+00 -3.854315e+01 1.476395e+02 0.000000e+00 0.000000e+00 0.000000e+00 0.000000e+00 4.022781e+01 -1.927514e+01 0.000000e+00 -1.927514e+01 -1.629190e+01 0.000000e+00 0.000000e+00 0.000000e+00 0.000000e+00 -2.818193e+00 -3.690340e+01 0.000000e+00 -3.690340e+01 3.178289e+01 0.000000e+00 0.000000e+00 0.000000e+00 0.000000e+00 1.647309e+01 -2.512324e+01 0.000000e+00 -2.512324e+01 -4.649306e+01 0.000000e+00 0.000000e+00 0.000000e+00 0.000000e+00 4.093564e+01 -2.744774e+01 0.000000e+00 -2.744774e+01 -5.208997e+00 0.000000e+00 0.000000e+00 0.000000e+00 0.000000e+00 8.019774e+00 -4.295867e+01 0.000000e+00 -4.295867e+01 3.072700e+00 0.000000e+00 0.000000e+00 0.000000e+00 0.000000e+00 1.756242e+01 -3.058533e+01 0.000000e+00 -3.058533e+01 -3.287223e+01 0.000000e+00 0.000000e+00 0.000000e+00 0.000000e+00 7.904502e+01 -3.506826e+01 0.000000e+00 -3.506826e+01 6.296856e+01 0.000000e+00 0.000000e+00 0.000000e+00 0.000000e+00 2.781193e+01 -1.615999e+01 0.000000e+00 -1.615999e+01 -3.808799e+01 0.000000e+00 0.000000e+00 0.000000e+00 0.000000e+00 -1.023585e-01 -4.163122e+01 0.000000e+00 -4.163122e+01 1.208362e+01 0.000000e+00 0.000000e+00 0.000000e+00 0.000000e+00 7.691722e+01 -2.844005e+01 0.000000e+00 -2.844005e+01 3.975614e+01 0.000000e+00 0.000000e+00 0.000000e+00 0.000000e+00 2.281443e+01 3.039250e+01 0.000000e+00 3.039250e+01 6.026645e+01 0.000000e+00 0.000000e+00 0.000000e+00 0.000000e+00 1.473372e+01 -1.904879e+01 0.000000e+00 -1.904879e+01 -5.714498e+01 0.000000e+00 0.000000e+00 0.000000e+00 0.000000e+00 5.458466e+01 -1.335386e+01 0.000000e+00 -1.335386e+01 1.573079e+02 0.000000e+00 0.000000e+00 0.000000e+00 0.000000e+00 7.212434e+01 -3.916452e+01 0.000000e+00 -3.916452e+01 7.841374e+01 0.000000e+00 0.000000e+00 0.000000e+00 0.000000e+00 6.742963e+01 -3.762913e+01 0.000000e+00 -3.762913e+01 5.665197e+01 0.000000e+00 0.000000e+00 0.000000e+00 0.000000e+00 -1.804182e+00 -1.727504e+01 0.000000e+00 -1.727504e+01 6.270343e+01 0.000000e+00 0.000000e+00 0.000000e+00 0.000000e+00 1.477405e+01 2.907905e+01 0.000000e+00 2.907905e+01 2.511688e+01 0.000000e+00 0.000000e+00 0.000000e+00 0.000000e+00 7.917125e+01 -2.666512e+01 0.000000e+00 -2.666512e+01 1.738745e+02 0.000000e+00 0.000000e+00 0.000000e+00 0.000000e+00 7.176949e+01 -3.939071e+01 0.000000e+00 -3.939071e+01 1.045411e+02 0.000000e+00 0.000000e+00 0.000000e+00 0.000000e+00 1.794446e+01 -3.682866e+01 0.000000e+00 -3.682866e+01 -1.737020e+01 0.000000e+00 0.000000e+00 0.000000e+00 0.000000e+00 3.024590e+01 -2.605494e+01 0.000000e+00 -2.605494e+01 -2.260167e+01 0.000000e+00 0.000000e+00 0.000000e+00 0.000000e+00 5.987820e+01 -3.319719e+01 0.000000e+00 -3.319719e+01 3.129099e+01 0.000000e+00 0.000000e+00 0.000000e+00 0.000000e+00 3.710494e+01 2.025741e-02 0.000000e+00 2.025741e-02 1.384132e+02 0.000000e+00 0.000000e+00 0.000000e+00 0.000000e+00 5.674886e+01 -3.894866e+01 0.000000e+00 -3.894866e+01 8.920734e+01 0.000000e+00 0.000000e+00 0.000000e+00 0.000000e+00 4.532042e+01 -2.956493e+01 0.000000e+00 -2.956493e+01 4.427955e+00 0.000000e+00 0.000000e+00 0.000000e+00 0.000000e+00 3.696613e+01 -2.439356e+01 0.000000e+00 -2.439356e+01 -1.480235e+01 0.000000e+00 0.000000e+00 0.000000e+00 0.000000e+00 2.204450e+00 -3.129340e+01 0.000000e+00 -3.129340e+01 5.132619e+01 0.000000e+00 0.000000e+00 0.000000e+00 0.000000e+00 1.621464e+01 2.908852e+01 0.000000e+00 2.908852e+01 1.413391e+01 0.000000e+00 0.000000e+00 0.000000e+00 0.000000e+00 6.784276e+01 -3.386302e+01 0.000000e+00 -3.386302e+01 4.195365e+01 0.000000e+00 0.000000e+00 0.000000e+00 0.000000e+00 2.318101e+01 -2.562052e+01 0.000000e+00 -2.562052e+01 -3.315875e+01 0.000000e+00 0.000000e+00 0.000000e+00 0.000000e+00 5.551327e+00 1.881475e+01 0.000000e+00 1.881475e+01 5.443176e+01 0.000000e+00 0.000000e+00 0.000000e+00 0.000000e+00 1.687104e+01 2.911261e+01 0.000000e+00 2.911261e+01 3.993157e+01 0.000000e+00 0.000000e+00 0.000000e+00 0.000000e+00 5.701947e+01 -3.174276e+01 0.000000e+00 -3.174276e+01 2.183886e+01 0.000000e+00 0.000000e+00 0.000000e+00 0.000000e+00 -1.046001e+00 1.521703e+00 0.000000e+00 1.521703e+00 6.419150e+01 0.000000e+00 0.000000e+00 0.000000e+00 0.000000e+00 2.471575e+01 -3.201598e+01 0.000000e+00 -3.201598e+01 -1.910159e+01 0.000000e+00 0.000000e+00 0.000000e+00 0.000000e+00 4.507650e+01 -2.178955e+01 0.000000e+00 -2.178955e+01 1.318641e+02 0.000000e+00 0.000000e+00 0.000000e+00 0.000000e+00 5.596698e+01 -4.007403e+01 0.000000e+00 -4.007403e+01 6.525575e+01 0.000000e+00 0.000000e+00 0.000000e+00 0.000000e+00 5.057935e+01 -3.073067e+01 0.000000e+00 -3.073067e+01 1.346320e+01 0.000000e+00 0.000000e+00 0.000000e+00 0.000000e+00 3.796365e+01 -3.311594e+01 0.000000e+00 -3.311594e+01 7.294928e-01 0.000000e+00 0.000000e+00 0.000000e+00 0.000000e+00 7.539859e+00 -3.956398e+01 0.000000e+00 -3.956398e+01 3.781982e+01 0.000000e+00 0.000000e+00 0.000000e+00 0.000000e+00 5.489339e+01 -3.791678e+01 0.000000e+00 -3.791678e+01 4.341189e+01 0.000000e+00 0.000000e+00 0.000000e+00 0.000000e+00 2.398201e+01 -2.034122e+01 0.000000e+00 -2.034122e+01 -3.959800e+01 0.000000e+00 0.000000e+00 0.000000e+00 0.000000e+00 6.432639e+00 -4.233397e+01 0.000000e+00 -4.233397e+01 2.263167e+01 0.000000e+00 0.000000e+00 0.000000e+00 0.000000e+00 3.342965e+01 -2.958055e+01 0.000000e+00 -2.958055e+01 -1.198330e+01 0.000000e+00 0.000000e+00 0.000000e+00 0.000000e+00 6.782736e+01 -3.274300e+01 0.000000e+00 -3.274300e+01 1.377194e+02 0.000000e+00 0.000000e+00 0.000000e+00 0.000000e+00 5.241789e+01 -3.426682e+01 0.000000e+00 -3.426682e+01 1.133758e+02 0.000000e+00 0.000000e+00 0.000000e+00 0.000000e+00 1.040209e+01 -2.641731e+01 0.000000e+00 -2.641731e+01 7.022887e+01 0.000000e+00 0.000000e+00 0.000000e+00 0.000000e+00 2.492653e+01 4.697754e+00 0.000000e+00 4.697754e+00 1.155898e+02 0.000000e+00 0.000000e+00 0.000000e+00 0.000000e+00 1.627588e+01 -4.133465e+01 0.000000e+00 -4.133465e+01 -1.467311e+00 0.000000e+00 0.000000e+00 0.000000e+00 0.000000e+00 2.431932e+01 -3.816938e+01 0.000000e+00 -3.816938e+01 -3.777046e+00 0.000000e+00 0.000000e+00 0.000000e+00 0.000000e+00 1.168962e+01 1.593995e+01 0.000000e+00 1.593995e+01 7.520484e+01 0.000000e+00 0.000000e+00 0.000000e+00 0.000000e+00 1.997924e+01 -2.173603e+01 0.000000e+00 -2.173603e+01 -4.547158e+01 0.000000e+00 0.000000e+00 0.000000e+00 0.000000e+00 7.759753e+00 -6.767229e+00 0.000000e+00 -6.767229e+00 8.170809e+01 0.000000e+00 0.000000e+00 0.000000e+00 0.000000e+00 4.187992e+01 -3.546121e+01 0.000000e+00 -3.546121e+01 1.250538e+01 0.000000e+00 0.000000e+00 0.000000e+00 0.000000e+00 1.669066e+01 -3.831110e+01 0.000000e+00 -3.831110e+01 5.096720e+01 0.000000e+00 0.000000e+00 0.000000e+00 0.000000e+00 4.850281e+01 -3.668765e+01 0.000000e+00 -3.668765e+01 2.574254e+01 0.000000e+00 0.000000e+00 0.000000e+00 0.000000e+00 1.400657e+01 -4.311125e+01 0.000000e+00 -4.311125e+01 1.358099e+01 0.000000e+00 0.000000e+00 0.000000e+00 0.000000e+00 2.737767e+01 -1.320395e+01 0.000000e+00 -1.320395e+01 1.166601e+02 0.000000e+00 0.000000e+00 0.000000e+00 0.000000e+00 2.366162e+01 -4.179387e+01 0.000000e+00 -4.179387e+01 1.483087e+01 0.000000e+00 0.000000e+00 0.000000e+00 0.000000e+00 4.622627e+01 -4.072078e+01 0.000000e+00 -4.072078e+01 5.079497e+01 0.000000e+00 0.000000e+00 0.000000e+00 0.000000e+00 2.023969e+01 -2.308494e+01 0.000000e+00 -2.308494e+01 9.185784e+01 0.000000e+00 0.000000e+00 0.000000e+00 0.000000e+00 4.439663e+01 -3.876784e+01 0.000000e+00 -3.876784e+01 7.548162e+01 0.000000e+00 0.000000e+00 0.000000e+00 0.000000e+00 3.524605e+01 -3.987731e+01 0.000000e+00 -3.987731e+01 2.155011e+01 0.000000e+00 0.000000e+00 0.000000e+00 0.000000e+00 3.042909e+01 -3.455459e+01 0.000000e+00 -3.455459e+01 -5.577022e+00 0.000000e+00 0.000000e+00 0.000000e+00 0.000000e+00 4.045840e+01 -4.029744e+01 0.000000e+00 -4.029744e+01 3.659318e+01 0.000000e+00 0.000000e+00 0.000000e+00 0.000000e+00 3.472796e+01 -2.650965e+01 0.000000e+00 -2.650965e+01 1.097004e+02 0.000000e+00 0.000000e+00 0.000000e+00 0.000000e+00 1.951644e+01 1.419865e+01 0.000000e+00 1.419865e+01 9.851688e+01 0.000000e+00 0.000000e+00 0.000000e+00 0.000000e+00 3.749208e+01 -3.372281e+01 0.000000e+00 -3.372281e+01 9.398382e+01 0.000000e+00 0.000000e+00 0.000000e+00 0.000000e+00 3.226459e+01 -3.814877e+01 0.000000e+00 -3.814877e+01 7.186464e+00 0.000000e+00 0.000000e+00 0.000000e+00 0.000000e+00 1.668415e+01 -5.810262e+00 0.000000e+00 -5.810262e+00 1.005666e+02 0.000000e+00 0.000000e+00 0.000000e+00 0.000000e+00 1.626987e+01 -4.247747e+01 0.000000e+00 -4.247747e+01 2.874019e+01 0.000000e+00 0.000000e+00 0.000000e+00 0.000000e+00 4.018646e+01 -4.066027e+01 0.000000e+00 -4.066027e+01 6.378427e+01 0.000000e+00 0.000000e+00 0.000000e+00 0.000000e+00 2.607512e+01 -3.528952e+01 0.000000e+00 -3.528952e+01 7.046313e+01 0.000000e+00 0.000000e+00 0.000000e+00 0.000000e+00 2.664116e+01 -4.190571e+01 0.000000e+00 -4.190571e+01 3.456463e+01 0.000000e+00 0.000000e+00 0.000000e+00 0.000000e+00 3.184208e+01 -4.093331e+01 0.000000e+00 -4.093331e+01 4.968971e+01 0.000000e+00 0.000000e+00 0.000000e+00 0.000000e+00 </DataArray>
 <DataArray type="Float64" Name="IST_StrainTensor" NumberOfComponents="9" format="ascii"> 8.365314e-06 2.159232e-05 0.000000e+00 2.159232e-05 -1.345380e-05 0.000000e+00 0.000000e+00 0.000000e+00 0.000000e+00 -2.186298e-06 -4.299850e-06 0.000000e+00 -4.299850e-06 -2.446428e-06 0.000000e+00 0.000000e+00 0.000000e+00 0.000000e+00 1.567401e-04 6.817960e-05 0.000000e+00 6.817960e-05 -2.237714e-05 0.000000e+00 0.000000e+00 0.000000e+00 0.000000e+00 1.584411e-06 -4.239121e-06 0.000000e+00 -4.239121e-06 8.960071e-07 0.000000e+00 0.000000e+00 0.000000e+00 0.000000e+00 9.051184e-05 3.600214e-05 0.000000e+00 3.600214e-05 -2.000260e-05 0.000000e+00 0.000000e+00 0.000000e+00 0.000000e+00 -1.494973e-05 -2.748411e-05 0.000000e+00 -2.748411e-05 -1.348337e-05 0.000000e+00 0.000000e+00 0.000000e+00 0.000000e+00 6.670779e-04 4.538218e-04 0.000000e+00 4.538218e-04 8.843301e-04 0.000000e+00 0.000000e+00 0.000000e+00 0.000000e+00 2.263399e-04 -3.607671e-05 0.000000e+00 -3.607671e-05 -7.176229e-04 0.000000e+00 0.000000e+00 0.000000e+00 0.000000e+00 -2.176164e-06 2.041872e-05 0.000000e+00 2.041872e-05 -1.064851e-05 0.000000e+00 0.000000e+00 0.000000e+00 0.000000e+00 -8.362871e-06 1.335809e-05 0.000000e+00 1.335809e-05 -1.294856e-05 0.000000e+00 0.000000e+00 0.000000e+00 0.000000e+00 -6.685011e-06 5.324058e-06 0.000000e+00 5.324058e-06 -2.343318e-05 0.000000e+00 0.000000e+00 0.000000e+00 0.000000e+00 4.811638e-06 3.872664e-06 0.000000e+00 3.872664e-06 -4.383912e-05 0.000000e+00 0.000000e+00 0.000000e+00 0.000000e+00 2.219623e-05 2.086472e-05 0.000000e+00 2.086472e-05 -6.805586e-05 0.000000e+00 0.000000e+00 0.000000e+00 0.000000e+00 3.082746e-05 5.135298e-05 0.000000e+00 5.135298e-05 -8.105112e-05 0.000000e+00 0.000000e+00 0.000000e+00 0.000000e+00 2.892690e-05 9.003948e-05 0.000000e+00 9.003948e-05 -8.177079e-05 0.000000e+00 0.000000e+00 0.000000e+00 0.000000e+00 1.761640e-05 1.235404e-04 0.000000e+00 1.235404e-04 -7.212732e-05 0.000000e+00 0.000000e+00 0.000000e+00 0.000000e+00 1.862100e-06 1.539429e-04 0.000000e+00 1.539429e-04 -5.664055e-05 0.000000e+00 0.000000e+00 0.000000e+00 0.000000e+00 -1.473787e-05 1.741459e-04 0.000000e+00 1.741459e-04 -3.561990e-05 0.000000e+00 0.000000e+00 0.000000e+00 0.000000e+00 -2.432703e-05 1.797907e-04 0.000000e+00 1.797907e-04 -1.389011e-05 0.000000e+00 0.000000e+00 0.000000e+00 0.000000e+00 -1.926565e-05 1.734762e-04 0.000000e+00 1.734762e-04 -1.785858e-06 0.000000e+00 0.000000e+00 0.000000e+00 0.000000e+00 2.432421e-06 1.638267e-04 0.000000e+00 1.638267e-04 -3.623589e-06 0.000000e+00 0.000000e+00 0.000000e+00 0.000000e+00 3.171007e-05 1.594760e-04 0.000000e+00 1.594760e-04 -1.323608e-05 0.000000e+00 0.000000e+00 0.000000e+00 0.000000e+00 5.598206e-05 1.602726e-04 0.000000e+00 1.602726e-04 -2.030280e-05 0.000000e+00 0.000000e+00 0.000000e+00 0.000000e+00 6.983070e-05 1.618310e-04 0.000000e+00 1.618310e-04 -2.117467e-05 0.000000e+00 0.000000e+00 0.000000e+00 0.000000e+00 7.016092e-05 1.597069e-04 0.000000e+00 1.597069e-04 -1.266111e-05 0.000000e+00 0.000000e+00 0.000000e+00 0.000000e+00 5.679992e-05 1.509760e-04 0.000000e+00 1.509760e-04 4.304968e-06 0.000000e+00 0.000000e+00 0.000000e+00 0.000000e+00 2.976497e-05 1.290020e-04 0.000000e+00 1.290020e-04 2.519609e-05 0.000000e+00 0.000000e+00 0.000000e+00 0.000000e+00 3.556902e-06 9.405119e-05 0.000000e+00 9.405119e-05 3.828406e-05 0.000000e+00 0.000000e+00 0.000000e+00 0.000000e+00 -7.949074e-06 5.507022e-05 0.000000e+00 5.507022e-05 4.653754e-05 0.000000e+00 0.000000e+00 0.000000e+00 0.000000e+00 -9.829547e-06 2.000943e-05 0.000000e+00 2.000943e-05 4.248908e-05 0.000000e+00 0.000000e+00 0.000000e+00 0.000000e+00 -2.403696e-06 -3.979663e-06 0.000000e+00 -3.979663e-06 3.145123e-05 0.000000e+00 0.000000e+00 0.000000e+00 0.000000e+00 1.431562e-05 -1.547053e-05 0.000000e+00 -1.547053e-05 1.039504e-05 0.000000e+00 0.000000e+00 0.000000e+00 0.000000e+00 2.484501e-05 -1.044517e-05 0.000000e+00 -1.044517e-05 -6.720405e-06 0.000000e+00 0.000000e+00 0.000000e+00 0.000000e+00 2.699541e-05 2.012442e-06 0.000000e+00 2.012442e-06 -1.606784e-05 0.000000e+00 0.000000e+00 0.000000e+00 0.000000e+00 2.038009e-05 1.442626e-05 0.000000e+00 1.442626e-05 -1.704644e-05 0.000000e+00 0.000000e+00 0.000000e+00 0.000000e+00 6.426001e-06 -5.013724e-05 0.000000e+00 -5.013724e-05 -6.566827e-05 0.000000e+00 0.000000e+00 0.000000e+00 0.000000e+00 6.345938e-05 -6.715448e-05 0.000000e+00 -6.715448e-05 -2.104651e-04 0.000000e+00 0.000000e+00 0.000000e+00 0.000000e+00 1.365318e-04 -5.258651e-05 0.000000e+00 -5.258651e-05 -4.236140e-04 0.000000e+00 0.000000e+00 0.000000e+00 0.000000e+00 1.952511e-04 -2.652033e-05 0.000000e+00 -2.652033e-05 -6.181444e-04 0.000000e+00 0.000000e+00 0.000000e+00 0.000000e+00 5.250807e-04 2.032065e-04 0.000000e+00 2.032065e-04 -8.434927e-05 0.000000e+00 0.000000e+00 0.000000e+00 0.000000e+00 2.735404e-04 9.718667e-06 0.000000e+00 9.718667e-06 -8.430484e-05 0.000000e+00 0.000000e+00 0.000000e+00 0.000000e+00 2.531398e-04 1.711824e-05 0.000000e+00 1.711824e-05 -7.418498e-05 0.000000e+00 0.000000e+00 0.000000e+00 0.000000e+00 2.305505e-04 1.819536e-05 0.000000e+00 1.819536e-05 -7.029566e-05 0.000000e+00 0.000000e+00 0.000000e+00 0.000000e+00 2.062185e-04 2.071971e-05 0.000000e+00 2.071971e-05 -6.326456e-05 0.000000e+00 0.000000e+00 0.000000e+00 0.000000e+00 1.801940e-04 2.343664e-05 0.000000e+00 2.343664e-05 -5.509090e-05 0.000000e+00 0.000000e+00 0.000000e+00 0.000000e+00 1.522157e-04 2.685846e-05 0.000000e+00 2.685846e-05 -4.706590e-05 0.000000e+00 0.000000e+00 0.000000e+00 0.000000e+00 1.183118e-04 3.076750e-05 0.000000e+00 3.076750e-05 -3.583335e-05 0.000000e+00 0.000000e+00 0.000000e+00 0.000000e+00 6.641986e-06 -3.759075e-06 0.000000e+00 -3.759075e-06 -2.539459e-06 0.000000e+00 0.000000e+00 0.000000e+00 0.000000e+00 9.845451e-06 -2.056398e-06 0.000000e+00 -2.056398e-06 -4.245498e-06 0.000000e+00 0.000000e+00 0.000000e+00 0.000000e+00 9.330916e-06 4.172244e-06 0.000000e+00 4.172244e-06 -6.457745e-06 0.000000e+00 0.000000e+00 0.000000e+00 0.000000e+00 -6.749266e-06 1.378301e-05 0.000000e+00 1.378301e-05 -2.261001e-06 0.000000e+00 0.000000e+00 0.000000e+00 0.000000e+00 -4.202616e-05 2.523667e-05 0.000000e+00 2.523667e-05 8.205431e-06 0.000000e+00 0.000000e+00 0.000000e+00 0.000000e+00 -9.627251e-05 3.581082e-05 0.000000e+00 3.581082e-05 2.562823e-05 0.000000e+00 0.000000e+00 0.000000e+00 0.000000e+00 -1.585087e-04 4.241340e-05 0.000000e+00 4.241340e-05 4.625356e-05 0.000000e+00 0.000000e+00 0.000000e+00 0.000000e+00 -2.300250e-04 4.371724e-05 0.000000e+00 4.371724e-05 6.992089e-05 0.000000e+00 0.000000e+00 0.000000e+00 0.000000e+00 -2.949247e-04 3.908392e-05 0.000000e+00 3.908392e-05 9.296815e-05 0.000000e+00 0.000000e+00 0.000000e+00 0.000000e+00 -3.429125e-04 2.704775e-05 0.000000e+00 2.704775e-05 1.113816e-04 0.000000e+00 0.000000e+00 0.000000e+00 0.000000e+00 -3.561156e-04 1.933141e-06 0.000000e+00 1.933141e-06 1.215680e-04 0.000000e+00 0.000000e+00 0.000000e+00 0.000000e+00 -3.132480e-04 -3.883133e-05 0.000000e+00 -3.883133e-05 1.098150e-04 0.000000e+00 0.000000e+00 0.000000e+00 0.000000e+00 -2.102374e-04 -6.107951e-05 0.000000e+00 -6.107951e-05 7.158241e-05 0.000000e+00 0.000000e+00 0.000000e+00 0.000000e+00 -7.967522e-05 -5.346625e-05 0.000000e+00 -5.346625e-05 1.447956e-05 0.000000e+00 0.000000e+00 0.000000e+00 0.000000e+00 1.286330e-04 6.481945e-05 0.000000e+00 6.481945e-05 -2.371594e-05 0.000000e+00 0.000000e+00 0.000000e+00 0.000000e+00 3.486578e-07 -4.809811e-06 0.000000e+00 -4.809811e-06 -5.383909e-06 0.000000e+00 0.000000e+00 0.000000e+00 0.000000e+00 5.449779e-06 -4.044985e-06 0.000000e+00 -4.044985e-06 -1.568278e-05 0.000000e+00 0.000000e+00 0.000000e+00 0.000000e+00 8.201397e-06 6.441777e-07 0.000000e+00 6.441777e-07 -2.007394e-05 0.000000e+00 0.000000e+00 0.000000e+00 0.000000e+00 6.356543e-06 5.412956e-06 0.000000e+00 5.412956e-06 -1.580272e-05 0.000000e+00 0.000000e+00 0.000000e+00 0.000000e+00 2.012297e-06 8.073624e-06 0.000000e+00 8.073624e-06 -5.138150e-06 0.000000e+00 0.000000e+00 0.000000e+00 0.000000e+00 -2.627595e-06 7.561419e-06 0.000000e+00 7.561419e-06 5.463221e-06 0.000000e+00 0.000000e+00 0.000000e+00 0.000000e+00 -5.487369e-06 4.049416e-06 0.000000e+00 4.049416e-06 1.343490e-05 0.000000e+00 0.000000e+00 0.000000e+00 0.000000e+00 -6.279286e-06 4.485156e-07 0.000000e+00 4.485156e-07 1.588441e-05 0.000000e+00 0.000000e+00 0.000000e+00 0.000000e+00 -4.869934e-06 -3.152911e-06 0.000000e+00 -3.152911e-06 1.207742e-05 0.000000e+00 0.000000e+00 0.000000e+00 0.000000e+00 -1.319596e-06 -4.454982e-06 0.000000e+00 -4.454982e-06 5.090809e-06 0.000000e+00 0.000000e+00 0.000000e+00 0.000000e+00 1.411962e-04 4.578310e-05 0.000000e+00 4.578310e-05 -3.543875e-05 0.000000e+00 0.000000e+00 0.000000e+00 0.000000e+00 7.962327e-05 3.435850e-05 0.000000e+00 3.435850e-05 -2.142996e-05 0.000000e+00 0.000000e+00 0.000000e+00 0.000000e+00 2.699126e-05 2.809190e-05 0.000000e+00 2.809190e-05 -4.289154e-06 0.000000e+00 0.000000e+00 0.000000e+00 0.000000e+00 -1.765214e-05 1.857127e-05 0.000000e+00 1.857127e-05 1.123751e-05 0.000000e+00 0.000000e+00 0.000000e+00 0.000000e+00 -4.086636e-05 5.125836e-06 0.000000e+00 5.125836e-06 1.806191e-05 0.000000e+00 0.000000e+00 0.000000e+00 0.000000e+00 -3.782322e-05 -5.336101e-06 0.000000e+00 -5.336101e-06 1.487085e-05 0.000000e+00 0.000000e+00 0.000000e+00 0.000000e+00 -2.150704e-05 -9.398431e-06 0.000000e+00 -9.398431e-06 7.017116e-06 0.000000e+00 0.000000e+00 0.000000e+00 0.000000e+00 -4.497654e-06 -7.146526e-06 0.000000e+00 -7.146526e-06 -1.219795e-06 0.000000e+00 0.000000e+00 0.000000e+00 0.000000e+00 8.937663e-05 -3.983077e-05 0.000000e+00 -3.983077e-05 -6.332433e-04 0.000000e+00 0.000000e+00 0.000000e+00 0.000000e+00 1.354904e-04 -2.938152e-05 0.000000e+00 -2.938152e-05 -6.205767e-04 0.000000e+00 0.000000e+00 0.000000e+00 0.000000e+00 1.489726e-04 -1.801238e-05 0.000000e+00 -1.801238e-05 -5.948196e-04 0.000000e+00 0.000000e+00 0.000000e+00 0.000000e+00 1.555401e-04 -1.287822e-05 0.000000e+00 -1.287822e-05 -5.662687e-04 0.000000e+00 0.000000e+00 0.000000e+00 0.000000e+00 1.594379e-04 -1.029188e-05 0.000000e+00 -1.029188e-05 -5.386338e-04 0.000000e+00 0.000000e+00 0.000000e+00 0.000000e+00 1.606361e-04 -8.950032e-06 0.000000e+00 -8.950032e-06 -5.106646e-04 0.000000e+00 0.000000e+00 0.000000e+00 0.000000e+00 1.612175e-04 -8.465339e-06 0.000000e+00 -8.465339e-06 -4.835877e-04 0.000000e+00 0.000000e+00 0.000000e+00 0.000000e+00 1.612864e-04 -8.088144e-06 0.000000e+00 -8.088144e-06 -4.575299e-04 0.000000e+00 0.000000e+00 0.000000e+00 0.000000e+00 1.617791e-04 -8.285683e-06 0.000000e+00 -8.285683e-06 -4.325236e-04 0.000000e+00 0.000000e+00 0.000000e+00 0.000000e+00 1.624899e-04 -8.471096e-06 0.000000e+00 -8.471096e-06 -4.079988e-04 0.000000e+00 0.000000e+00 0.000000e+00 0.000000e+00 1.645045e-04 -8.801857e-06 0.000000e+00 -8.801857e-06 -3.844026e-04 0.000000e+00 0.000000e+00 0.000000e+00 0.000000e+00 1.666990e-04 -8.634838e-06 0.000000e+00 -8.634838e-06 -3.614311e-04 0.000000e+00 0.000000e+00 0.000000e+00 0.000000e+00 1.696615e-04 -8.727366e-06 0.000000e+00 -8.727366e-06 -3.398712e-04 0.000000e+00 0.000000e+00 0.000000e+00 0.000000e+00 1.737789e-04 -8.872513e-06 0.000000e+00 -8.872513e-06 -3.202751e-04 0.000000e+00 0.000000e+00 0.000000e+00 0.000000e+00 1.779504e-04 -8.811877e-06 0.000000e+00 -8.811877e-06 -3.001205e-04 0.000000e+00 0.000000e+00 0.000000e+00 0.000000e+00 1.823147e-04 -9.332934e-06 0.000000e+00 -9.332934e-06 -2.798392e-04 0.000000e+00 0.000000e+00 0.000000e+00 0.000000e+00 1.881355e-04 -9.847678e-06 0.000000e+00 -9.847678e-06 -2.611527e-04 0.000000e+00 0.000000e+00 0.000000e+00 0.000000e+00 1.942946e-04 -1.011925e-05 0.000000e+00 -1.011925e-05 -2.431090e-04 0.000000e+00 0.000000e+00 0.000000e+00 0.000000e+00 2.014763e-04 -1.074743e-05 0.000000e+00 -1.074743e-05 -2.257557e-04 0.000000e+00 0.000000e+00 0.000000e+00 0.000000e+00 2.089578e-04 -1.105355e-05 0.000000e+00 -1.105355e-05 -2.087685e-04 0.000000e+00 0.000000e+00 0.000000e+00 0.000000e+00 2.167242e-04 -1.141264e-05 0.000000e+00 -1.141264e-05 -1.910673e-04 0.000000e+00 0.000000e+00 0.000000e+00 0.000000e+00 2.254246e-04 -1.192487e-05 0.000000e+00 -1.192487e-05 -1.739679e-04 0.000000e+00 0.000000e+00 0.000000e+00 0.000000e+00 2.350993e-04 -1.223739e-05 0.000000e+00 -1.223739e-05 -1.581124e-04 0.000000e+00 0.000000e+00 0.000000e+00 0.000000e+00 2.453882e-04 -1.258884e-05 0.000000e+00 -1.258884e-05 -1.427938e-04 0.000000e+00 0.000000e+00 0.000000e+00 0.000000e+00 2.561556e-04 -1.319869e-05 0.000000e+00 -1.319869e-05 -1.272770e-04 0.000000e+00 0.000000e+00 0.000000e+00 0.000000e+00 2.678253e-04 -1.375060e-05 0.000000e+00 -1.375060e-05 -1.116055e-04 0.000000e+00 0.000000e+00 0.000000e+00 0.000000e+00 2.794461e-04 -1.395848e-05 0.000000e+00 -1.395848e-05 -9.481857e-05 0.000000e+00 0.000000e+00 0.000000e+00 0.000000e+00 2.918104e-04 -1.445947e-05 0.000000e+00 -1.445947e-05 -7.750136e-05 0.000000e+00 0.000000e+00 0.000000e+00 0.000000e+00 3.051738e-04 -1.516440e-05 0.000000e+00 -1.516440e-05 -6.138073e-05 0.000000e+00 0.000000e+00 0.000000e+00 0.000000e+00 3.195035e-04 -1.572713e-05 0.000000e+00 -1.572713e-05 -4.518668e-05 0.000000e+00 0.000000e+00 0.000000e+00 0.000000e+00 3.339890e-04 -1.643436e-05 0.000000e+00 -1.643436e-05 -2.671851e-05 0.000000e+00 0.000000e+00 0.000000e+00 0.000000e+00 3.485999e-04 -1.758504e-05 0.000000e+00 -1.758504e-05 -6.796499e-06 0.000000e+00 0.000000e+00 0.000000e+00 0.000000e+00 3.646590e-04 -1.903165e-05 0.000000e+00 -1.903165e-05 1.304047e-05 0.000000e+00 0.000000e+00 0.000000e+00 0.000000e+00 3.828966e-04 -2.078350e-05 0.000000e+00 -2.078350e-05 3.186854e-05 0.000000e+00 0.000000e+00 0.000000e+00 0.000000e+00 4.029230e-04 -2.174112e-05 0.000000e+00 -2.174112e-05 5.109328e-05 0.000000e+00 0.000000e+00 0.000000e+00 0.000000e+00 4.234990e-04 -2.199348e-05 0.000000e+00 -2.199348e-05 7.387317e-05 0.000000e+00 0.000000e+00 0.000000e+00 0.000000e+00 4.447938e-04 -2.247111e-05 0.000000e+00 -2.247111e-05 9.929836e-05 0.000000e+00 0.000000e+00 0.000000e+00 0.000000e+00 4.683661e-04 -2.379462e-05 0.000000e+00 -2.379462e-05 1.246868e-04 0.000000e+00 0.000000e+00 0.000000e+00 0.000000e+00 4.924735e-04 -2.742817e-05 0.000000e+00 -2.742817e-05 1.528908e-04 0.000000e+00 0.000000e+00 0.000000e+00 0.000000e+00 5.219153e-04 -3.257152e-05 0.000000e+00 -3.257152e-05 1.827767e-04 0.000000e+00 0.000000e+00 0.000000e+00 0.000000e+00 5.548978e-04 -3.699590e-05 0.000000e+00 -3.699590e-05 2.153375e-04 0.000000e+00 0.000000e+00 0.000000e+00 0.000000e+00 5.931537e-04 -4.279695e-05 0.000000e+00 -4.279695e-05 2.517531e-04 0.000000e+00 0.000000e+00 0.000000e+00 0.000000e+00 6.388243e-04 -4.827468e-05 0.000000e+00 -4.827468e-05 2.954113e-04 0.000000e+00 0.000000e+00 0.000000e+00 0.000000e+00 6.915401e-04 -5.830917e-05 0.000000e+00 -5.830917e-05 3.484918e-04 0.000000e+00 0.000000e+00 0.000000e+00 0.000000e+00 7.536217e-04 -7.941390e-05 0.000000e+00 -7.941390e-05 4.105454e-04 0.000000e+00 0.000000e+00 0.000000e+00 0.000000e+00 8.337163e-04 -1.154812e-04 0.000000e+00 -1.154812e-04 4.905289e-04 0.000000e+00 0.000000e+00 0.000000e+00 0.000000e+00 9.387889e-04 -1.825454e-04 0.000000e+00 -1.825454e-04 6.060562e-04 0.000000e+00 0.000000e+00 0.000000e+00 0.000000e+00 1.060600e-03 -3.066555e-04 0.000000e+00 -3.066555e-04 8.046753e-04 0.000000e+00 0.000000e+00 0.000000e+00 0.000000e+00 1.129733e-03 -5.125897e-04 0.000000e+00 -5.125897e-04 1.234411e-03 0.000000e+00 0.000000e+00 0.000000e+00 0.000000e+00 1.564997e-04 -5.407287e-05 0.000000e+00 -5.407287e-05 -6.631304e-04 0.000000e+00 0.000000e+00 0.000000e+00 0.000000e+00 1.598858e-04 -2.165108e-05 0.000000e+00 -2.165108e-05 -5.848852e-04 0.000000e+00 0.000000e+00 0.000000e+00 0.000000e+00 1.627043e-04 -1.391528e-05 0.000000e+00 -1.391528e-05 -5.258664e-04 0.000000e+00 0.000000e+00 0.000000e+00 0.000000e+00 1.623090e-04 -1.248424e-05 0.000000e+00 -1.248424e-05 -4.714193e-04 0.000000e+00 0.000000e+00 0.000000e+00 0.000000e+00 1.617622e-04 -1.309910e-05 0.000000e+00 -1.309910e-05 -4.197599e-04 0.000000e+00 0.000000e+00 0.000000e+00 0.000000e+00 1.653452e-04 -1.441184e-05 0.000000e+00 -1.441184e-05 -3.723953e-04 0.000000e+00 0.000000e+00 0.000000e+00 0.000000e+00 1.715276e-04 -1.431749e-05 0.000000e+00 -1.431749e-05 -3.299319e-04 0.000000e+00 0.000000e+00 0.000000e+00 0.000000e+00 1.797880e-04 -1.550387e-05 0.000000e+00 -1.550387e-05 -2.896531e-04 0.000000e+00 0.000000e+00 0.000000e+00 0.000000e+00 1.908117e-04 -1.645172e-05 0.000000e+00 -1.645172e-05 -2.518948e-04 0.000000e+00 0.000000e+00 0.000000e+00 0.000000e+00 2.037533e-04 -1.921761e-05 0.000000e+00 -1.921761e-05 -2.166090e-04 0.000000e+00 0.000000e+00 0.000000e+00 0.000000e+00 2.204149e-04 -2.130220e-05 0.000000e+00 -2.130220e-05 -1.823512e-04 0.000000e+00 0.000000e+00 0.000000e+00 0.000000e+00 2.390309e-04 -2.238523e-05 0.000000e+00 -2.238523e-05 -1.499618e-04 0.000000e+00 0.000000e+00 0.000000e+00 0.000000e+00 2.602864e-04 -2.530411e-05 0.000000e+00 -2.530411e-05 -1.189137e-04 0.000000e+00 0.000000e+00 0.000000e+00 0.000000e+00 2.841156e-04 -2.720337e-05 0.000000e+00 -2.720337e-05 -8.592312e-05 0.000000e+00 0.000000e+00 0.000000e+00 0.000000e+00 3.103297e-04 -2.794579e-05 0.000000e+00 -2.794579e-05 -5.216962e-05 0.000000e+00 0.000000e+00 0.000000e+00 0.000000e+00 3.387437e-04 -3.224207e-05 0.000000e+00 -3.224207e-05 -1.559550e-05 0.000000e+00 0.000000e+00 0.000000e+00 0.000000e+00 3.711738e-04 -3.692306e-05 0.000000e+00 -3.692306e-05 2.433420e-05 0.000000e+00 0.000000e+00 0.000000e+00 0.000000e+00 4.082843e-04 -4.212599e-05 0.000000e+00 -4.212599e-05 6.583370e-05 0.000000e+00 0.000000e+00 0.000000e+00 0.000000e+00 4.532009e-04 -4.229716e-05 0.000000e+00 -4.229716e-05 1.142193e-04 0.000000e+00 0.000000e+00 0.000000e+00 0.000000e+00 4.988617e-04 -5.635667e-05 0.000000e+00 -5.635667e-05 1.709400e-04 0.000000e+00 0.000000e+00 0.000000e+00 0.000000e+00 5.589943e-04 -7.477539e-05 0.000000e+00 -7.477539e-05 2.415035e-04 0.000000e+00 0.000000e+00 0.000000e+00 0.000000e+00 6.446319e-04 -8.928686e-05 0.000000e+00 -8.928686e-05 3.305896e-04 0.000000e+00 0.000000e+00 0.000000e+00 0.000000e+00 7.324767e-04 -1.474665e-04 0.000000e+00 -1.474665e-04 4.730114e-04 0.000000e+00 0.000000e+00 0.000000e+00 0.000000e+00 7.952914e-04 -2.654585e-04 0.000000e+00 -2.654585e-04 7.626852e-04 0.000000e+00 0.000000e+00 0.000000e+00 0.000000e+00 5.204978e-04 -9.871832e-05 0.000000e+00 -9.871832e-05 1.533499e-03 0.000000e+00 0.000000e+00 0.000000e+00 0.000000e+00 3.136169e-04 5.911074e-05 0.000000e+00 5.911074e-05 -8.114179e-05 0.000000e+00 0.000000e+00 0.000000e+00 0.000000e+00 2.312456e-04 4.144618e-05 0.000000e+00 4.144618e-05 -6.851709e-05 0.000000e+00 0.000000e+00 0.000000e+00 0.000000e+00 1.744903e-04 4.180433e-05 0.000000e+00 4.180433e-05 -5.395406e-05 0.000000e+00 0.000000e+00 0.000000e+00 0.000000e+00 1.233811e-04 4.855155e-05 0.000000e+00 4.855155e-05 -3.591217e-05 0.000000e+00 0.000000e+00 0.000000e+00 0.000000e+00 1.433037e-04 6.507926e-05 0.000000e+00 6.507926e-05 -3.235016e-05 0.000000e+00 0.000000e+00 0.000000e+00 0.000000e+00 1.337388e-04 6.720692e-05 0.000000e+00 6.720692e-05 -2.301904e-05 0.000000e+00 0.000000e+00 0.000000e+00 0.000000e+00 5.637997e-05 5.550939e-05 0.000000e+00 5.550939e-05 -1.186658e-05 0.000000e+00 0.000000e+00 0.000000e+00 0.000000e+00 -1.796524e-05 1.604872e-05 0.000000e+00 1.604872e-05 1.283574e-05 0.000000e+00 0.000000e+00 0.000000e+00 0.000000e+00 -1.851311e-05 -1.098153e-05 0.000000e+00 -1.098153e-05 7.643134e-06 0.000000e+00 0.000000e+00 0.000000e+00 0.000000e+00 1.579740e-06 -8.033300e-06 0.000000e+00 -8.033300e-06 -6.987830e-06 0.000000e+00 0.000000e+00 0.000000e+00 0.000000e+00 9.058394e-06 3.667189e-06 0.000000e+00 3.667189e-06 -1.610198e-05 0.000000e+00 0.000000e+00 0.000000e+00 0.000000e+00 3.139123e-07 1.143708e-05 0.000000e+00 1.143708e-05 -2.752131e-06 0.000000e+00 0.000000e+00 0.000000e+00 0.000000e+00 -4.894250e-06 2.840358e-06 0.000000e+00 2.840358e-06 7.616322e-06 0.000000e+00 0.000000e+00 0.000000e+00 0.000000e+00 -2.154804e-06 -4.280067e-06 0.000000e+00 -4.280067e-06 2.974282e-06 0.000000e+00 0.000000e+00 0.000000e+00 0.000000e+00 2.357584e-06 -3.956388e-06 0.000000e+00 -3.956388e-06 -8.492269e-07 0.000000e+00 0.000000e+00 0.000000e+00 0.000000e+00 3.927458e-06 2.101067e-06 0.000000e+00 2.101067e-06 -6.181867e-06 0.000000e+00 0.000000e+00 0.000000e+00 0.000000e+00 -2.772612e-05 3.275508e-05 0.000000e+00 3.275508e-05 9.466994e-07 0.000000e+00 0.000000e+00 0.000000e+00 0.000000e+00 -1.125761e-04 6.515274e-05 0.000000e+00 6.515274e-05 3.040737e-05 0.000000e+00 0.000000e+00 0.000000e+00 0.000000e+00 -2.177363e-04 6.616381e-05 0.000000e+00 6.616381e-05 7.043286e-05 0.000000e+00 0.000000e+00 0.000000e+00 0.000000e+00 -2.852278e-04 1.890237e-05 0.000000e+00 1.890237e-05 1.031442e-04 0.000000e+00 0.000000e+00 0.000000e+00 0.000000e+00 -2.264760e-04 -7.892663e-05 0.000000e+00 -7.892663e-05 8.419088e-05 0.000000e+00 0.000000e+00 0.000000e+00 0.000000e+00 -1.287373e-04 -9.738120e-05 0.000000e+00 -9.738120e-05 3.532733e-05 0.000000e+00 0.000000e+00 0.000000e+00 0.000000e+00 -3.407511e-05 -6.839989e-05 0.000000e+00 -6.839989e-05 -2.118194e-05 0.000000e+00 0.000000e+00 0.000000e+00 0.000000e+00 2.165466e-05 -9.417336e-05 0.000000e+00 -9.417336e-05 -1.114443e-04 0.000000e+00 0.000000e+00 0.000000e+00 0.000000e+00 1.218184e-05 1.707266e-05 0.000000e+00 1.707266e-05 -1.396821e-05 0.000000e+00 0.000000e+00 0.000000e+00 0.000000e+00 2.067552e-05 6.798372e-06 0.000000e+00 6.798372e-06 -1.612143e-05 0.000000e+00 0.000000e+00 0.000000e+00 0.000000e+00 2.256594e-05 -6.222054e-06 0.000000e+00 -6.222054e-06 -1.210016e-05 0.000000e+00 0.000000e+00 0.000000e+00 0.000000e+00 1.752320e-05 -1.540641e-05 0.000000e+00 -1.540641e-05 2.584689e-07 0.000000e+00 0.000000e+00 0.000000e+00 0.000000e+00 4.454488e-06 -1.290764e-05 0.000000e+00 -1.290764e-05 1.680394e-05 0.000000e+00 0.000000e+00 0.000000e+00 0.000000e+00 -6.661501e-06 4.242318e-06 0.000000e+00 4.242318e-06 3.036485e-05 0.000000e+00 0.000000e+00 0.000000e+00 0.000000e+00 -7.125069e-06 3.298793e-05 0.000000e+00 3.298793e-05 3.738888e-05 0.000000e+00 0.000000e+00 0.000000e+00 0.000000e+00 2.919371e-06 6.842823e-05 0.000000e+00 6.842823e-05 3.546395e-05 0.000000e+00 0.000000e+00 0.000000e+00 0.000000e+00 2.380268e-05 1.044811e-04 0.000000e+00 1.044811e-04 2.445679e-05 0.000000e+00 0.000000e+00 0.000000e+00 0.000000e+00 5.136519e-05 1.315736e-04 0.000000e+00 1.315736e-04 8.959682e-06 0.000000e+00 0.000000e+00 0.000000e+00 0.000000e+00 7.105360e-05 1.482407e-04 0.000000e+00 1.482407e-04 -7.500850e-06 0.000000e+00 0.000000e+00 0.000000e+00 0.000000e+00 7.669231e-05 1.560228e-04 0.000000e+00 1.560228e-04 -1.857203e-05 0.000000e+00 0.000000e+00 0.000000e+00 0.000000e+00 6.742596e-05 1.594743e-04 0.000000e+00 1.594743e-04 -2.071966e-05 0.000000e+00 0.000000e+00 0.000000e+00 0.000000e+00 4.561374e-05 1.605539e-04 0.000000e+00 1.605539e-04 -1.475002e-05 0.000000e+00 0.000000e+00 0.000000e+00 0.000000e+00 1.563588e-05 1.636065e-04 0.000000e+00 1.636065e-04 -4.346224e-06 0.000000e+00 0.000000e+00 0.000000e+00 0.000000e+00 -1.271515e-05 1.696738e-04 0.000000e+00 1.696738e-04 2.857305e-06 0.000000e+00 0.000000e+00 0.000000e+00 0.000000e+00 -2.879681e-05 1.752678e-04 0.000000e+00 1.752678e-04 -1.069874e-06 0.000000e+00 0.000000e+00 0.000000e+00 0.000000e+00 -2.961020e-05 1.733139e-04 0.000000e+00 1.733139e-04 -1.694599e-05 0.000000e+00 0.000000e+00 0.000000e+00 0.000000e+00 -1.840598e-05 1.591700e-04 0.000000e+00 1.591700e-04 -3.677749e-05 0.000000e+00 0.000000e+00 0.000000e+00 0.000000e+00 -3.193995e-06 1.331419e-04 0.000000e+00 1.331419e-04 -5.350023e-05 0.000000e+00 0.000000e+00 0.000000e+00 0.000000e+00 1.156188e-05 1.022161e-04 0.000000e+00 1.022161e-04 -6.593615e-05 0.000000e+00 0.000000e+00 0.000000e+00 0.000000e+00 2.109011e-05 6.652765e-05 0.000000e+00 6.652765e-05 -7.213412e-05 0.000000e+00 0.000000e+00 0.000000e+00 0.000000e+00 1.951023e-05 3.304481e-05 0.000000e+00 3.304481e-05 -6.510064e-05 0.000000e+00 0.000000e+00 0.000000e+00 0.000000e+00 8.565534e-06 9.755446e-06 0.000000e+00 9.755446e-06 -4.716119e-05 0.000000e+00 0.000000e+00 0.000000e+00 0.000000e+00 -2.916729e-06 3.306176e-06 0.000000e+00 3.306176e-06 -2.726470e-05 0.000000e+00 0.000000e+00 0.000000e+00 0.000000e+00 -8.056655e-06 8.633191e-06 0.000000e+00 8.633191e-06 -1.410832e-05 0.000000e+00 0.000000e+00 0.000000e+00 0.000000e+00 -5.459134e-06 1.600131e-05 0.000000e+00 1.600131e-05 -8.752125e-06 0.000000e+00 0.000000e+00 0.000000e+00 0.000000e+00 2.154850e-06 2.008380e-05 0.000000e+00 2.008380e-05 -9.910040e-06 0.000000e+00 0.000000e+00 0.000000e+00 0.000000e+00 1.563753e-04 -3.357039e-05 0.000000e+00 -3.357039e-05 -6.165966e-04 0.000000e+00 0.000000e+00 0.000000e+00 0.000000e+00 1.621913e-04 -1.644572e-05 0.000000e+00 -1.644572e-05 -5.547701e-04 0.000000e+00 0.000000e+00 0.000000e+00 0.000000e+00 1.625528e-04 -1.312537e-05 0.000000e+00 -1.312537e-05 -4.984151e-04 0.000000e+00 0.000000e+00 0.000000e+00 0.000000e+00 1.617915e-04 -1.250563e-05 0.000000e+00 -1.250563e-05 -4.452765e-04 0.000000e+00 0.000000e+00 0.000000e+00 0.000000e+00 1.632042e-04 -1.397125e-05 0.000000e+00 -1.397125e-05 -3.957063e-04 0.000000e+00 0.000000e+00 0.000000e+00 0.000000e+00 1.684862e-04 -1.438307e-05 0.000000e+00 -1.438307e-05 -3.508482e-04 0.000000e+00 0.000000e+00 0.000000e+00 0.000000e+00 1.750372e-04 -1.488029e-05 0.000000e+00 -1.488029e-05 -3.094814e-04 0.000000e+00 0.000000e+00 0.000000e+00 0.000000e+00 1.849338e-04 -1.632636e-05 0.000000e+00 -1.632636e-05 -2.705778e-04 0.000000e+00 0.000000e+00 0.000000e+00 0.000000e+00 1.971554e-04 -1.779701e-05 0.000000e+00 -1.779701e-05 -2.338018e-04 0.000000e+00 0.000000e+00 0.000000e+00 0.000000e+00 2.116865e-04 -2.062997e-05 0.000000e+00 -2.062997e-05 -1.994384e-04 0.000000e+00 0.000000e+00 0.000000e+00 0.000000e+00 2.294448e-04 -2.173499e-05 0.000000e+00 -2.173499e-05 -1.658590e-04 0.000000e+00 0.000000e+00 0.000000e+00 0.000000e+00 2.492302e-04 -2.400524e-05 0.000000e+00 -2.400524e-05 -1.343187e-04 0.000000e+00 0.000000e+00 0.000000e+00 0.000000e+00 2.716528e-04 -2.640249e-05 0.000000e+00 -2.640249e-05 -1.023856e-04 0.000000e+00 0.000000e+00 0.000000e+00 0.000000e+00 2.975291e-04 -2.682389e-05 0.000000e+00 -2.682389e-05 -6.936846e-05 0.000000e+00 0.000000e+00 0.000000e+00 0.000000e+00 3.241038e-04 -2.989931e-05 0.000000e+00 -2.989931e-05 -3.473629e-05 0.000000e+00 0.000000e+00 0.000000e+00 0.000000e+00 3.547647e-04 -3.450639e-05 0.000000e+00 -3.450639e-05 4.729242e-06 0.000000e+00 0.000000e+00 0.000000e+00 0.000000e+00 3.893136e-04 -3.995563e-05 0.000000e+00 -3.995563e-05 4.435108e-05 0.000000e+00 0.000000e+00 0.000000e+00 0.000000e+00 4.297258e-04 -4.279833e-05 0.000000e+00 -4.279833e-05 8.927346e-05 0.000000e+00 0.000000e+00 0.000000e+00 0.000000e+00 4.747555e-04 -4.734828e-05 0.000000e+00 -4.734828e-05 1.414984e-04 0.000000e+00 0.000000e+00 0.000000e+00 0.000000e+00 5.273115e-04 -6.559677e-05 0.000000e+00 -6.559677e-05 2.050802e-04 0.000000e+00 0.000000e+00 0.000000e+00 0.000000e+00 5.976230e-04 -8.247717e-05 0.000000e+00 -8.247717e-05 2.824602e-04 0.000000e+00 0.000000e+00 0.000000e+00 0.000000e+00 6.880789e-04 -1.106388e-04 0.000000e+00 -1.106388e-04 3.932630e-04 0.000000e+00 0.000000e+00 0.000000e+00 0.000000e+00 7.756532e-04 -1.973456e-04 0.000000e+00 -1.973456e-04 5.857798e-04 0.000000e+00 0.000000e+00 0.000000e+00 0.000000e+00 7.465020e-04 -3.194171e-04 0.000000e+00 -3.194171e-04 1.054515e-03 0.000000e+00 0.000000e+00 0.000000e+00 0.000000e+00 3.821795e-04 9.114770e-05 0.000000e+00 9.114770e-05 -1.087356e-04 0.000000e+00 0.000000e+00 0.000000e+00 0.000000e+00 2.677202e-04 4.594357e-05 0.000000e+00 4.594357e-05 -7.643979e-05 0.000000e+00 0.000000e+00 0.000000e+00 0.000000e+00 2.011486e-04 4.076631e-05 0.000000e+00 4.076631e-05 -6.065719e-05 0.000000e+00 0.000000e+00 0.000000e+00 0.000000e+00 1.498905e-04 4.441115e-05 0.000000e+00 4.441115e-05 -4.793063e-05 0.000000e+00 0.000000e+00 0.000000e+00 0.000000e+00 1.273359e-04 7.158508e-05 0.000000e+00 7.158508e-05 -2.118238e-05 0.000000e+00 0.000000e+00 0.000000e+00 0.000000e+00 9.792940e-05 6.164294e-05 0.000000e+00 6.164294e-05 -2.300620e-05 0.000000e+00 0.000000e+00 0.000000e+00 0.000000e+00 1.419989e-05 4.161418e-05 0.000000e+00 4.161418e-05 3.768109e-06 0.000000e+00 0.000000e+00 0.000000e+00 0.000000e+00 -2.610031e-05 -1.491329e-06 0.000000e+00 -1.491329e-06 1.343561e-05 0.000000e+00 0.000000e+00 0.000000e+00 0.000000e+00 -6.913836e-06 -1.200495e-05 0.000000e+00 -1.200495e-05 -5.736393e-08 0.000000e+00 0.000000e+00 0.000000e+00 0.000000e+00 8.315641e-06 -4.369736e-06 0.000000e+00 -4.369736e-06 -1.505602e-05 0.000000e+00 0.000000e+00 0.000000e+00 0.000000e+00 5.374739e-06 9.618339e-06 0.000000e+00 9.618339e-06 -1.079749e-05 0.000000e+00 0.000000e+00 0.000000e+00 0.000000e+00 -3.878438e-06 8.437038e-06 0.000000e+00 8.437038e-06 3.536536e-06 0.000000e+00 0.000000e+00 0.000000e+00 0.000000e+00 -4.326663e-06 -1.566190e-06 0.000000e+00 -1.566190e-06 6.328848e-06 0.000000e+00 0.000000e+00 0.000000e+00 0.000000e+00 -1.636806e-04 7.131265e-05 0.000000e+00 7.131265e-05 4.905210e-05 0.000000e+00 0.000000e+00 0.000000e+00 0.000000e+00 -4.692797e-06 1.586150e-05 0.000000e+00 1.586150e-05 -5.922161e-06 0.000000e+00 0.000000e+00 0.000000e+00 0.000000e+00 -6.490518e-05 5.028769e-05 0.000000e+00 5.028769e-05 1.283011e-05 0.000000e+00 0.000000e+00 0.000000e+00 0.000000e+00 -2.605589e-04 4.997462e-05 0.000000e+00 4.997462e-05 8.871265e-05 0.000000e+00 0.000000e+00 0.000000e+00 0.000000e+00 -2.704455e-04 -3.621700e-05 0.000000e+00 -3.621700e-05 1.068050e-04 0.000000e+00 0.000000e+00 0.000000e+00 0.000000e+00 5.604510e-05 -1.076873e-04 0.000000e+00 -1.076873e-04 -2.019562e-04 0.000000e+00 0.000000e+00 0.000000e+00 0.000000e+00 1.683911e-04 -2.406826e-05 0.000000e+00 -2.406826e-05 -5.159840e-04 0.000000e+00 0.000000e+00 0.000000e+00 0.000000e+00 1.632521e-04 -2.376656e-05 0.000000e+00 -2.376656e-05 -4.594941e-04 0.000000e+00 0.000000e+00 0.000000e+00 0.000000e+00 1.751804e-04 -3.314823e-05 0.000000e+00 -3.314823e-05 -2.971408e-04 0.000000e+00 0.000000e+00 0.000000e+00 0.000000e+00 1.698705e-04 -2.907651e-05 0.000000e+00 -2.907651e-05 -3.405002e-04 0.000000e+00 0.000000e+00 0.000000e+00 0.000000e+00 1.648340e-04 -2.399543e-05 0.000000e+00 -2.399543e-05 -4.868405e-04 0.000000e+00 0.000000e+00 0.000000e+00 0.000000e+00 1.717977e-04 -3.002206e-05 0.000000e+00 -3.002206e-05 -3.180086e-04 0.000000e+00 0.000000e+00 0.000000e+00 0.000000e+00 1.666829e-04 -3.033298e-05 0.000000e+00 -3.033298e-05 -3.610659e-04 0.000000e+00 0.000000e+00 0.000000e+00 0.000000e+00 2.309548e-04 -4.336333e-05 0.000000e+00 -4.336333e-05 -1.565479e-04 0.000000e+00 0.000000e+00 0.000000e+00 0.000000e+00 2.136752e-04 -4.286947e-05 0.000000e+00 -4.286947e-05 -1.901735e-04 0.000000e+00 0.000000e+00 0.000000e+00 0.000000e+00 6.051258e-04 -2.111003e-04 0.000000e+00 -2.111003e-04 4.705413e-04 0.000000e+00 0.000000e+00 0.000000e+00 0.000000e+00 2.233105e-04 -4.311081e-05 0.000000e+00 -4.311081e-05 -1.737066e-04 0.000000e+00 0.000000e+00 0.000000e+00 0.000000e+00 2.052253e-04 -4.149993e-05 0.000000e+00 -4.149993e-05 -2.072751e-04 0.000000e+00 0.000000e+00 0.000000e+00 0.000000e+00 2.733305e-04 -5.423573e-05 0.000000e+00 -5.423573e-05 -9.174387e-05 0.000000e+00 0.000000e+00 0.000000e+00 0.000000e+00 3.000306e-04 -5.532685e-05 0.000000e+00 -5.532685e-05 -5.870506e-05 0.000000e+00 0.000000e+00 0.000000e+00 0.000000e+00 2.857920e-04 -5.529960e-05 0.000000e+00 -5.529960e-05 -7.551805e-05 0.000000e+00 0.000000e+00 0.000000e+00 0.000000e+00 2.607327e-04 -5.262027e-05 0.000000e+00 -5.262027e-05 -1.085179e-04 0.000000e+00 0.000000e+00 0.000000e+00 0.000000e+00 3.398983e-04 -6.858303e-05 0.000000e+00 -6.858303e-05 -1.914616e-06 0.000000e+00 0.000000e+00 0.000000e+00 0.000000e+00 4.289358e-04 -8.725705e-05 0.000000e+00 -8.725705e-05 1.127945e-04 0.000000e+00 0.000000e+00 0.000000e+00 0.000000e+00 3.716811e-04 -7.609673e-05 0.000000e+00 -7.609673e-05 4.142038e-05 0.000000e+00 0.000000e+00 0.000000e+00 0.000000e+00 4.055100e-04 -8.558345e-05 0.000000e+00 -8.558345e-05 8.906944e-05 0.000000e+00 0.000000e+00 0.000000e+00 0.000000e+00 5.613447e-04 -1.625585e-04 0.000000e+00 -1.625585e-04 3.415044e-04 0.000000e+00 0.000000e+00 0.000000e+00 0.000000e+00 5.063940e-04 -1.328865e-04 0.000000e+00 -1.328865e-04 2.430771e-04 0.000000e+00 0.000000e+00 0.000000e+00 0.000000e+00 3.864648e-04 -8.191107e-05 0.000000e+00 -8.191107e-05 6.452327e-05 0.000000e+00 0.000000e+00 0.000000e+00 0.000000e+00 5.297890e-04 -1.497329e-04 0.000000e+00 -1.497329e-04 2.901811e-04 0.000000e+00 0.000000e+00 0.000000e+00 0.000000e+00 4.835420e-04 -1.161371e-04 0.000000e+00 -1.161371e-04 1.997639e-04 0.000000e+00 0.000000e+00 0.000000e+00 0.000000e+00 6.122572e-04 -1.728438e-04 0.000000e+00 -1.728438e-04 3.867746e-04 0.000000e+00 0.000000e+00 0.000000e+00 0.000000e+00 2.538353e-04 9.427109e-05 0.000000e+00 9.427109e-05 -6.447609e-05 0.000000e+00 0.000000e+00 0.000000e+00 0.000000e+00 2.834732e-04 -1.076502e-04 0.000000e+00 -1.076502e-04 1.271852e-03 0.000000e+00 0.000000e+00 0.000000e+00 0.000000e+00 1.920241e-04 7.377363e-05 0.000000e+00 7.377363e-05 -5.771772e-05 0.000000e+00 0.000000e+00 0.000000e+00 0.000000e+00 2.976233e-04 1.214183e-04 0.000000e+00 1.214183e-04 -6.134585e-05 0.000000e+00 0.000000e+00 0.000000e+00 0.000000e+00 3.506894e-04 1.862789e-04 0.000000e+00 1.862789e-04 -4.146068e-05 0.000000e+00 0.000000e+00 0.000000e+00 0.000000e+00 4.641425e-04 -2.741760e-04 0.000000e+00 -2.741760e-04 9.885769e-04 0.000000e+00 0.000000e+00 0.000000e+00 0.000000e+00 2.192404e-04 8.110779e-05 0.000000e+00 8.110779e-05 -6.138818e-05 0.000000e+00 0.000000e+00 0.000000e+00 0.000000e+00 5.745701e-04 2.924579e-04 0.000000e+00 2.924579e-04 -1.183714e-04 0.000000e+00 0.000000e+00 0.000000e+00 0.000000e+00 7.803877e-05 9.666442e-05 0.000000e+00 9.666442e-05 -1.168775e-05 0.000000e+00 0.000000e+00 0.000000e+00 0.000000e+00 1.545611e-04 6.469880e-05 0.000000e+00 6.469880e-05 -4.831837e-05 0.000000e+00 0.000000e+00 0.000000e+00 0.000000e+00 1.036101e-04 8.917669e-05 0.000000e+00 8.917669e-05 -1.583565e-05 0.000000e+00 0.000000e+00 0.000000e+00 0.000000e+00 -2.125030e-06 -5.798316e-07 0.000000e+00 -5.798316e-07 -7.271358e-06 0.000000e+00 0.000000e+00 0.000000e+00 0.000000e+00 4.655011e-05 9.326365e-05 0.000000e+00 9.326365e-05 2.087033e-06 0.000000e+00 0.000000e+00 0.000000e+00 0.000000e+00 -5.863799e-06 6.493870e-06 0.000000e+00 6.493870e-06 -1.035513e-06 0.000000e+00 0.000000e+00 0.000000e+00 0.000000e+00 1.154571e-05 1.005544e-05 0.000000e+00 1.005544e-05 -1.417495e-05 0.000000e+00 0.000000e+00 0.000000e+00 0.000000e+00 -7.331959e-06 -9.037675e-06 0.000000e+00 -9.037675e-06 1.221685e-05 0.000000e+00 0.000000e+00 0.000000e+00 0.000000e+00 4.570322e-09 -1.609555e-05 0.000000e+00 -1.609555e-05 -5.849884e-08 0.000000e+00 0.000000e+00 0.000000e+00 0.000000e+00 1.740944e-04 -3.093887e-05 0.000000e+00 -3.093887e-05 -5.774746e-04 0.000000e+00 0.000000e+00 0.000000e+00 0.000000e+00 6.834495e-06 -1.200393e-05 0.000000e+00 -1.200393e-05 -8.486748e-06 0.000000e+00 0.000000e+00 0.000000e+00 0.000000e+00 1.439279e-05 -2.344940e-06 0.000000e+00 -2.344940e-06 -1.410550e-05 0.000000e+00 0.000000e+00 0.000000e+00 0.000000e+00 -7.185780e-05 9.603965e-05 0.000000e+00 9.603965e-05 1.131479e-05 0.000000e+00 0.000000e+00 0.000000e+00 0.000000e+00 -4.586998e-06 1.707273e-06 0.000000e+00 1.707273e-06 -3.871375e-06 0.000000e+00 0.000000e+00 0.000000e+00 0.000000e+00 -3.949828e-05 7.130146e-05 0.000000e+00 7.130146e-05 -2.827922e-06 0.000000e+00 0.000000e+00 0.000000e+00 0.000000e+00 -1.051052e-04 1.169531e-04 0.000000e+00 1.169531e-04 2.906160e-05 0.000000e+00 0.000000e+00 0.000000e+00 0.000000e+00 -1.028116e-07 4.002526e-07 0.000000e+00 4.002526e-07 -7.060531e-06 0.000000e+00 0.000000e+00 0.000000e+00 0.000000e+00 -1.747182e-04 9.822492e-05 0.000000e+00 9.822492e-05 7.166916e-05 0.000000e+00 0.000000e+00 0.000000e+00 0.000000e+00 -1.926237e-04 -1.084142e-04 0.000000e+00 -1.084142e-04 1.114845e-04 0.000000e+00 0.000000e+00 0.000000e+00 0.000000e+00 -1.510720e-05 4.369225e-05 0.000000e+00 4.369225e-05 -1.193044e-05 0.000000e+00 0.000000e+00 0.000000e+00 0.000000e+00 -1.430977e-04 1.147150e-04 0.000000e+00 1.147150e-04 5.088083e-05 0.000000e+00 0.000000e+00 0.000000e+00 0.000000e+00 -1.411852e-04 -1.532697e-04 0.000000e+00 -1.532697e-04 6.485003e-05 0.000000e+00 0.000000e+00 0.000000e+00 0.000000e+00 1.385531e-05 -1.703054e-04 0.000000e+00 -1.703054e-04 -1.155263e-04 0.000000e+00 0.000000e+00 0.000000e+00 0.000000e+00 -7.599315e-05 -1.599469e-04 0.000000e+00 -1.599469e-04 3.614718e-06 0.000000e+00 0.000000e+00 0.000000e+00 0.000000e+00 1.710028e-04 -2.573264e-05 0.000000e+00 -2.573264e-05 -5.456358e-04 0.000000e+00 0.000000e+00 0.000000e+00 0.000000e+00 3.562563e-04 -7.107648e-05 0.000000e+00 -7.107648e-05 1.866000e-05 0.000000e+00 0.000000e+00 0.000000e+00 0.000000e+00 3.455441e-04 5.505761e-04 0.000000e+00 5.505761e-04 1.211247e-03 0.000000e+00 0.000000e+00 0.000000e+00 0.000000e+00 -2.056470e-06 1.789842e-05 0.000000e+00 1.789842e-05 -1.488686e-05 0.000000e+00 0.000000e+00 0.000000e+00 0.000000e+00 9.820711e-05 -8.234787e-05 0.000000e+00 -8.234787e-05 -3.126649e-04 0.000000e+00 0.000000e+00 0.000000e+00 0.000000e+00 1.859939e-04 -3.376002e-05 0.000000e+00 -3.376002e-05 -2.603129e-04 0.000000e+00 0.000000e+00 0.000000e+00 0.000000e+00 1.405531e-05 -1.352535e-05 0.000000e+00 -1.352535e-05 -7.393396e-06 0.000000e+00 0.000000e+00 0.000000e+00 0.000000e+00 6.842941e-06 -1.698730e-05 0.000000e+00 -1.698730e-05 4.261394e-06 0.000000e+00 0.000000e+00 0.000000e+00 0.000000e+00 -1.100292e-05 1.096841e-05 0.000000e+00 1.096841e-05 1.969551e-05 0.000000e+00 0.000000e+00 0.000000e+00 0.000000e+00 1.837710e-05 7.106368e-05 0.000000e+00 7.106368e-05 1.619960e-05 0.000000e+00 0.000000e+00 0.000000e+00 0.000000e+00 7.186590e-05 1.259289e-04 0.000000e+00 1.259289e-04 -6.810275e-06 0.000000e+00 0.000000e+00 0.000000e+00 0.000000e+00 8.404222e-05 1.514576e-04 0.000000e+00 1.514576e-04 -2.208400e-05 0.000000e+00 0.000000e+00 0.000000e+00 0.000000e+00 3.139966e-05 1.634413e-04 0.000000e+00 1.634413e-04 -4.154063e-06 0.000000e+00 0.000000e+00 0.000000e+00 0.000000e+00 -3.227564e-05 1.707658e-04 0.000000e+00 1.707658e-04 1.242582e-05 0.000000e+00 0.000000e+00 0.000000e+00 0.000000e+00 -4.572988e-05 1.678633e-04 0.000000e+00 1.678633e-04 5.924223e-06 0.000000e+00 0.000000e+00 0.000000e+00 0.000000e+00 -4.400114e-05 1.557913e-04 0.000000e+00 1.557913e-04 -8.721844e-06 0.000000e+00 0.000000e+00 0.000000e+00 0.000000e+00 -3.000800e-05 1.351652e-04 0.000000e+00 1.351652e-04 -2.472938e-05 0.000000e+00 0.000000e+00 0.000000e+00 0.000000e+00 2.602984e-06 7.502998e-05 0.000000e+00 7.502998e-05 -4.806824e-05 0.000000e+00 0.000000e+00 0.000000e+00 0.000000e+00 1.062237e-05 4.394805e-05 0.000000e+00 4.394805e-05 -4.964609e-05 0.000000e+00 0.000000e+00 0.000000e+00 0.000000e+00 7.066590e-06 1.710544e-05 0.000000e+00 1.710544e-05 -3.922426e-05 0.000000e+00 0.000000e+00 0.000000e+00 0.000000e+00 -6.165804e-06 5.247753e-06 0.000000e+00 5.247753e-06 -1.170403e-05 0.000000e+00 0.000000e+00 0.000000e+00 0.000000e+00 -5.947576e-06 1.118133e-05 0.000000e+00 1.118133e-05 -5.318714e-06 0.000000e+00 0.000000e+00 0.000000e+00 0.000000e+00 6.139914e-04 5.743614e-04 0.000000e+00 5.743614e-04 3.289836e-04 0.000000e+00 0.000000e+00 0.000000e+00 0.000000e+00 3.706301e-04 3.109951e-04 0.000000e+00 3.109951e-04 6.425656e-05 0.000000e+00 0.000000e+00 0.000000e+00 0.000000e+00 7.961033e-05 -1.514839e-04 0.000000e+00 -1.514839e-04 -2.467285e-04 0.000000e+00 0.000000e+00 0.000000e+00 0.000000e+00 3.902226e-04 4.759141e-04 0.000000e+00 4.759141e-04 2.697654e-04 0.000000e+00 0.000000e+00 0.000000e+00 0.000000e+00 1.961106e-04 -4.795626e-05 0.000000e+00 -4.795626e-05 -6.584625e-04 0.000000e+00 0.000000e+00 0.000000e+00 0.000000e+00 1.616342e-04 -2.803748e-05 0.000000e+00 -2.803748e-05 -4.065779e-04 0.000000e+00 0.000000e+00 0.000000e+00 0.000000e+00 2.406591e-04 -4.682652e-05 0.000000e+00 -4.682652e-05 -1.404340e-04 0.000000e+00 0.000000e+00 0.000000e+00 0.000000e+00 1.823503e-04 -3.441589e-05 0.000000e+00 -3.441589e-05 -2.799829e-04 0.000000e+00 0.000000e+00 0.000000e+00 0.000000e+00 3.100334e-04 -5.947434e-05 0.000000e+00 -5.947434e-05 -3.997800e-05 0.000000e+00 0.000000e+00 0.000000e+00 0.000000e+00 4.529904e-04 -8.304633e-05 0.000000e+00 -8.304633e-05 1.329243e-04 0.000000e+00 0.000000e+00 0.000000e+00 0.000000e+00 1.508369e-04 2.718317e-04 0.000000e+00 2.718317e-04 1.282930e-03 0.000000e+00 0.000000e+00 0.000000e+00 0.000000e+00 1.707390e-04 6.925248e-05 0.000000e+00 6.925248e-05 -5.432690e-05 0.000000e+00 0.000000e+00 0.000000e+00 0.000000e+00 6.013228e-04 -2.532022e-04 0.000000e+00 -2.532022e-04 5.882679e-04 0.000000e+00 0.000000e+00 0.000000e+00 0.000000e+00 -1.991795e-04 6.619031e-05 0.000000e+00 6.619031e-05 9.420036e-05 0.000000e+00 0.000000e+00 0.000000e+00 0.000000e+00 1.401592e-04 7.703809e-05 0.000000e+00 7.703809e-05 -3.620627e-05 0.000000e+00 0.000000e+00 0.000000e+00 0.000000e+00 9.364767e-05 -9.416245e-05 0.000000e+00 -9.416245e-05 -3.384814e-04 0.000000e+00 0.000000e+00 0.000000e+00 0.000000e+00 4.483699e-05 -1.791678e-04 0.000000e+00 -1.791678e-04 -1.681270e-04 0.000000e+00 0.000000e+00 0.000000e+00 0.000000e+00 1.613708e-04 -2.531915e-05 0.000000e+00 -2.531915e-05 -4.314223e-04 0.000000e+00 0.000000e+00 0.000000e+00 0.000000e+00 -1.999209e-04 -4.995719e-05 0.000000e+00 -4.995719e-05 1.262328e-04 0.000000e+00 0.000000e+00 0.000000e+00 0.000000e+00 2.861075e-04 5.104946e-04 0.000000e+00 5.104946e-04 7.125699e-04 0.000000e+00 0.000000e+00 0.000000e+00 0.000000e+00 -2.372291e-05 -1.498961e-04 0.000000e+00 -1.498961e-04 -5.188190e-05 0.000000e+00 0.000000e+00 0.000000e+00 0.000000e+00 4.655100e-06 1.669439e-05 0.000000e+00 1.669439e-05 -9.381635e-06 0.000000e+00 0.000000e+00 0.000000e+00 0.000000e+00 1.931662e-04 -3.506956e-05 0.000000e+00 -3.506956e-05 -2.422102e-04 0.000000e+00 0.000000e+00 0.000000e+00 0.000000e+00 -2.083356e-06 1.617442e-05 0.000000e+00 1.617442e-05 -4.577128e-06 0.000000e+00 0.000000e+00 0.000000e+00 0.000000e+00 -6.620074e-07 4.313682e-06 0.000000e+00 4.313682e-06 -2.169038e-05 0.000000e+00 0.000000e+00 0.000000e+00 0.000000e+00 -1.218887e-05 1.068679e-04 0.000000e+00 1.068679e-04 -3.828841e-05 0.000000e+00 0.000000e+00 0.000000e+00 0.000000e+00 -6.281192e-05 1.312236e-04 0.000000e+00 1.312236e-04 3.543658e-06 0.000000e+00 0.000000e+00 0.000000e+00 0.000000e+00 -4.216842e-06 1.677321e-04 0.000000e+00 1.677321e-04 7.783717e-06 0.000000e+00 0.000000e+00 0.000000e+00 0.000000e+00 6.422090e-05 1.587246e-04 0.000000e+00 1.587246e-04 -1.641486e-05 0.000000e+00 0.000000e+00 0.000000e+00 0.000000e+00 8.757567e-05 1.388067e-04 0.000000e+00 1.388067e-04 -1.850054e-05 0.000000e+00 0.000000e+00 0.000000e+00 0.000000e+00 -1.682978e-06 4.065065e-05 0.000000e+00 4.065065e-05 2.126687e-05 0.000000e+00 0.000000e+00 0.000000e+00 0.000000e+00 1.812520e-04 -3.938920e-05 0.000000e+00 -3.938920e-05 -6.146753e-04 0.000000e+00 0.000000e+00 0.000000e+00 0.000000e+00 1.634990e-04 -2.962348e-05 0.000000e+00 -2.962348e-05 -3.826870e-04 0.000000e+00 0.000000e+00 0.000000e+00 0.000000e+00 1.979989e-04 -3.847108e-05 0.000000e+00 -3.847108e-05 -2.239331e-04 0.000000e+00 0.000000e+00 0.000000e+00 0.000000e+00 2.503783e-04 -4.988420e-05 0.000000e+00 -4.988420e-05 -1.250317e-04 0.000000e+00 0.000000e+00 0.000000e+00 0.000000e+00 3.235414e-04 -6.486630e-05 0.000000e+00 -6.486630e-05 -2.096727e-05 0.000000e+00 0.000000e+00 0.000000e+00 0.000000e+00 4.654940e-04 -1.003875e-04 0.000000e+00 -1.003875e-04 1.624497e-04 0.000000e+00 0.000000e+00 0.000000e+00 0.000000e+00 5.613487e-04 -2.873365e-04 0.000000e+00 -2.873365e-04 7.593602e-04 0.000000e+00 0.000000e+00 0.000000e+00 0.000000e+00 -2.139687e-04 1.424993e-05 0.000000e+00 1.424993e-05 1.170305e-04 0.000000e+00 0.000000e+00 0.000000e+00 0.000000e+00 1.089264e-04 -1.193785e-04 0.000000e+00 -1.193785e-04 -3.484987e-04 0.000000e+00 0.000000e+00 0.000000e+00 0.000000e+00 8.803658e-05 -1.623846e-04 0.000000e+00 -1.623846e-04 -2.684136e-04 0.000000e+00 0.000000e+00 0.000000e+00 0.000000e+00 1.328865e-04 -4.844750e-05 0.000000e+00 -4.844750e-05 -4.498984e-04 0.000000e+00 0.000000e+00 0.000000e+00 0.000000e+00 1.127931e-04 -1.525761e-04 0.000000e+00 -1.525761e-04 -3.125368e-04 0.000000e+00 0.000000e+00 0.000000e+00 0.000000e+00 1.352923e-04 -1.032883e-04 0.000000e+00 -1.032883e-04 -4.054393e-04 0.000000e+00 0.000000e+00 0.000000e+00 0.000000e+00 1.707561e-04 -3.207411e-05 0.000000e+00 -3.207411e-05 -5.061056e-04 0.000000e+00 0.000000e+00 0.000000e+00 0.000000e+00 2.042304e-04 -6.615615e-05 0.000000e+00 -6.615615e-05 -1.962723e-04 0.000000e+00 0.000000e+00 0.000000e+00 0.000000e+00 4.444184e-04 -1.720886e-04 0.000000e+00 -1.720886e-04 2.405064e-04 0.000000e+00 0.000000e+00 0.000000e+00 0.000000e+00 2.586909e-04 -8.343848e-05 0.000000e+00 -8.343848e-05 -9.553584e-05 0.000000e+00 0.000000e+00 0.000000e+00 0.000000e+00 -1.501691e-04 6.832444e-05 0.000000e+00 6.832444e-05 1.229370e-04 0.000000e+00 0.000000e+00 0.000000e+00 0.000000e+00 3.985453e-04 -1.349387e-04 0.000000e+00 -1.349387e-04 1.226664e-04 0.000000e+00 0.000000e+00 0.000000e+00 0.000000e+00 2.140195e-04 1.316036e-04 0.000000e+00 1.316036e-04 -4.233436e-05 0.000000e+00 0.000000e+00 0.000000e+00 0.000000e+00 1.757300e-04 -5.680846e-05 0.000000e+00 -5.680846e-05 -2.838372e-04 0.000000e+00 0.000000e+00 0.000000e+00 0.000000e+00 2.407604e-04 1.591390e-04 0.000000e+00 1.591390e-04 -2.863420e-05 0.000000e+00 0.000000e+00 0.000000e+00 0.000000e+00 1.171610e-04 9.585865e-05 0.000000e+00 9.585865e-05 -2.408523e-05 0.000000e+00 0.000000e+00 0.000000e+00 0.000000e+00 1.732048e-04 9.837162e-05 0.000000e+00 9.837162e-05 -5.104883e-05 0.000000e+00 0.000000e+00 0.000000e+00 0.000000e+00 8.448768e-05 2.137575e-04 0.000000e+00 2.137575e-04 1.098265e-03 0.000000e+00 0.000000e+00 0.000000e+00 0.000000e+00 1.570912e-04 8.732881e-05 0.000000e+00 8.732881e-05 -4.757047e-05 0.000000e+00 0.000000e+00 0.000000e+00 0.000000e+00 2.716085e-04 2.020981e-04 0.000000e+00 2.020981e-04 -1.074595e-06 0.000000e+00 0.000000e+00 0.000000e+00 0.000000e+00 1.670356e-04 -8.692475e-05 0.000000e+00 -8.692475e-05 1.071734e-03 0.000000e+00 0.000000e+00 0.000000e+00 0.000000e+00 1.936379e-04 1.120570e-04 0.000000e+00 1.120570e-04 -4.914219e-05 0.000000e+00 0.000000e+00 0.000000e+00 0.000000e+00 1.714931e-04 4.086342e-04 0.000000e+00 4.086342e-04 5.961382e-04 0.000000e+00 0.000000e+00 0.000000e+00 0.000000e+00 -1.653024e-04 -9.177084e-05 0.000000e+00 -9.177084e-05 1.537174e-04 0.000000e+00 0.000000e+00 0.000000e+00 0.000000e+00 -3.877735e-05 1.062401e-04 0.000000e+00 1.062401e-04 -1.158372e-05 0.000000e+00 0.000000e+00 0.000000e+00 0.000000e+00 -1.273099e-04 1.139266e-04 0.000000e+00 1.139266e-04 8.509421e-05 0.000000e+00 0.000000e+00 0.000000e+00 0.000000e+00 5.504897e-05 -2.065167e-04 0.000000e+00 -2.065167e-04 -1.697358e-04 0.000000e+00 0.000000e+00 0.000000e+00 0.000000e+00 1.607190e-04 -3.901849e-05 0.000000e+00 -3.901849e-05 -4.202426e-04 0.000000e+00 0.000000e+00 0.000000e+00 0.000000e+00 1.654869e-04 -4.555511e-05 0.000000e+00 -4.555511e-05 -3.473312e-04 0.000000e+00 0.000000e+00 0.000000e+00 0.000000e+00 -8.842782e-05 -2.025998e-04 0.000000e+00 -2.025998e-04 3.909228e-05 0.000000e+00 0.000000e+00 0.000000e+00 0.000000e+00 9.330986e-05 1.159944e-04 0.000000e+00 1.159944e-04 -1.565262e-05 0.000000e+00 0.000000e+00 0.000000e+00 0.000000e+00 2.707508e-04 2.714744e-04 0.000000e+00 2.714744e-04 9.086465e-05 0.000000e+00 0.000000e+00 0.000000e+00 0.000000e+00 -1.745175e-05 7.700936e-05 0.000000e+00 7.700936e-05 -2.383240e-05 0.000000e+00 0.000000e+00 0.000000e+00 0.000000e+00 -3.068942e-05 1.684732e-04 0.000000e+00 1.684732e-04 2.239708e-05 0.000000e+00 0.000000e+00 0.000000e+00 0.000000e+00 5.145451e-05 1.625333e-04 0.000000e+00 1.625333e-04 -4.647043e-06 0.000000e+00 0.000000e+00 0.000000e+00 0.000000e+00 8.319454e-06 -2.143674e-04 0.000000e+00 -2.143674e-04 -9.379205e-05 0.000000e+00 0.000000e+00 0.000000e+00 0.000000e+00 -3.398020e-05 -2.008304e-04 0.000000e+00 -2.008304e-04 -3.363830e-05 0.000000e+00 0.000000e+00 0.000000e+00 0.000000e+00 9.810058e-05 1.393969e-04 0.000000e+00 1.393969e-04 -2.560402e-05 0.000000e+00 0.000000e+00 0.000000e+00 0.000000e+00 8.877087e-05 1.520790e-04 0.000000e+00 1.520790e-04 -1.985574e-05 0.000000e+00 0.000000e+00 0.000000e+00 0.000000e+00 8.480631e-06 1.677765e-04 0.000000e+00 1.677765e-04 1.107778e-05 0.000000e+00 0.000000e+00 0.000000e+00 0.000000e+00 -5.883879e-05 1.644501e-04 0.000000e+00 1.644501e-04 2.370930e-05 0.000000e+00 0.000000e+00 0.000000e+00 0.000000e+00 -6.948562e-05 1.500625e-04 0.000000e+00 1.500625e-04 1.530198e-05 0.000000e+00 0.000000e+00 0.000000e+00 0.000000e+00 -2.603949e-06 4.761413e-05 0.000000e+00 4.761413e-05 -3.131900e-05 0.000000e+00 0.000000e+00 0.000000e+00 0.000000e+00 3.664499e-06 2.548513e-05 0.000000e+00 2.548513e-05 -3.151634e-05 0.000000e+00 0.000000e+00 0.000000e+00 0.000000e+00 1.350670e-04 -1.316903e-04 0.000000e+00 -1.316903e-04 -3.637545e-04 0.000000e+00 0.000000e+00 0.000000e+00 0.000000e+00 8.889877e-05 -1.966439e-04 0.000000e+00 -1.966439e-04 -2.245665e-04 0.000000e+00 0.000000e+00 0.000000e+00 0.000000e+00 -1.344869e-04 -1.670550e-04 0.000000e+00 -1.670550e-04 1.138184e-04 0.000000e+00 0.000000e+00 0.000000e+00 0.000000e+00 1.633557e-04 -3.365134e-05 0.000000e+00 -3.365134e-05 -4.692396e-04 0.000000e+00 0.000000e+00 0.000000e+00 0.000000e+00 3.174559e-04 -1.018513e-04 0.000000e+00 -1.018513e-04 -5.119248e-06 0.000000e+00 0.000000e+00 0.000000e+00 0.000000e+00 1.975971e-04 -6.136733e-05 0.000000e+00 -6.136733e-05 -2.162050e-04 0.000000e+00 0.000000e+00 0.000000e+00 0.000000e+00 1.728276e-04 -4.834119e-05 0.000000e+00 -4.834119e-05 -3.080651e-04 0.000000e+00 0.000000e+00 0.000000e+00 0.000000e+00 2.312555e-04 -6.806116e-05 0.000000e+00 -6.806116e-05 -1.484206e-04 0.000000e+00 0.000000e+00 0.000000e+00 0.000000e+00 3.731453e-04 -1.311016e-04 0.000000e+00 -1.311016e-04 9.651439e-05 0.000000e+00 0.000000e+00 0.000000e+00 0.000000e+00 4.305764e-04 -1.537184e-04 0.000000e+00 -1.537184e-04 1.912049e-04 0.000000e+00 0.000000e+00 0.000000e+00 0.000000e+00 3.130168e-04 -2.365911e-04 0.000000e+00 -2.365911e-04 8.941227e-04 0.000000e+00 0.000000e+00 0.000000e+00 0.000000e+00 4.647752e-04 -2.166310e-04 0.000000e+00 -2.166310e-04 3.642883e-04 0.000000e+00 0.000000e+00 0.000000e+00 0.000000e+00 2.821947e-04 -8.434084e-05 0.000000e+00 -8.434084e-05 -5.968736e-05 0.000000e+00 0.000000e+00 0.000000e+00 0.000000e+00 3.624161e-04 -1.193988e-04 0.000000e+00 -1.193988e-04 6.682390e-05 0.000000e+00 0.000000e+00 0.000000e+00 0.000000e+00 2.223118e-04 -6.467565e-05 0.000000e+00 -6.467565e-05 -1.627602e-04 0.000000e+00 0.000000e+00 0.000000e+00 0.000000e+00 4.964935e-04 -2.304530e-04 0.000000e+00 -2.304530e-04 4.390955e-04 0.000000e+00 0.000000e+00 0.000000e+00 0.000000e+00 1.626282e-04 -3.529432e-05 0.000000e+00 -3.529432e-05 -4.453308e-04 0.000000e+00 0.000000e+00 0.000000e+00 0.000000e+00 2.171048e-04 3.829241e-04 0.000000e+00 3.829241e-04 3.500129e-04 0.000000e+00 0.000000e+00 0.000000e+00 0.000000e+00 4.542245e-04 -1.969652e-04 0.000000e+00 -1.969652e-04 3.015033e-04 0.000000e+00 0.000000e+00 0.000000e+00 0.000000e+00 -1.114195e-04 1.372832e-04 0.000000e+00 1.372832e-04 5.663974e-05 0.000000e+00 0.000000e+00 0.000000e+00 0.000000e+00 1.601650e-04 -4.563671e-05 0.000000e+00 -4.563671e-05 -3.909711e-04 0.000000e+00 0.000000e+00 0.000000e+00 0.000000e+00 3.504954e-04 -1.094902e-04 0.000000e+00 -1.094902e-04 3.887312e-05 0.000000e+00 0.000000e+00 0.000000e+00 0.000000e+00 6.650357e-07 7.749921e-06 0.000000e+00 7.749921e-06 -2.028789e-05 0.000000e+00 0.000000e+00 0.000000e+00 0.000000e+00 4.287108e-04 -1.280923e-04 0.000000e+00 -1.280923e-04 1.476287e-04 0.000000e+00 0.000000e+00 0.000000e+00 0.000000e+00 1.087903e-04 1.210805e-04 0.000000e+00 1.210805e-04 -2.558796e-05 0.000000e+00 0.000000e+00 0.000000e+00 0.000000e+00 2.471594e-04 -7.986937e-05 0.000000e+00 -7.986937e-05 -1.132453e-04 0.000000e+00 0.000000e+00 0.000000e+00 0.000000e+00 3.331094e-04 -1.058643e-04 0.000000e+00 -1.058643e-04 1.638152e-05 0.000000e+00 0.000000e+00 0.000000e+00 0.000000e+00 -6.450785e-05 1.600046e-04 0.000000e+00 1.600046e-04 3.884944e-05 0.000000e+00 0.000000e+00 0.000000e+00 0.000000e+00 1.694667e-04 -4.193778e-05 0.000000e+00 -4.193778e-05 -3.283021e-04 0.000000e+00 0.000000e+00 0.000000e+00 0.000000e+00 1.787294e-04 -2.944017e-05 0.000000e+00 -2.944017e-05 -5.397832e-04 0.000000e+00 0.000000e+00 0.000000e+00 0.000000e+00 1.873113e-04 -5.269325e-05 0.000000e+00 -5.269325e-05 -2.487703e-04 0.000000e+00 0.000000e+00 0.000000e+00 0.000000e+00 1.642749e-04 -4.815831e-05 0.000000e+00 -4.815831e-05 -3.693942e-04 0.000000e+00 0.000000e+00 0.000000e+00 0.000000e+00 -1.671838e-04 -4.403050e-06 0.000000e+00 -4.403050e-06 1.527339e-04 0.000000e+00 0.000000e+00 0.000000e+00 0.000000e+00 2.981084e-04 -8.449801e-05 0.000000e+00 -8.449801e-05 -4.582500e-05 0.000000e+00 0.000000e+00 0.000000e+00 0.000000e+00 4.682909e-04 -2.635332e-04 0.000000e+00 -2.635332e-04 5.702360e-04 0.000000e+00 0.000000e+00 0.000000e+00 0.000000e+00 1.788608e-04 3.051855e-04 0.000000e+00 3.051855e-04 2.519375e-04 0.000000e+00 0.000000e+00 0.000000e+00 0.000000e+00 2.114539e-04 -3.522574e-05 0.000000e+00 -3.522574e-05 -6.410052e-04 0.000000e+00 0.000000e+00 0.000000e+00 0.000000e+00 1.808001e-04 -4.960143e-05 0.000000e+00 -4.960143e-05 -2.663049e-04 0.000000e+00 0.000000e+00 0.000000e+00 0.000000e+00 1.853435e-04 -3.210299e-05 0.000000e+00 -3.210299e-05 -5.738460e-04 0.000000e+00 0.000000e+00 0.000000e+00 0.000000e+00 1.520486e-04 -1.008809e-04 0.000000e+00 -1.008809e-04 -4.467603e-04 0.000000e+00 0.000000e+00 0.000000e+00 0.000000e+00 1.928607e-04 -3.531425e-05 0.000000e+00 -3.531425e-05 -5.996916e-04 0.000000e+00 0.000000e+00 0.000000e+00 0.000000e+00 2.721773e-04 -8.477999e-05 0.000000e+00 -8.477999e-05 -7.799886e-05 0.000000e+00 0.000000e+00 0.000000e+00 0.000000e+00 2.147344e-04 -6.778806e-05 0.000000e+00 -6.778806e-05 -1.778408e-04 0.000000e+00 0.000000e+00 0.000000e+00 0.000000e+00 -9.573958e-05 1.456951e-04 0.000000e+00 1.456951e-04 3.609751e-05 0.000000e+00 0.000000e+00 0.000000e+00 0.000000e+00 1.719827e-04 -8.075668e-05 0.000000e+00 -8.075668e-05 -4.895117e-04 0.000000e+00 0.000000e+00 0.000000e+00 0.000000e+00 1.163920e-04 -1.720213e-04 0.000000e+00 -1.720213e-04 -2.772820e-04 0.000000e+00 0.000000e+00 0.000000e+00 0.000000e+00 1.477912e-04 -5.487922e-05 0.000000e+00 -5.487922e-05 -5.291037e-04 0.000000e+00 0.000000e+00 0.000000e+00 0.000000e+00 1.507418e-04 -7.390530e-05 0.000000e+00 -7.390530e-05 -4.717138e-04 0.000000e+00 0.000000e+00 0.000000e+00 0.000000e+00 1.637607e-04 -3.853800e-05 0.000000e+00 -3.853800e-05 -5.291994e-04 0.000000e+00 0.000000e+00 0.000000e+00 0.000000e+00 1.644829e-04 -5.339722e-05 0.000000e+00 -5.339722e-05 -4.958065e-04 0.000000e+00 0.000000e+00 0.000000e+00 0.000000e+00 1.775995e-04 -1.967570e-05 0.000000e+00 -1.967570e-05 -5.697011e-04 0.000000e+00 0.000000e+00 0.000000e+00 0.000000e+00 1.540791e-04 -8.000312e-05 0.000000e+00 -8.000312e-05 -4.345815e-04 0.000000e+00 0.000000e+00 0.000000e+00 0.000000e+00 1.728152e-04 -3.706709e-05 0.000000e+00 -3.706709e-05 -5.216315e-04 0.000000e+00 0.000000e+00 0.000000e+00 0.000000e+00 1.747702e-04 9.396319e-06 0.000000e+00 9.396319e-06 -6.225980e-04 0.000000e+00 0.000000e+00 0.000000e+00 0.000000e+00 2.197351e-04 -1.856080e-05 0.000000e+00 -1.856080e-05 -6.488662e-04 0.000000e+00 0.000000e+00 0.000000e+00 0.000000e+00 1.480277e-04 -1.082911e-04 0.000000e+00 -1.082911e-04 -4.034903e-04 0.000000e+00 0.000000e+00 0.000000e+00 0.000000e+00 1.980142e-04 -2.831565e-05 0.000000e+00 -2.831565e-05 -5.877511e-04 0.000000e+00 0.000000e+00 0.000000e+00 0.000000e+00 1.945918e-04 -5.390154e-05 0.000000e+00 -5.390154e-05 -2.332051e-04 0.000000e+00 0.000000e+00 0.000000e+00 0.000000e+00 2.389857e-04 -7.401100e-05 0.000000e+00 -7.401100e-05 -1.308760e-04 0.000000e+00 0.000000e+00 0.000000e+00 0.000000e+00 -8.509398e-05 1.243785e-04 0.000000e+00 1.243785e-04 1.146679e-04 0.000000e+00 0.000000e+00 0.000000e+00 0.000000e+00 1.807637e-04 -7.047911e-05 0.000000e+00 -7.047911e-05 -2.590105e-04 0.000000e+00 0.000000e+00 0.000000e+00 0.000000e+00 3.031089e-04 -9.475001e-05 0.000000e+00 -9.475001e-05 -2.642224e-05 0.000000e+00 0.000000e+00 0.000000e+00 0.000000e+00 4.099355e-04 -2.701604e-04 0.000000e+00 -2.701604e-04 7.133938e-04 0.000000e+00 0.000000e+00 0.000000e+00 0.000000e+00 1.336052e-04 1.050850e-04 0.000000e+00 1.050850e-04 -3.542643e-05 0.000000e+00 0.000000e+00 0.000000e+00 0.000000e+00 5.611828e-05 -2.347003e-04 0.000000e+00 -2.347003e-04 -1.306267e-04 0.000000e+00 0.000000e+00 0.000000e+00 0.000000e+00 1.715732e-04 1.521534e-04 0.000000e+00 1.521534e-04 -2.261302e-05 0.000000e+00 0.000000e+00 0.000000e+00 0.000000e+00 4.776074e-05 9.593594e-05 0.000000e+00 9.593594e-05 9.475287e-04 0.000000e+00 0.000000e+00 0.000000e+00 0.000000e+00 -6.362660e-05 1.520490e-04 0.000000e+00 1.520490e-04 6.418242e-05 0.000000e+00 0.000000e+00 0.000000e+00 0.000000e+00 1.246941e-05 -2.414001e-04 0.000000e+00 -2.414001e-04 -6.833047e-05 0.000000e+00 0.000000e+00 0.000000e+00 0.000000e+00 3.591989e-04 -2.498833e-04 0.000000e+00 -2.498833e-04 4.542513e-04 0.000000e+00 0.000000e+00 0.000000e+00 0.000000e+00 8.391248e-05 3.071064e-04 0.000000e+00 3.071064e-04 8.563294e-04 0.000000e+00 0.000000e+00 0.000000e+00 0.000000e+00 1.193246e-04 1.308272e-04 0.000000e+00 1.308272e-04 -3.182570e-05 0.000000e+00 0.000000e+00 0.000000e+00 0.000000e+00 1.645617e-04 -4.267608e-05 0.000000e+00 -4.267608e-05 -4.785103e-04 0.000000e+00 0.000000e+00 0.000000e+00 0.000000e+00 1.912387e-04 -4.791487e-05 0.000000e+00 -4.791487e-05 -5.517665e-04 0.000000e+00 0.000000e+00 0.000000e+00 0.000000e+00 1.993228e-04 2.413499e-04 0.000000e+00 2.413499e-04 9.239462e-05 0.000000e+00 0.000000e+00 0.000000e+00 0.000000e+00 6.431890e-05 2.672070e-04 0.000000e+00 2.672070e-04 5.804817e-04 0.000000e+00 0.000000e+00 0.000000e+00 0.000000e+00 1.628125e-04 -5.921240e-05 0.000000e+00 -5.921240e-05 -4.615280e-04 0.000000e+00 0.000000e+00 0.000000e+00 0.000000e+00 -3.745902e-05 -2.330062e-04 0.000000e+00 -2.330062e-04 -7.211096e-06 0.000000e+00 0.000000e+00 0.000000e+00 0.000000e+00 7.258349e-05 1.634281e-04 0.000000e+00 1.634281e-04 -3.110904e-06 0.000000e+00 0.000000e+00 0.000000e+00 0.000000e+00 1.566137e-04 -7.635236e-05 0.000000e+00 -7.635236e-05 -4.058770e-04 0.000000e+00 0.000000e+00 0.000000e+00 0.000000e+00 1.755263e-04 1.757589e-04 0.000000e+00 1.757589e-04 3.795753e-06 0.000000e+00 0.000000e+00 0.000000e+00 0.000000e+00 2.266997e-04 -9.244025e-05 0.000000e+00 -9.244025e-05 -1.389500e-04 0.000000e+00 0.000000e+00 0.000000e+00 0.000000e+00 7.243574e-05 2.695421e-04 0.000000e+00 2.695421e-04 4.294026e-04 0.000000e+00 0.000000e+00 0.000000e+00 0.000000e+00 1.891079e-04 -7.593568e-05 0.000000e+00 -7.593568e-05 -2.326768e-04 0.000000e+00 0.000000e+00 0.000000e+00 0.000000e+00 -1.197592e-04 6.284851e-05 0.000000e+00 6.284851e-05 1.694108e-04 0.000000e+00 0.000000e+00 0.000000e+00 0.000000e+00 3.715880e-04 -2.027306e-04 0.000000e+00 -2.027306e-04 2.410111e-04 0.000000e+00 0.000000e+00 0.000000e+00 0.000000e+00 4.058021e-05 2.136232e-04 0.000000e+00 2.136232e-04 7.568891e-04 0.000000e+00 0.000000e+00 0.000000e+00 0.000000e+00 3.412714e-04 -1.618995e-04 0.000000e+00 -1.618995e-04 9.578758e-05 0.000000e+00 0.000000e+00 0.000000e+00 0.000000e+00 3.019831e-04 -1.397244e-04 0.000000e+00 -1.397244e-04 1.872765e-05 0.000000e+00 0.000000e+00 0.000000e+00 0.000000e+00 1.194555e-04 -1.086219e-04 0.000000e+00 -1.086219e-04 9.003059e-04 0.000000e+00 0.000000e+00 0.000000e+00 0.000000e+00 2.035001e-04 -9.484533e-05 0.000000e+00 -9.484533e-05 -1.813193e-04 0.000000e+00 0.000000e+00 0.000000e+00 0.000000e+00 1.874644e-04 2.049247e-04 0.000000e+00 2.049247e-04 4.071808e-05 0.000000e+00 0.000000e+00 0.000000e+00 0.000000e+00 1.171541e-04 1.472498e-04 0.000000e+00 1.472498e-04 -2.350077e-05 0.000000e+00 0.000000e+00 0.000000e+00 0.000000e+00 2.155326e-04 -9.265100e-05 0.000000e+00 -9.265100e-05 -1.585247e-04 0.000000e+00 0.000000e+00 0.000000e+00 0.000000e+00 1.280134e-04 2.510063e-04 0.000000e+00 2.510063e-04 2.091295e-04 0.000000e+00 0.000000e+00 0.000000e+00 0.000000e+00 1.458185e-04 1.187052e-04 0.000000e+00 1.187052e-04 -4.023398e-05 0.000000e+00 0.000000e+00 0.000000e+00 0.000000e+00 3.806140e-04 -2.572977e-04 0.000000e+00 -2.572977e-04 5.327747e-04 0.000000e+00 0.000000e+00 0.000000e+00 0.000000e+00 1.599303e-04 1.308332e-04 0.000000e+00 1.308332e-04 -3.741702e-05 0.000000e+00 0.000000e+00 0.000000e+00 0.000000e+00 1.600096e-04 -4.980095e-05 0.000000e+00 -4.980095e-05 -4.399958e-04 0.000000e+00 0.000000e+00 0.000000e+00 0.000000e+00 3.643558e-04 -2.387292e-04 0.000000e+00 -2.387292e-04 3.676130e-04 0.000000e+00 0.000000e+00 0.000000e+00 0.000000e+00 2.689472e-04 -1.142560e-04 0.000000e+00 -1.142560e-04 -6.062051e-05 0.000000e+00 0.000000e+00 0.000000e+00 0.000000e+00 3.384889e-04 -1.436624e-04 0.000000e+00 -1.436624e-04 6.307479e-05 0.000000e+00 0.000000e+00 0.000000e+00 0.000000e+00 1.933556e-04 -8.981548e-05 0.000000e+00 -8.981548e-05 -2.039105e-04 0.000000e+00 0.000000e+00 0.000000e+00 0.000000e+00 1.593085e-04 -6.409175e-05 0.000000e+00 -6.409175e-05 -3.477556e-04 0.000000e+00 0.000000e+00 0.000000e+00 0.000000e+00 2.401496e-04 -1.122963e-04 0.000000e+00 -1.122963e-04 -9.830272e-05 0.000000e+00 0.000000e+00 0.000000e+00 0.000000e+00 2.386004e-04 -1.493737e-05 0.000000e+00 -1.493737e-05 -7.051353e-04 0.000000e+00 0.000000e+00 0.000000e+00 0.000000e+00 1.491543e-04 -1.067053e-04 0.000000e+00 -1.067053e-04 -3.726263e-04 0.000000e+00 0.000000e+00 0.000000e+00 0.000000e+00 1.725824e-04 -8.325969e-05 0.000000e+00 -8.325969e-05 -2.754853e-04 0.000000e+00 0.000000e+00 0.000000e+00 0.000000e+00 1.664527e-04 -5.708396e-05 0.000000e+00 -5.708396e-05 -3.265351e-04 0.000000e+00 0.000000e+00 0.000000e+00 0.000000e+00 -1.420322e-04 -3.106305e-05 0.000000e+00 -3.106305e-05 1.996765e-04 0.000000e+00 0.000000e+00 0.000000e+00 0.000000e+00 2.535119e-04 -1.159835e-04 0.000000e+00 -1.159835e-04 -7.685319e-05 0.000000e+00 0.000000e+00 0.000000e+00 0.000000e+00 2.454346e-05 1.689708e-04 0.000000e+00 1.689708e-04 1.661664e-05 0.000000e+00 0.000000e+00 0.000000e+00 0.000000e+00 3.929280e-04 -2.183162e-04 0.000000e+00 -2.183162e-04 2.903220e-04 0.000000e+00 0.000000e+00 0.000000e+00 0.000000e+00 1.620285e-04 -5.755790e-05 0.000000e+00 -5.755790e-05 -4.083631e-04 0.000000e+00 0.000000e+00 0.000000e+00 0.000000e+00 2.780831e-04 -1.200244e-04 0.000000e+00 -1.200244e-04 -3.685507e-05 0.000000e+00 0.000000e+00 0.000000e+00 0.000000e+00 -1.345799e-04 -1.260132e-04 0.000000e+00 -1.260132e-04 1.878756e-04 0.000000e+00 0.000000e+00 0.000000e+00 0.000000e+00 1.381511e-04 -1.405621e-04 0.000000e+00 -1.405621e-04 -3.289953e-04 0.000000e+00 0.000000e+00 0.000000e+00 0.000000e+00 2.313841e-04 -1.039096e-04 0.000000e+00 -1.039096e-04 -1.198388e-04 0.000000e+00 0.000000e+00 0.000000e+00 0.000000e+00 -1.225756e-04 -6.565799e-05 0.000000e+00 -6.565799e-05 2.513579e-04 0.000000e+00 0.000000e+00 0.000000e+00 0.000000e+00 1.699614e-04 -7.043087e-05 0.000000e+00 -7.043087e-05 -3.008067e-04 0.000000e+00 0.000000e+00 0.000000e+00 0.000000e+00 -8.349189e-05 -2.234039e-04 0.000000e+00 -2.234039e-04 7.654897e-05 0.000000e+00 0.000000e+00 0.000000e+00 0.000000e+00 2.896522e-04 -1.332877e-04 0.000000e+00 -1.332877e-04 -8.120195e-06 0.000000e+00 0.000000e+00 0.000000e+00 0.000000e+00 3.839732e-04 -1.763694e-04 0.000000e+00 -1.763694e-04 1.750560e-04 0.000000e+00 0.000000e+00 0.000000e+00 0.000000e+00 9.507191e-05 -2.119843e-04 0.000000e+00 -2.119843e-04 -1.916142e-04 0.000000e+00 0.000000e+00 0.000000e+00 0.000000e+00 1.753376e-04 -9.534882e-05 0.000000e+00 -9.534882e-05 -2.459120e-04 0.000000e+00 0.000000e+00 0.000000e+00 0.000000e+00 2.050561e-05 -2.565283e-04 0.000000e+00 -2.565283e-04 -3.630707e-05 0.000000e+00 0.000000e+00 0.000000e+00 0.000000e+00 1.572567e-04 -6.985664e-05 0.000000e+00 -6.985664e-05 -3.733084e-04 0.000000e+00 0.000000e+00 0.000000e+00 0.000000e+00 1.122899e-04 1.793073e-04 0.000000e+00 1.793073e-04 2.767390e-05 0.000000e+00 0.000000e+00 0.000000e+00 0.000000e+00 1.073236e-04 2.192845e-04 0.000000e+00 2.192845e-04 1.439278e-04 0.000000e+00 0.000000e+00 0.000000e+00 0.000000e+00 3.188778e-04 -1.424660e-04 0.000000e+00 -1.424660e-04 4.302369e-05 0.000000e+00 0.000000e+00 0.000000e+00 0.000000e+00 -1.045169e-04 -1.951587e-04 0.000000e+00 -1.951587e-04 1.501432e-04 0.000000e+00 0.000000e+00 0.000000e+00 0.000000e+00 1.060474e-04 1.980145e-04 0.000000e+00 1.980145e-04 7.869392e-05 0.000000e+00 0.000000e+00 0.000000e+00 0.000000e+00 1.526210e-04 -9.956727e-05 0.000000e+00 -9.956727e-05 -3.494239e-04 0.000000e+00 0.000000e+00 0.000000e+00 0.000000e+00 -2.508753e-05 1.662923e-04 0.000000e+00 1.662923e-04 3.240360e-05 0.000000e+00 0.000000e+00 0.000000e+00 0.000000e+00 2.690419e-04 -1.711444e-04 0.000000e+00 -1.711444e-04 2.279451e-05 0.000000e+00 0.000000e+00 0.000000e+00 0.000000e+00 1.415259e-04 -1.343557e-04 0.000000e+00 -1.343557e-04 -3.046834e-04 0.000000e+00 0.000000e+00 0.000000e+00 0.000000e+00 1.256164e-04 -1.786343e-04 0.000000e+00 -1.786343e-04 -2.432725e-04 0.000000e+00 0.000000e+00 0.000000e+00 0.000000e+00 3.550975e-05 1.717314e-04 0.000000e+00 1.717314e-04 3.059950e-05 0.000000e+00 0.000000e+00 0.000000e+00 0.000000e+00 3.452240e-04 -1.801306e-04 0.000000e+00 -1.801306e-04 1.435272e-04 0.000000e+00 0.000000e+00 0.000000e+00 0.000000e+00 -5.006138e-05 1.334929e-04 0.000000e+00 1.334929e-04 1.608391e-04 0.000000e+00 0.000000e+00 0.000000e+00 0.000000e+00 -1.527948e-05 1.622395e-04 0.000000e+00 1.622395e-04 8.050200e-05 0.000000e+00 0.000000e+00 0.000000e+00 0.000000e+00 -4.560335e-06 1.697549e-04 0.000000e+00 1.697549e-04 4.020044e-05 0.000000e+00 0.000000e+00 0.000000e+00 0.000000e+00 3.234362e-04 -2.186287e-04 0.000000e+00 -2.186287e-04 2.206479e-04 0.000000e+00 0.000000e+00 0.000000e+00 0.000000e+00 -1.033620e-04 4.637549e-05 0.000000e+00 4.637549e-05 2.326108e-04 0.000000e+00 0.000000e+00 0.000000e+00 0.000000e+00 -1.042295e-04 -1.595865e-04 0.000000e+00 -1.595865e-04 2.222826e-04 0.000000e+00 0.000000e+00 0.000000e+00 0.000000e+00 2.853068e-04 -1.765068e-04 0.000000e+00 -1.765068e-04 5.239303e-05 0.000000e+00 0.000000e+00 0.000000e+00 0.000000e+00 1.642988e-04 -9.369115e-05 0.000000e+00 -9.369115e-05 -2.986414e-04 0.000000e+00 0.000000e+00 0.000000e+00 0.000000e+00 2.698187e-05 2.024147e-04 0.000000e+00 2.024147e-04 3.565235e-04 0.000000e+00 0.000000e+00 0.000000e+00 0.000000e+00 3.553616e-05 3.149082e-06 0.000000e+00 3.149082e-06 7.954932e-04 0.000000e+00 0.000000e+00 0.000000e+00 0.000000e+00 2.979583e-04 -2.017144e-04 0.000000e+00 -2.017144e-04 1.301349e-04 0.000000e+00 0.000000e+00 0.000000e+00 0.000000e+00 2.349913e-04 -2.150301e-04 0.000000e+00 -2.150301e-04 7.897195e-04 0.000000e+00 0.000000e+00 0.000000e+00 0.000000e+00 2.191982e-04 -1.363187e-04 0.000000e+00 -1.363187e-04 -1.052186e-04 0.000000e+00 0.000000e+00 0.000000e+00 0.000000e+00 2.952442e-04 -2.513888e-04 0.000000e+00 -2.513888e-04 6.629590e-04 0.000000e+00 0.000000e+00 0.000000e+00 0.000000e+00 9.426260e-05 1.690596e-04 0.000000e+00 1.690596e-04 6.153377e-06 0.000000e+00 0.000000e+00 0.000000e+00 0.000000e+00 1.066099e-04 -2.158127e-04 0.000000e+00 -2.158127e-04 -1.636898e-04 0.000000e+00 0.000000e+00 0.000000e+00 0.000000e+00 2.122903e-06 1.016625e-04 0.000000e+00 1.016625e-04 6.744948e-04 0.000000e+00 0.000000e+00 0.000000e+00 0.000000e+00 -2.863084e-05 -2.500383e-04 0.000000e+00 -2.500383e-04 2.152370e-05 0.000000e+00 0.000000e+00 0.000000e+00 0.000000e+00 6.914186e-05 -2.452460e-04 0.000000e+00 -2.452460e-04 -9.168872e-05 0.000000e+00 0.000000e+00 0.000000e+00 0.000000e+00 2.547190e-04 -2.513923e-04 0.000000e+00 -2.513923e-04 4.509742e-04 0.000000e+00 0.000000e+00 0.000000e+00 0.000000e+00 2.446482e-04 -1.520699e-04 0.000000e+00 -1.520699e-04 -4.536124e-05 0.000000e+00 0.000000e+00 0.000000e+00 0.000000e+00 1.352262e-04 1.559388e-04 0.000000e+00 1.559388e-04 -1.677916e-05 0.000000e+00 0.000000e+00 0.000000e+00 0.000000e+00 1.853097e-04 -1.260942e-04 0.000000e+00 -1.260942e-04 -1.903250e-04 0.000000e+00 0.000000e+00 0.000000e+00 0.000000e+00 2.611440e-04 -1.603159e-04 0.000000e+00 -1.603159e-04 -1.312212e-05 0.000000e+00 0.000000e+00 0.000000e+00 0.000000e+00 2.954012e-04 -2.402120e-04 0.000000e+00 -2.402120e-04 3.193885e-04 0.000000e+00 0.000000e+00 0.000000e+00 0.000000e+00 2.291801e-04 -1.480097e-04 0.000000e+00 -1.480097e-04 -7.520134e-05 0.000000e+00 0.000000e+00 0.000000e+00 0.000000e+00 1.622674e-04 -7.338289e-05 0.000000e+00 -7.338289e-05 -3.223105e-04 0.000000e+00 0.000000e+00 0.000000e+00 0.000000e+00 -6.253138e-05 -2.389802e-04 0.000000e+00 -2.389802e-04 9.962161e-05 0.000000e+00 0.000000e+00 0.000000e+00 0.000000e+00 1.643843e-04 -1.089370e-04 0.000000e+00 -1.089370e-04 -2.651458e-04 0.000000e+00 0.000000e+00 0.000000e+00 0.000000e+00 1.559230e-04 -8.768895e-05 0.000000e+00 -8.768895e-05 -3.318808e-04 0.000000e+00 0.000000e+00 0.000000e+00 0.000000e+00 1.979822e-04 -1.253238e-04 0.000000e+00 -1.253238e-04 -1.575618e-04 0.000000e+00 0.000000e+00 0.000000e+00 0.000000e+00 -6.230131e-06 1.479370e-04 0.000000e+00 1.479370e-04 5.225861e-04 0.000000e+00 0.000000e+00 0.000000e+00 0.000000e+00 2.420457e-04 -2.386004e-04 0.000000e+00 -2.386004e-04 5.671575e-04 0.000000e+00 0.000000e+00 0.000000e+00 0.000000e+00 2.148352e-04 -1.193223e-04 0.000000e+00 -1.193223e-04 -1.350488e-04 0.000000e+00 0.000000e+00 0.000000e+00 0.000000e+00 -5.882409e-05 -2.284496e-04 0.000000e+00 -2.284496e-04 1.553731e-04 0.000000e+00 0.000000e+00 0.000000e+00 0.000000e+00 1.448619e-04 -1.555248e-04 0.000000e+00 -1.555248e-04 -2.449285e-04 0.000000e+00 0.000000e+00 0.000000e+00 0.000000e+00 2.023730e-04 -1.699146e-04 0.000000e+00 -1.699146e-04 -8.328423e-05 0.000000e+00 0.000000e+00 0.000000e+00 0.000000e+00 3.379983e-05 -2.659346e-04 0.000000e+00 -2.659346e-04 3.175083e-06 0.000000e+00 0.000000e+00 0.000000e+00 0.000000e+00 1.305909e-04 -1.893377e-04 0.000000e+00 -1.893377e-04 -1.816236e-04 0.000000e+00 0.000000e+00 0.000000e+00 0.000000e+00 2.864497e-04 -2.170892e-04 0.000000e+00 -2.170892e-04 1.869288e-04 0.000000e+00 0.000000e+00 0.000000e+00 0.000000e+00 1.868492e-04 -1.000380e-04 0.000000e+00 -1.000380e-04 -2.211027e-04 0.000000e+00 0.000000e+00 0.000000e+00 0.000000e+00 -1.774973e-05 -2.577171e-04 0.000000e+00 -2.577171e-04 5.768726e-05 0.000000e+00 0.000000e+00 0.000000e+00 0.000000e+00 3.094780e-04 -1.760575e-04 0.000000e+00 -1.760575e-04 7.943321e-05 0.000000e+00 0.000000e+00 0.000000e+00 0.000000e+00 2.254522e-05 1.881441e-04 0.000000e+00 1.881441e-04 2.543911e-04 0.000000e+00 0.000000e+00 0.000000e+00 0.000000e+00 1.517963e-04 -1.179211e-04 0.000000e+00 -1.179211e-04 -2.931671e-04 0.000000e+00 0.000000e+00 0.000000e+00 0.000000e+00 3.520143e-05 -8.266678e-05 0.000000e+00 -8.266678e-05 6.711070e-04 0.000000e+00 0.000000e+00 0.000000e+00 0.000000e+00 2.314296e-04 -2.424470e-04 0.000000e+00 -2.424470e-04 2.703640e-04 0.000000e+00 0.000000e+00 0.000000e+00 0.000000e+00 2.401621e-04 -2.329422e-04 0.000000e+00 -2.329422e-04 1.734432e-04 0.000000e+00 0.000000e+00 0.000000e+00 0.000000e+00 -9.816768e-05 -1.069407e-04 0.000000e+00 -1.069407e-04 3.011652e-04 0.000000e+00 0.000000e+00 0.000000e+00 0.000000e+00 3.447138e-05 1.800131e-04 0.000000e+00 1.800131e-04 9.849840e-05 0.000000e+00 0.000000e+00 0.000000e+00 0.000000e+00 1.286138e-04 -1.650698e-04 0.000000e+00 -1.650698e-04 7.148721e-04 0.000000e+00 0.000000e+00 0.000000e+00 0.000000e+00 1.924150e-04 -2.438473e-04 0.000000e+00 -2.438473e-04 3.952869e-04 0.000000e+00 0.000000e+00 0.000000e+00 0.000000e+00 1.102644e-04 -2.279869e-04 0.000000e+00 -2.279869e-04 -1.083502e-04 0.000000e+00 0.000000e+00 0.000000e+00 0.000000e+00 1.763162e-04 -1.612925e-04 0.000000e+00 -1.612925e-04 -1.508354e-04 0.000000e+00 0.000000e+00 0.000000e+00 0.000000e+00 2.404329e-04 -2.055064e-04 0.000000e+00 -2.055064e-04 6.346444e-05 0.000000e+00 0.000000e+00 0.000000e+00 0.000000e+00 -2.104293e-05 1.254030e-07 0.000000e+00 1.254030e-07 6.061033e-04 0.000000e+00 0.000000e+00 0.000000e+00 0.000000e+00 1.427936e-04 -2.411108e-04 0.000000e+00 -2.411108e-04 3.437271e-04 0.000000e+00 0.000000e+00 0.000000e+00 0.000000e+00 2.094859e-04 -1.830210e-04 0.000000e+00 -1.830210e-04 -4.365796e-05 0.000000e+00 0.000000e+00 0.000000e+00 0.000000e+00 1.971754e-04 -1.510078e-04 0.000000e+00 -1.510078e-04 -1.232962e-04 0.000000e+00 0.000000e+00 0.000000e+00 0.000000e+00 -6.282575e-05 -1.937211e-04 0.000000e+00 -1.937211e-04 2.412612e-04 0.000000e+00 0.000000e+00 0.000000e+00 0.000000e+00 5.702126e-05 1.800718e-04 0.000000e+00 1.800718e-04 4.414057e-05 0.000000e+00 0.000000e+00 0.000000e+00 0.000000e+00 2.631270e-04 -2.096282e-04 0.000000e+00 -2.096282e-04 1.028611e-04 0.000000e+00 0.000000e+00 0.000000e+00 0.000000e+00 1.577554e-04 -1.586032e-04 0.000000e+00 -1.586032e-04 -1.910145e-04 0.000000e+00 0.000000e+00 0.000000e+00 0.000000e+00 -5.132477e-05 1.164723e-04 0.000000e+00 1.164723e-04 2.512684e-04 0.000000e+00 0.000000e+00 0.000000e+00 0.000000e+00 2.329321e-05 1.802209e-04 0.000000e+00 1.802209e-04 1.660488e-04 0.000000e+00 0.000000e+00 0.000000e+00 0.000000e+00 2.403229e-04 -1.965028e-04 0.000000e+00 -1.965028e-04 2.253818e-05 0.000000e+00 0.000000e+00 0.000000e+00 0.000000e+00 -9.668310e-05 9.420068e-06 0.000000e+00 9.420068e-06 3.071681e-04 0.000000e+00 0.000000e+00 0.000000e+00 0.000000e+00 1.449821e-04 -1.981942e-04 0.000000e+00 -1.981942e-04 -1.262682e-04 0.000000e+00 0.000000e+00 0.000000e+00 0.000000e+00 2.627275e-05 -1.348877e-04 0.000000e+00 -1.348877e-04 5.635292e-04 0.000000e+00 0.000000e+00 0.000000e+00 0.000000e+00 1.732869e-04 -2.480774e-04 0.000000e+00 -2.480774e-04 2.307888e-04 0.000000e+00 0.000000e+00 0.000000e+00 0.000000e+00 2.216209e-04 -1.902375e-04 0.000000e+00 -1.902375e-04 -8.145731e-06 0.000000e+00 0.000000e+00 0.000000e+00 0.000000e+00 1.797371e-04 -2.050034e-04 0.000000e+00 -2.050034e-04 -5.076001e-05 0.000000e+00 0.000000e+00 0.000000e+00 0.000000e+00 -1.812422e-05 -2.449199e-04 0.000000e+00 -2.449199e-04 1.693232e-04 0.000000e+00 0.000000e+00 0.000000e+00 0.000000e+00 1.993801e-04 -2.347229e-04 0.000000e+00 -2.347229e-04 1.283041e-04 0.000000e+00 0.000000e+00 0.000000e+00 0.000000e+00 1.707686e-04 -1.259218e-04 0.000000e+00 -1.259218e-04 -2.228219e-04 0.000000e+00 0.000000e+00 0.000000e+00 0.000000e+00 -1.699348e-06 -2.620674e-04 0.000000e+00 -2.620674e-04 9.858038e-05 0.000000e+00 0.000000e+00 0.000000e+00 0.000000e+00 1.763078e-04 -1.831177e-04 0.000000e+00 -1.831177e-04 -1.048200e-04 0.000000e+00 0.000000e+00 0.000000e+00 0.000000e+00 1.262455e-04 -2.026948e-04 0.000000e+00 -2.026948e-04 5.589103e-04 0.000000e+00 0.000000e+00 0.000000e+00 0.000000e+00 8.764358e-05 -2.121280e-04 0.000000e+00 -2.121280e-04 4.650020e-04 0.000000e+00 0.000000e+00 0.000000e+00 0.000000e+00 -5.079319e-05 -1.635358e-04 0.000000e+00 -1.635358e-04 3.195631e-04 0.000000e+00 0.000000e+00 0.000000e+00 0.000000e+00 -4.643053e-05 2.908134e-05 0.000000e+00 2.908134e-05 5.148184e-04 0.000000e+00 0.000000e+00 0.000000e+00 0.000000e+00 7.960036e-05 -2.558812e-04 0.000000e+00 -2.558812e-04 -3.023845e-05 0.000000e+00 0.000000e+00 0.000000e+00 0.000000e+00 1.212021e-04 -2.362867e-04 0.000000e+00 -2.362867e-04 -5.272782e-05 0.000000e+00 0.000000e+00 0.000000e+00 0.000000e+00 -5.177061e-05 9.867587e-05 0.000000e+00 9.867587e-05 3.414188e-04 0.000000e+00 0.000000e+00 0.000000e+00 0.000000e+00 1.600986e-04 -1.345564e-04 0.000000e+00 -1.345564e-04 -2.450731e-04 0.000000e+00 0.000000e+00 0.000000e+00 0.000000e+00 -7.977465e-05 -4.189237e-05 0.000000e+00 -4.189237e-05 3.780008e-04 0.000000e+00 0.000000e+00 0.000000e+00 0.000000e+00 1.815634e-04 -2.195218e-04 0.000000e+00 -2.195218e-04 -2.790327e-07 0.000000e+00 0.000000e+00 0.000000e+00 0.000000e+00 6.669047e-06 -2.371640e-04 0.000000e+00 -2.371640e-04 2.188571e-04 0.000000e+00 0.000000e+00 0.000000e+00 0.000000e+00 1.941907e-04 -2.271140e-04 0.000000e+00 -2.271140e-04 5.329379e-05 0.000000e+00 0.000000e+00 0.000000e+00 0.000000e+00 4.729651e-05 -2.668792e-04 0.000000e+00 -2.668792e-04 4.466202e-05 0.000000e+00 0.000000e+00 0.000000e+00 0.000000e+00 -3.628740e-05 -8.173876e-05 0.000000e+00 -8.173876e-05 5.164132e-04 0.000000e+00 0.000000e+00 0.000000e+00 0.000000e+00 9.148745e-05 -2.587240e-04 0.000000e+00 -2.587240e-04 3.682086e-05 0.000000e+00 0.000000e+00 0.000000e+00 0.000000e+00 1.475608e-04 -2.520810e-04 0.000000e+00 -2.520810e-04 1.758433e-04 0.000000e+00 0.000000e+00 0.000000e+00 0.000000e+00 -3.484601e-05 -1.429068e-04 0.000000e+00 -1.429068e-04 4.085044e-04 0.000000e+00 0.000000e+00 0.000000e+00 0.000000e+00 1.035816e-04 -2.399914e-04 0.000000e+00 -2.399914e-04 2.960125e-04 0.000000e+00 0.000000e+00 0.000000e+00 0.000000e+00 1.370525e-04 -2.468595e-04 0.000000e+00 -2.468595e-04 5.226808e-05 0.000000e+00 0.000000e+00 0.000000e+00 0.000000e+00 1.528676e-04 -2.139094e-04 0.000000e+00 -2.139094e-04 -7.002737e-05 0.000000e+00 0.000000e+00 0.000000e+00 0.000000e+00 1.403831e-04 -2.494603e-04 0.000000e+00 -2.494603e-04 1.164555e-04 0.000000e+00 0.000000e+00 0.000000e+00 0.000000e+00 8.656470e-06 -1.641073e-04 0.000000e+00 -1.641073e-04 4.727713e-04 0.000000e+00 0.000000e+00 0.000000e+00 0.000000e+00 -4.780298e-05 8.789641e-05 0.000000e+00 8.789641e-05 4.412474e-04 0.000000e+00 0.000000e+00 0.000000e+00 0.000000e+00 4.427113e-05 -2.087603e-04 0.000000e+00 -2.087603e-04 3.939819e-04 0.000000e+00 0.000000e+00 0.000000e+00 0.000000e+00 1.433745e-04 -2.361591e-04 0.000000e+00 -2.361591e-04 -1.187102e-05 0.000000e+00 0.000000e+00 0.000000e+00 0.000000e+00 -6.421818e-05 -3.596829e-05 0.000000e+00 -3.596829e-05 4.550539e-04 0.000000e+00 0.000000e+00 0.000000e+00 0.000000e+00 3.641817e-05 -2.629558e-04 0.000000e+00 -2.629558e-04 1.136154e-04 0.000000e+00 0.000000e+00 0.000000e+00 0.000000e+00 1.002437e-04 -2.517064e-04 0.000000e+00 -2.517064e-04 2.463254e-04 0.000000e+00 0.000000e+00 0.000000e+00 0.000000e+00 2.350561e-05 -2.184589e-04 0.000000e+00 -2.184589e-04 2.982885e-04 0.000000e+00 0.000000e+00 0.000000e+00 0.000000e+00 7.748463e-05 -2.594163e-04 0.000000e+00 -2.594163e-04 1.265347e-04 0.000000e+00 0.000000e+00 0.000000e+00 0.000000e+00 8.064366e-05 -2.533967e-04 0.000000e+00 -2.533967e-04 1.911290e-04 0.000000e+00 0.000000e+00 0.000000e+00 0.000000e+00 </DataArray>
</PointData>
<CellData Scalars="" Vectors="" Tensors="" >
</CellData>
</Piece>
</UnstructuredGrid>
</VTKFile>